p cnf 1659 23623
1 85 169 0
-1 -85 0
-1 -169 0
-85 -169 0
2 86 170 0
-2 -86 0
-2 -170 0
-86 -170 0
3 87 171 0
-3 -87 0
-3 -171 0
-87 -171 0
4 88 172 0
-4 -88 0
-4 -172 0
-88 -172 0
5 89 173 0
-5 -89 0
-5 -173 0
-89 -173 0
6 90 174 0
-6 -90 0
-6 -174 0
-90 -174 0
7 91 175 0
-7 -91 0
-7 -175 0
-91 -175 0
8 92 176 0
-8 -92 0
-8 -176 0
-92 -176 0
9 93 177 0
-9 -93 0
-9 -177 0
-93 -177 0
10 94 178 0
-10 -94 0
-10 -178 0
-94 -178 0
11 95 179 0
-11 -95 0
-11 -179 0
-95 -179 0
12 96 180 0
-12 -96 0
-12 -180 0
-96 -180 0
13 97 181 0
-13 -97 0
-13 -181 0
-97 -181 0
14 98 182 0
-14 -98 0
-14 -182 0
-98 -182 0
15 99 183 0
-15 -99 0
-15 -183 0
-99 -183 0
16 100 184 0
-16 -100 0
-16 -184 0
-100 -184 0
17 101 185 0
-17 -101 0
-17 -185 0
-101 -185 0
18 102 186 0
-18 -102 0
-18 -186 0
-102 -186 0
19 103 187 0
-19 -103 0
-19 -187 0
-103 -187 0
20 104 188 0
-20 -104 0
-20 -188 0
-104 -188 0
21 105 189 0
-21 -105 0
-21 -189 0
-105 -189 0
22 106 190 0
-22 -106 0
-22 -190 0
-106 -190 0
23 107 191 0
-23 -107 0
-23 -191 0
-107 -191 0
24 108 192 0
-24 -108 0
-24 -192 0
-108 -192 0
25 109 193 0
-25 -109 0
-25 -193 0
-109 -193 0
26 110 194 0
-26 -110 0
-26 -194 0
-110 -194 0
27 111 195 0
-27 -111 0
-27 -195 0
-111 -195 0
28 112 196 0
-28 -112 0
-28 -196 0
-112 -196 0
29 113 197 0
-29 -113 0
-29 -197 0
-113 -197 0
30 114 198 0
-30 -114 0
-30 -198 0
-114 -198 0
31 115 199 0
-31 -115 0
-31 -199 0
-115 -199 0
32 116 200 0
-32 -116 0
-32 -200 0
-116 -200 0
33 117 201 0
-33 -117 0
-33 -201 0
-117 -201 0
34 118 202 0
-34 -118 0
-34 -202 0
-118 -202 0
35 119 203 0
-35 -119 0
-35 -203 0
-119 -203 0
36 120 204 0
-36 -120 0
-36 -204 0
-120 -204 0
37 121 205 0
-37 -121 0
-37 -205 0
-121 -205 0
38 122 206 0
-38 -122 0
-38 -206 0
-122 -206 0
39 123 207 0
-39 -123 0
-39 -207 0
-123 -207 0
40 124 208 0
-40 -124 0
-40 -208 0
-124 -208 0
41 125 209 0
-41 -125 0
-41 -209 0
-125 -209 0
42 126 210 0
-42 -126 0
-42 -210 0
-126 -210 0
43 127 211 0
-43 -127 0
-43 -211 0
-127 -211 0
44 128 212 0
-44 -128 0
-44 -212 0
-128 -212 0
45 129 213 0
-45 -129 0
-45 -213 0
-129 -213 0
46 130 214 0
-46 -130 0
-46 -214 0
-130 -214 0
47 131 215 0
-47 -131 0
-47 -215 0
-131 -215 0
48 132 216 0
-48 -132 0
-48 -216 0
-132 -216 0
49 133 217 0
-49 -133 0
-49 -217 0
-133 -217 0
50 134 218 0
-50 -134 0
-50 -218 0
-134 -218 0
51 135 219 0
-51 -135 0
-51 -219 0
-135 -219 0
52 136 220 0
-52 -136 0
-52 -220 0
-136 -220 0
53 137 221 0
-53 -137 0
-53 -221 0
-137 -221 0
54 138 222 0
-54 -138 0
-54 -222 0
-138 -222 0
55 139 223 0
-55 -139 0
-55 -223 0
-139 -223 0
56 140 224 0
-56 -140 0
-56 -224 0
-140 -224 0
57 141 225 0
-57 -141 0
-57 -225 0
-141 -225 0
58 142 226 0
-58 -142 0
-58 -226 0
-142 -226 0
59 143 227 0
-59 -143 0
-59 -227 0
-143 -227 0
60 144 228 0
-60 -144 0
-60 -228 0
-144 -228 0
61 145 229 0
-61 -145 0
-61 -229 0
-145 -229 0
62 146 230 0
-62 -146 0
-62 -230 0
-146 -230 0
63 147 231 0
-63 -147 0
-63 -231 0
-147 -231 0
64 148 232 0
-64 -148 0
-64 -232 0
-148 -232 0
65 149 233 0
-65 -149 0
-65 -233 0
-149 -233 0
66 150 234 0
-66 -150 0
-66 -234 0
-150 -234 0
67 151 235 0
-67 -151 0
-67 -235 0
-151 -235 0
68 152 236 0
-68 -152 0
-68 -236 0
-152 -236 0
69 153 237 0
-69 -153 0
-69 -237 0
-153 -237 0
70 154 238 0
-70 -154 0
-70 -238 0
-154 -238 0
71 155 239 0
-71 -155 0
-71 -239 0
-155 -239 0
72 156 240 0
-72 -156 0
-72 -240 0
-156 -240 0
73 157 241 0
-73 -157 0
-73 -241 0
-157 -241 0
74 158 242 0
-74 -158 0
-74 -242 0
-158 -242 0
75 159 243 0
-75 -159 0
-75 -243 0
-159 -243 0
76 160 244 0
-76 -160 0
-76 -244 0
-160 -244 0
77 161 245 0
-77 -161 0
-77 -245 0
-161 -245 0
78 162 246 0
-78 -162 0
-78 -246 0
-162 -246 0
79 163 247 0
-79 -163 0
-79 -247 0
-163 -247 0
80 164 248 0
-80 -164 0
-80 -248 0
-164 -248 0
81 165 249 0
-81 -165 0
-81 -249 0
-165 -249 0
82 166 250 0
-82 -166 0
-82 -250 0
-166 -250 0
83 167 251 0
-83 -167 0
-83 -251 0
-167 -251 0
84 168 252 0
-84 -168 0
-84 -252 0
-168 -252 0
-197 -176 -2 -169 0
-197 -176 -2 -1 0
-197 -176 -86 -169 0
-197 -176 -86 -1 0
-197 -8 -170 -169 0
-197 -8 -170 -1 0
-197 -8 -170 -85 0
-197 -8 -2 -169 0
-197 -8 -2 -1 0
-197 -8 -2 -85 0
-197 -8 -86 -169 0
-197 -8 -86 -1 0
-197 -92 -170 -169 0
-197 -92 -170 -1 0
-197 -92 -170 -85 0
-197 -92 -2 -169 0
-197 -92 -2 -1 0
-197 -92 -2 -85 0
-197 -92 -86 -169 0
-197 -92 -86 -1 0
-29 -176 -170 -1 0
-29 -176 -170 -85 0
-29 -176 -2 -169 0
-29 -176 -2 -1 0
-29 -176 -2 -85 0
-29 -176 -86 -169 0
-29 -176 -86 -1 0
-29 -176 -86 -85 0
-29 -8 -170 -169 0
-29 -8 -170 -1 0
-29 -8 -170 -85 0
-29 -8 -2 -169 0
-29 -8 -2 -1 0
-29 -8 -2 -85 0
-29 -8 -86 -169 0
-29 -8 -86 -1 0
-29 -8 -86 -85 0
-29 -92 -170 -169 0
-29 -92 -170 -1 0
-29 -92 -170 -85 0
-29 -92 -2 -169 0
-29 -92 -2 -1 0
-29 -92 -2 -85 0
-29 -92 -86 -169 0
-29 -92 -86 -1 0
-113 -176 -170 -1 0
-113 -176 -170 -85 0
-113 -176 -2 -169 0
-113 -176 -2 -1 0
-113 -176 -2 -85 0
-113 -176 -86 -169 0
-113 -176 -86 -1 0
-113 -176 -86 -85 0
-113 -8 -170 -1 0
-113 -8 -170 -85 0
-113 -8 -2 -169 0
-113 -8 -2 -1 0
-113 -8 -2 -85 0
-113 -8 -86 -169 0
-113 -8 -86 -1 0
-113 -8 -86 -85 0
-113 -92 -170 -1 0
-113 -92 -170 -85 0
-113 -92 -2 -1 0
-113 -92 -2 -85 0
-198 -177 -3 -169 0
-198 -177 -3 -1 0
-198 -177 -87 -169 0
-198 -177 -87 -1 0
-198 -9 -171 -169 0
-198 -9 -171 -1 0
-198 -9 -171 -85 0
-198 -9 -3 -169 0
-198 -9 -3 -1 0
-198 -9 -3 -85 0
-198 -9 -87 -169 0
-198 -9 -87 -1 0
-198 -93 -171 -169 0
-198 -93 -171 -1 0
-198 -93 -171 -85 0
-198 -93 -3 -169 0
-198 -93 -3 -1 0
-198 -93 -3 -85 0
-198 -93 -87 -169 0
-198 -93 -87 -1 0
-30 -177 -171 -1 0
-30 -177 -171 -85 0
-30 -177 -3 -169 0
-30 -177 -3 -1 0
-30 -177 -3 -85 0
-30 -177 -87 -169 0
-30 -177 -87 -1 0
-30 -177 -87 -85 0
-30 -9 -171 -169 0
-30 -9 -171 -1 0
-30 -9 -171 -85 0
-30 -9 -3 -169 0
-30 -9 -3 -1 0
-30 -9 -3 -85 0
-30 -9 -87 -169 0
-30 -9 -87 -1 0
-30 -9 -87 -85 0
-30 -93 -171 -169 0
-30 -93 -171 -1 0
-30 -93 -171 -85 0
-30 -93 -3 -169 0
-30 -93 -3 -1 0
-30 -93 -3 -85 0
-30 -93 -87 -169 0
-30 -93 -87 -1 0
-114 -177 -171 -1 0
-114 -177 -171 -85 0
-114 -177 -3 -169 0
-114 -177 -3 -1 0
-114 -177 -3 -85 0
-114 -177 -87 -169 0
-114 -177 -87 -1 0
-114 -177 -87 -85 0
-114 -9 -171 -1 0
-114 -9 -171 -85 0
-114 -9 -3 -169 0
-114 -9 -3 -1 0
-114 -9 -3 -85 0
-114 -9 -87 -169 0
-114 -9 -87 -1 0
-114 -9 -87 -85 0
-114 -93 -171 -1 0
-114 -93 -171 -85 0
-114 -93 -3 -1 0
-114 -93 -3 -85 0
-199 -178 -4 -169 0
-199 -178 -4 -1 0
-199 -178 -88 -169 0
-199 -178 -88 -1 0
-199 -10 -172 -169 0
-199 -10 -172 -1 0
-199 -10 -172 -85 0
-199 -10 -4 -169 0
-199 -10 -4 -1 0
-199 -10 -4 -85 0
-199 -10 -88 -169 0
-199 -10 -88 -1 0
-199 -94 -172 -169 0
-199 -94 -172 -1 0
-199 -94 -172 -85 0
-199 -94 -4 -169 0
-199 -94 -4 -1 0
-199 -94 -4 -85 0
-199 -94 -88 -169 0
-199 -94 -88 -1 0
-31 -178 -172 -1 0
-31 -178 -172 -85 0
-31 -178 -4 -169 0
-31 -178 -4 -1 0
-31 -178 -4 -85 0
-31 -178 -88 -169 0
-31 -178 -88 -1 0
-31 -178 -88 -85 0
-31 -10 -172 -169 0
-31 -10 -172 -1 0
-31 -10 -172 -85 0
-31 -10 -4 -169 0
-31 -10 -4 -1 0
-31 -10 -4 -85 0
-31 -10 -88 -169 0
-31 -10 -88 -1 0
-31 -10 -88 -85 0
-31 -94 -172 -169 0
-31 -94 -172 -1 0
-31 -94 -172 -85 0
-31 -94 -4 -169 0
-31 -94 -4 -1 0
-31 -94 -4 -85 0
-31 -94 -88 -169 0
-31 -94 -88 -1 0
-115 -178 -172 -1 0
-115 -178 -172 -85 0
-115 -178 -4 -169 0
-115 -178 -4 -1 0
-115 -178 -4 -85 0
-115 -178 -88 -169 0
-115 -178 -88 -1 0
-115 -178 -88 -85 0
-115 -10 -172 -1 0
-115 -10 -172 -85 0
-115 -10 -4 -169 0
-115 -10 -4 -1 0
-115 -10 -4 -85 0
-115 -10 -88 -169 0
-115 -10 -88 -1 0
-115 -10 -88 -85 0
-115 -94 -172 -1 0
-115 -94 -172 -85 0
-115 -94 -4 -1 0
-115 -94 -4 -85 0
-200 -179 -5 -169 0
-200 -179 -5 -1 0
-200 -179 -89 -169 0
-200 -179 -89 -1 0
-200 -11 -173 -169 0
-200 -11 -173 -1 0
-200 -11 -173 -85 0
-200 -11 -5 -169 0
-200 -11 -5 -1 0
-200 -11 -5 -85 0
-200 -11 -89 -169 0
-200 -11 -89 -1 0
-200 -95 -173 -169 0
-200 -95 -173 -1 0
-200 -95 -173 -85 0
-200 -95 -5 -169 0
-200 -95 -5 -1 0
-200 -95 -5 -85 0
-200 -95 -89 -169 0
-200 -95 -89 -1 0
-32 -179 -173 -1 0
-32 -179 -173 -85 0
-32 -179 -5 -169 0
-32 -179 -5 -1 0
-32 -179 -5 -85 0
-32 -179 -89 -169 0
-32 -179 -89 -1 0
-32 -179 -89 -85 0
-32 -11 -173 -169 0
-32 -11 -173 -1 0
-32 -11 -173 -85 0
-32 -11 -5 -169 0
-32 -11 -5 -1 0
-32 -11 -5 -85 0
-32 -11 -89 -169 0
-32 -11 -89 -1 0
-32 -11 -89 -85 0
-32 -95 -173 -169 0
-32 -95 -173 -1 0
-32 -95 -173 -85 0
-32 -95 -5 -169 0
-32 -95 -5 -1 0
-32 -95 -5 -85 0
-32 -95 -89 -169 0
-32 -95 -89 -1 0
-116 -179 -173 -1 0
-116 -179 -173 -85 0
-116 -179 -5 -169 0
-116 -179 -5 -1 0
-116 -179 -5 -85 0
-116 -179 -89 -169 0
-116 -179 -89 -1 0
-116 -179 -89 -85 0
-116 -11 -173 -1 0
-116 -11 -173 -85 0
-116 -11 -5 -169 0
-116 -11 -5 -1 0
-116 -11 -5 -85 0
-116 -11 -89 -169 0
-116 -11 -89 -1 0
-116 -11 -89 -85 0
-116 -95 -173 -1 0
-116 -95 -173 -85 0
-116 -95 -5 -1 0
-116 -95 -5 -85 0
-201 -180 -6 -169 0
-201 -180 -6 -1 0
-201 -180 -90 -169 0
-201 -180 -90 -1 0
-201 -12 -174 -169 0
-201 -12 -174 -1 0
-201 -12 -174 -85 0
-201 -12 -6 -169 0
-201 -12 -6 -1 0
-201 -12 -6 -85 0
-201 -12 -90 -169 0
-201 -12 -90 -1 0
-201 -96 -174 -169 0
-201 -96 -174 -1 0
-201 -96 -174 -85 0
-201 -96 -6 -169 0
-201 -96 -6 -1 0
-201 -96 -6 -85 0
-201 -96 -90 -169 0
-201 -96 -90 -1 0
-33 -180 -174 -1 0
-33 -180 -174 -85 0
-33 -180 -6 -169 0
-33 -180 -6 -1 0
-33 -180 -6 -85 0
-33 -180 -90 -169 0
-33 -180 -90 -1 0
-33 -180 -90 -85 0
-33 -12 -174 -169 0
-33 -12 -174 -1 0
-33 -12 -174 -85 0
-33 -12 -6 -169 0
-33 -12 -6 -1 0
-33 -12 -6 -85 0
-33 -12 -90 -169 0
-33 -12 -90 -1 0
-33 -12 -90 -85 0
-33 -96 -174 -169 0
-33 -96 -174 -1 0
-33 -96 -174 -85 0
-33 -96 -6 -169 0
-33 -96 -6 -1 0
-33 -96 -6 -85 0
-33 -96 -90 -169 0
-33 -96 -90 -1 0
-117 -180 -174 -1 0
-117 -180 -174 -85 0
-117 -180 -6 -169 0
-117 -180 -6 -1 0
-117 -180 -6 -85 0
-117 -180 -90 -169 0
-117 -180 -90 -1 0
-117 -180 -90 -85 0
-117 -12 -174 -1 0
-117 -12 -174 -85 0
-117 -12 -6 -169 0
-117 -12 -6 -1 0
-117 -12 -6 -85 0
-117 -12 -90 -169 0
-117 -12 -90 -1 0
-117 -12 -90 -85 0
-117 -96 -174 -1 0
-117 -96 -174 -85 0
-117 -96 -6 -1 0
-117 -96 -6 -85 0
-202 -181 -7 -169 0
-202 -181 -7 -1 0
-202 -181 -91 -169 0
-202 -181 -91 -1 0
-202 -13 -175 -169 0
-202 -13 -175 -1 0
-202 -13 -175 -85 0
-202 -13 -7 -169 0
-202 -13 -7 -1 0
-202 -13 -7 -85 0
-202 -13 -91 -169 0
-202 -13 -91 -1 0
-202 -97 -175 -169 0
-202 -97 -175 -1 0
-202 -97 -175 -85 0
-202 -97 -7 -169 0
-202 -97 -7 -1 0
-202 -97 -7 -85 0
-202 -97 -91 -169 0
-202 -97 -91 -1 0
-34 -181 -175 -1 0
-34 -181 -175 -85 0
-34 -181 -7 -169 0
-34 -181 -7 -1 0
-34 -181 -7 -85 0
-34 -181 -91 -169 0
-34 -181 -91 -1 0
-34 -181 -91 -85 0
-34 -13 -175 -169 0
-34 -13 -175 -1 0
-34 -13 -175 -85 0
-34 -13 -7 -169 0
-34 -13 -7 -1 0
-34 -13 -7 -85 0
-34 -13 -91 -169 0
-34 -13 -91 -1 0
-34 -13 -91 -85 0
-34 -97 -175 -169 0
-34 -97 -175 -1 0
-34 -97 -175 -85 0
-34 -97 -7 -169 0
-34 -97 -7 -1 0
-34 -97 -7 -85 0
-34 -97 -91 -169 0
-34 -97 -91 -1 0
-118 -181 -175 -1 0
-118 -181 -175 -85 0
-118 -181 -7 -169 0
-118 -181 -7 -1 0
-118 -181 -7 -85 0
-118 -181 -91 -169 0
-118 -181 -91 -1 0
-118 -181 -91 -85 0
-118 -13 -175 -1 0
-118 -13 -175 -85 0
-118 -13 -7 -169 0
-118 -13 -7 -1 0
-118 -13 -7 -85 0
-118 -13 -91 -169 0
-118 -13 -91 -1 0
-118 -13 -91 -85 0
-118 -97 -175 -1 0
-118 -97 -175 -85 0
-118 -97 -7 -1 0
-118 -97 -7 -85 0
-203 -182 -3 -170 0
-203 -182 -3 -2 0
-203 -182 -87 -170 0
-203 -182 -87 -2 0
-203 -14 -171 -170 0
-203 -14 -171 -2 0
-203 -14 -171 -86 0
-203 -14 -3 -170 0
-203 -14 -3 -2 0
-203 -14 -3 -86 0
-203 -14 -87 -170 0
-203 -14 -87 -2 0
-203 -98 -171 -170 0
-203 -98 -171 -2 0
-203 -98 -171 -86 0
-203 -98 -3 -170 0
-203 -98 -3 -2 0
-203 -98 -3 -86 0
-203 -98 -87 -170 0
-203 -98 -87 -2 0
-35 -182 -171 -2 0
-35 -182 -171 -86 0
-35 -182 -3 -170 0
-35 -182 -3 -2 0
-35 -182 -3 -86 0
-35 -182 -87 -170 0
-35 -182 -87 -2 0
-35 -182 -87 -86 0
-35 -14 -171 -170 0
-35 -14 -171 -2 0
-35 -14 -171 -86 0
-35 -14 -3 -170 0
-35 -14 -3 -2 0
-35 -14 -3 -86 0
-35 -14 -87 -170 0
-35 -14 -87 -2 0
-35 -14 -87 -86 0
-35 -98 -171 -170 0
-35 -98 -171 -2 0
-35 -98 -171 -86 0
-35 -98 -3 -170 0
-35 -98 -3 -2 0
-35 -98 -3 -86 0
-35 -98 -87 -170 0
-35 -98 -87 -2 0
-119 -182 -171 -2 0
-119 -182 -171 -86 0
-119 -182 -3 -170 0
-119 -182 -3 -2 0
-119 -182 -3 -86 0
-119 -182 -87 -170 0
-119 -182 -87 -2 0
-119 -182 -87 -86 0
-119 -14 -171 -2 0
-119 -14 -171 -86 0
-119 -14 -3 -170 0
-119 -14 -3 -2 0
-119 -14 -3 -86 0
-119 -14 -87 -170 0
-119 -14 -87 -2 0
-119 -14 -87 -86 0
-119 -98 -171 -2 0
-119 -98 -171 -86 0
-119 -98 -3 -2 0
-119 -98 -3 -86 0
-204 -183 -4 -170 0
-204 -183 -4 -2 0
-204 -183 -88 -170 0
-204 -183 -88 -2 0
-204 -15 -172 -170 0
-204 -15 -172 -2 0
-204 -15 -172 -86 0
-204 -15 -4 -170 0
-204 -15 -4 -2 0
-204 -15 -4 -86 0
-204 -15 -88 -170 0
-204 -15 -88 -2 0
-204 -99 -172 -170 0
-204 -99 -172 -2 0
-204 -99 -172 -86 0
-204 -99 -4 -170 0
-204 -99 -4 -2 0
-204 -99 -4 -86 0
-204 -99 -88 -170 0
-204 -99 -88 -2 0
-36 -183 -172 -2 0
-36 -183 -172 -86 0
-36 -183 -4 -170 0
-36 -183 -4 -2 0
-36 -183 -4 -86 0
-36 -183 -88 -170 0
-36 -183 -88 -2 0
-36 -183 -88 -86 0
-36 -15 -172 -170 0
-36 -15 -172 -2 0
-36 -15 -172 -86 0
-36 -15 -4 -170 0
-36 -15 -4 -2 0
-36 -15 -4 -86 0
-36 -15 -88 -170 0
-36 -15 -88 -2 0
-36 -15 -88 -86 0
-36 -99 -172 -170 0
-36 -99 -172 -2 0
-36 -99 -172 -86 0
-36 -99 -4 -170 0
-36 -99 -4 -2 0
-36 -99 -4 -86 0
-36 -99 -88 -170 0
-36 -99 -88 -2 0
-120 -183 -172 -2 0
-120 -183 -172 -86 0
-120 -183 -4 -170 0
-120 -183 -4 -2 0
-120 -183 -4 -86 0
-120 -183 -88 -170 0
-120 -183 -88 -2 0
-120 -183 -88 -86 0
-120 -15 -172 -2 0
-120 -15 -172 -86 0
-120 -15 -4 -170 0
-120 -15 -4 -2 0
-120 -15 -4 -86 0
-120 -15 -88 -170 0
-120 -15 -88 -2 0
-120 -15 -88 -86 0
-120 -99 -172 -2 0
-120 -99 -172 -86 0
-120 -99 -4 -2 0
-120 -99 -4 -86 0
-205 -184 -5 -170 0
-205 -184 -5 -2 0
-205 -184 -89 -170 0
-205 -184 -89 -2 0
-205 -16 -173 -170 0
-205 -16 -173 -2 0
-205 -16 -173 -86 0
-205 -16 -5 -170 0
-205 -16 -5 -2 0
-205 -16 -5 -86 0
-205 -16 -89 -170 0
-205 -16 -89 -2 0
-205 -100 -173 -170 0
-205 -100 -173 -2 0
-205 -100 -173 -86 0
-205 -100 -5 -170 0
-205 -100 -5 -2 0
-205 -100 -5 -86 0
-205 -100 -89 -170 0
-205 -100 -89 -2 0
-37 -184 -173 -2 0
-37 -184 -173 -86 0
-37 -184 -5 -170 0
-37 -184 -5 -2 0
-37 -184 -5 -86 0
-37 -184 -89 -170 0
-37 -184 -89 -2 0
-37 -184 -89 -86 0
-37 -16 -173 -170 0
-37 -16 -173 -2 0
-37 -16 -173 -86 0
-37 -16 -5 -170 0
-37 -16 -5 -2 0
-37 -16 -5 -86 0
-37 -16 -89 -170 0
-37 -16 -89 -2 0
-37 -16 -89 -86 0
-37 -100 -173 -170 0
-37 -100 -173 -2 0
-37 -100 -173 -86 0
-37 -100 -5 -170 0
-37 -100 -5 -2 0
-37 -100 -5 -86 0
-37 -100 -89 -170 0
-37 -100 -89 -2 0
-121 -184 -173 -2 0
-121 -184 -173 -86 0
-121 -184 -5 -170 0
-121 -184 -5 -2 0
-121 -184 -5 -86 0
-121 -184 -89 -170 0
-121 -184 -89 -2 0
-121 -184 -89 -86 0
-121 -16 -173 -2 0
-121 -16 -173 -86 0
-121 -16 -5 -170 0
-121 -16 -5 -2 0
-121 -16 -5 -86 0
-121 -16 -89 -170 0
-121 -16 -89 -2 0
-121 -16 -89 -86 0
-121 -100 -173 -2 0
-121 -100 -173 -86 0
-121 -100 -5 -2 0
-121 -100 -5 -86 0
-206 -185 -6 -170 0
-206 -185 -6 -2 0
-206 -185 -90 -170 0
-206 -185 -90 -2 0
-206 -17 -174 -170 0
-206 -17 -174 -2 0
-206 -17 -174 -86 0
-206 -17 -6 -170 0
-206 -17 -6 -2 0
-206 -17 -6 -86 0
-206 -17 -90 -170 0
-206 -17 -90 -2 0
-206 -101 -174 -170 0
-206 -101 -174 -2 0
-206 -101 -174 -86 0
-206 -101 -6 -170 0
-206 -101 -6 -2 0
-206 -101 -6 -86 0
-206 -101 -90 -170 0
-206 -101 -90 -2 0
-38 -185 -174 -2 0
-38 -185 -174 -86 0
-38 -185 -6 -170 0
-38 -185 -6 -2 0
-38 -185 -6 -86 0
-38 -185 -90 -170 0
-38 -185 -90 -2 0
-38 -185 -90 -86 0
-38 -17 -174 -170 0
-38 -17 -174 -2 0
-38 -17 -174 -86 0
-38 -17 -6 -170 0
-38 -17 -6 -2 0
-38 -17 -6 -86 0
-38 -17 -90 -170 0
-38 -17 -90 -2 0
-38 -17 -90 -86 0
-38 -101 -174 -170 0
-38 -101 -174 -2 0
-38 -101 -174 -86 0
-38 -101 -6 -170 0
-38 -101 -6 -2 0
-38 -101 -6 -86 0
-38 -101 -90 -170 0
-38 -101 -90 -2 0
-122 -185 -174 -2 0
-122 -185 -174 -86 0
-122 -185 -6 -170 0
-122 -185 -6 -2 0
-122 -185 -6 -86 0
-122 -185 -90 -170 0
-122 -185 -90 -2 0
-122 -185 -90 -86 0
-122 -17 -174 -2 0
-122 -17 -174 -86 0
-122 -17 -6 -170 0
-122 -17 -6 -2 0
-122 -17 -6 -86 0
-122 -17 -90 -170 0
-122 -17 -90 -2 0
-122 -17 -90 -86 0
-122 -101 -174 -2 0
-122 -101 -174 -86 0
-122 -101 -6 -2 0
-122 -101 -6 -86 0
-207 -186 -7 -170 0
-207 -186 -7 -2 0
-207 -186 -91 -170 0
-207 -186 -91 -2 0
-207 -18 -175 -170 0
-207 -18 -175 -2 0
-207 -18 -175 -86 0
-207 -18 -7 -170 0
-207 -18 -7 -2 0
-207 -18 -7 -86 0
-207 -18 -91 -170 0
-207 -18 -91 -2 0
-207 -102 -175 -170 0
-207 -102 -175 -2 0
-207 -102 -175 -86 0
-207 -102 -7 -170 0
-207 -102 -7 -2 0
-207 -102 -7 -86 0
-207 -102 -91 -170 0
-207 -102 -91 -2 0
-39 -186 -175 -2 0
-39 -186 -175 -86 0
-39 -186 -7 -170 0
-39 -186 -7 -2 0
-39 -186 -7 -86 0
-39 -186 -91 -170 0
-39 -186 -91 -2 0
-39 -186 -91 -86 0
-39 -18 -175 -170 0
-39 -18 -175 -2 0
-39 -18 -175 -86 0
-39 -18 -7 -170 0
-39 -18 -7 -2 0
-39 -18 -7 -86 0
-39 -18 -91 -170 0
-39 -18 -91 -2 0
-39 -18 -91 -86 0
-39 -102 -175 -170 0
-39 -102 -175 -2 0
-39 -102 -175 -86 0
-39 -102 -7 -170 0
-39 -102 -7 -2 0
-39 -102 -7 -86 0
-39 -102 -91 -170 0
-39 -102 -91 -2 0
-123 -186 -175 -2 0
-123 -186 -175 -86 0
-123 -186 -7 -170 0
-123 -186 -7 -2 0
-123 -186 -7 -86 0
-123 -186 -91 -170 0
-123 -186 -91 -2 0
-123 -186 -91 -86 0
-123 -18 -175 -2 0
-123 -18 -175 -86 0
-123 -18 -7 -170 0
-123 -18 -7 -2 0
-123 -18 -7 -86 0
-123 -18 -91 -170 0
-123 -18 -91 -2 0
-123 -18 -91 -86 0
-123 -102 -175 -2 0
-123 -102 -175 -86 0
-123 -102 -7 -2 0
-123 -102 -7 -86 0
-208 -187 -4 -171 0
-208 -187 -4 -3 0
-208 -187 -88 -171 0
-208 -187 -88 -3 0
-208 -19 -172 -171 0
-208 -19 -172 -3 0
-208 -19 -172 -87 0
-208 -19 -4 -171 0
-208 -19 -4 -3 0
-208 -19 -4 -87 0
-208 -19 -88 -171 0
-208 -19 -88 -3 0
-208 -103 -172 -171 0
-208 -103 -172 -3 0
-208 -103 -172 -87 0
-208 -103 -4 -171 0
-208 -103 -4 -3 0
-208 -103 -4 -87 0
-208 -103 -88 -171 0
-208 -103 -88 -3 0
-40 -187 -172 -3 0
-40 -187 -172 -87 0
-40 -187 -4 -171 0
-40 -187 -4 -3 0
-40 -187 -4 -87 0
-40 -187 -88 -171 0
-40 -187 -88 -3 0
-40 -187 -88 -87 0
-40 -19 -172 -171 0
-40 -19 -172 -3 0
-40 -19 -172 -87 0
-40 -19 -4 -171 0
-40 -19 -4 -3 0
-40 -19 -4 -87 0
-40 -19 -88 -171 0
-40 -19 -88 -3 0
-40 -19 -88 -87 0
-40 -103 -172 -171 0
-40 -103 -172 -3 0
-40 -103 -172 -87 0
-40 -103 -4 -171 0
-40 -103 -4 -3 0
-40 -103 -4 -87 0
-40 -103 -88 -171 0
-40 -103 -88 -3 0
-124 -187 -172 -3 0
-124 -187 -172 -87 0
-124 -187 -4 -171 0
-124 -187 -4 -3 0
-124 -187 -4 -87 0
-124 -187 -88 -171 0
-124 -187 -88 -3 0
-124 -187 -88 -87 0
-124 -19 -172 -3 0
-124 -19 -172 -87 0
-124 -19 -4 -171 0
-124 -19 -4 -3 0
-124 -19 -4 -87 0
-124 -19 -88 -171 0
-124 -19 -88 -3 0
-124 -19 -88 -87 0
-124 -103 -172 -3 0
-124 -103 -172 -87 0
-124 -103 -4 -3 0
-124 -103 -4 -87 0
-209 -188 -5 -171 0
-209 -188 -5 -3 0
-209 -188 -89 -171 0
-209 -188 -89 -3 0
-209 -20 -173 -171 0
-209 -20 -173 -3 0
-209 -20 -173 -87 0
-209 -20 -5 -171 0
-209 -20 -5 -3 0
-209 -20 -5 -87 0
-209 -20 -89 -171 0
-209 -20 -89 -3 0
-209 -104 -173 -171 0
-209 -104 -173 -3 0
-209 -104 -173 -87 0
-209 -104 -5 -171 0
-209 -104 -5 -3 0
-209 -104 -5 -87 0
-209 -104 -89 -171 0
-209 -104 -89 -3 0
-41 -188 -173 -3 0
-41 -188 -173 -87 0
-41 -188 -5 -171 0
-41 -188 -5 -3 0
-41 -188 -5 -87 0
-41 -188 -89 -171 0
-41 -188 -89 -3 0
-41 -188 -89 -87 0
-41 -20 -173 -171 0
-41 -20 -173 -3 0
-41 -20 -173 -87 0
-41 -20 -5 -171 0
-41 -20 -5 -3 0
-41 -20 -5 -87 0
-41 -20 -89 -171 0
-41 -20 -89 -3 0
-41 -20 -89 -87 0
-41 -104 -173 -171 0
-41 -104 -173 -3 0
-41 -104 -173 -87 0
-41 -104 -5 -171 0
-41 -104 -5 -3 0
-41 -104 -5 -87 0
-41 -104 -89 -171 0
-41 -104 -89 -3 0
-125 -188 -173 -3 0
-125 -188 -173 -87 0
-125 -188 -5 -171 0
-125 -188 -5 -3 0
-125 -188 -5 -87 0
-125 -188 -89 -171 0
-125 -188 -89 -3 0
-125 -188 -89 -87 0
-125 -20 -173 -3 0
-125 -20 -173 -87 0
-125 -20 -5 -171 0
-125 -20 -5 -3 0
-125 -20 -5 -87 0
-125 -20 -89 -171 0
-125 -20 -89 -3 0
-125 -20 -89 -87 0
-125 -104 -173 -3 0
-125 -104 -173 -87 0
-125 -104 -5 -3 0
-125 -104 -5 -87 0
-210 -189 -6 -171 0
-210 -189 -6 -3 0
-210 -189 -90 -171 0
-210 -189 -90 -3 0
-210 -21 -174 -171 0
-210 -21 -174 -3 0
-210 -21 -174 -87 0
-210 -21 -6 -171 0
-210 -21 -6 -3 0
-210 -21 -6 -87 0
-210 -21 -90 -171 0
-210 -21 -90 -3 0
-210 -105 -174 -171 0
-210 -105 -174 -3 0
-210 -105 -174 -87 0
-210 -105 -6 -171 0
-210 -105 -6 -3 0
-210 -105 -6 -87 0
-210 -105 -90 -171 0
-210 -105 -90 -3 0
-42 -189 -174 -3 0
-42 -189 -174 -87 0
-42 -189 -6 -171 0
-42 -189 -6 -3 0
-42 -189 -6 -87 0
-42 -189 -90 -171 0
-42 -189 -90 -3 0
-42 -189 -90 -87 0
-42 -21 -174 -171 0
-42 -21 -174 -3 0
-42 -21 -174 -87 0
-42 -21 -6 -171 0
-42 -21 -6 -3 0
-42 -21 -6 -87 0
-42 -21 -90 -171 0
-42 -21 -90 -3 0
-42 -21 -90 -87 0
-42 -105 -174 -171 0
-42 -105 -174 -3 0
-42 -105 -174 -87 0
-42 -105 -6 -171 0
-42 -105 -6 -3 0
-42 -105 -6 -87 0
-42 -105 -90 -171 0
-42 -105 -90 -3 0
-126 -189 -174 -3 0
-126 -189 -174 -87 0
-126 -189 -6 -171 0
-126 -189 -6 -3 0
-126 -189 -6 -87 0
-126 -189 -90 -171 0
-126 -189 -90 -3 0
-126 -189 -90 -87 0
-126 -21 -174 -3 0
-126 -21 -174 -87 0
-126 -21 -6 -171 0
-126 -21 -6 -3 0
-126 -21 -6 -87 0
-126 -21 -90 -171 0
-126 -21 -90 -3 0
-126 -21 -90 -87 0
-126 -105 -174 -3 0
-126 -105 -174 -87 0
-126 -105 -6 -3 0
-126 -105 -6 -87 0
-211 -190 -7 -171 0
-211 -190 -7 -3 0
-211 -190 -91 -171 0
-211 -190 -91 -3 0
-211 -22 -175 -171 0
-211 -22 -175 -3 0
-211 -22 -175 -87 0
-211 -22 -7 -171 0
-211 -22 -7 -3 0
-211 -22 -7 -87 0
-211 -22 -91 -171 0
-211 -22 -91 -3 0
-211 -106 -175 -171 0
-211 -106 -175 -3 0
-211 -106 -175 -87 0
-211 -106 -7 -171 0
-211 -106 -7 -3 0
-211 -106 -7 -87 0
-211 -106 -91 -171 0
-211 -106 -91 -3 0
-43 -190 -175 -3 0
-43 -190 -175 -87 0
-43 -190 -7 -171 0
-43 -190 -7 -3 0
-43 -190 -7 -87 0
-43 -190 -91 -171 0
-43 -190 -91 -3 0
-43 -190 -91 -87 0
-43 -22 -175 -171 0
-43 -22 -175 -3 0
-43 -22 -175 -87 0
-43 -22 -7 -171 0
-43 -22 -7 -3 0
-43 -22 -7 -87 0
-43 -22 -91 -171 0
-43 -22 -91 -3 0
-43 -22 -91 -87 0
-43 -106 -175 -171 0
-43 -106 -175 -3 0
-43 -106 -175 -87 0
-43 -106 -7 -171 0
-43 -106 -7 -3 0
-43 -106 -7 -87 0
-43 -106 -91 -171 0
-43 -106 -91 -3 0
-127 -190 -175 -3 0
-127 -190 -175 -87 0
-127 -190 -7 -171 0
-127 -190 -7 -3 0
-127 -190 -7 -87 0
-127 -190 -91 -171 0
-127 -190 -91 -3 0
-127 -190 -91 -87 0
-127 -22 -175 -3 0
-127 -22 -175 -87 0
-127 -22 -7 -171 0
-127 -22 -7 -3 0
-127 -22 -7 -87 0
-127 -22 -91 -171 0
-127 -22 -91 -3 0
-127 -22 -91 -87 0
-127 -106 -175 -3 0
-127 -106 -175 -87 0
-127 -106 -7 -3 0
-127 -106 -7 -87 0
-212 -191 -5 -172 0
-212 -191 -5 -4 0
-212 -191 -89 -172 0
-212 -191 -89 -4 0
-212 -23 -173 -172 0
-212 -23 -173 -4 0
-212 -23 -173 -88 0
-212 -23 -5 -172 0
-212 -23 -5 -4 0
-212 -23 -5 -88 0
-212 -23 -89 -172 0
-212 -23 -89 -4 0
-212 -107 -173 -172 0
-212 -107 -173 -4 0
-212 -107 -173 -88 0
-212 -107 -5 -172 0
-212 -107 -5 -4 0
-212 -107 -5 -88 0
-212 -107 -89 -172 0
-212 -107 -89 -4 0
-44 -191 -173 -4 0
-44 -191 -173 -88 0
-44 -191 -5 -172 0
-44 -191 -5 -4 0
-44 -191 -5 -88 0
-44 -191 -89 -172 0
-44 -191 -89 -4 0
-44 -191 -89 -88 0
-44 -23 -173 -172 0
-44 -23 -173 -4 0
-44 -23 -173 -88 0
-44 -23 -5 -172 0
-44 -23 -5 -4 0
-44 -23 -5 -88 0
-44 -23 -89 -172 0
-44 -23 -89 -4 0
-44 -23 -89 -88 0
-44 -107 -173 -172 0
-44 -107 -173 -4 0
-44 -107 -173 -88 0
-44 -107 -5 -172 0
-44 -107 -5 -4 0
-44 -107 -5 -88 0
-44 -107 -89 -172 0
-44 -107 -89 -4 0
-128 -191 -173 -4 0
-128 -191 -173 -88 0
-128 -191 -5 -172 0
-128 -191 -5 -4 0
-128 -191 -5 -88 0
-128 -191 -89 -172 0
-128 -191 -89 -4 0
-128 -191 -89 -88 0
-128 -23 -173 -4 0
-128 -23 -173 -88 0
-128 -23 -5 -172 0
-128 -23 -5 -4 0
-128 -23 -5 -88 0
-128 -23 -89 -172 0
-128 -23 -89 -4 0
-128 -23 -89 -88 0
-128 -107 -173 -4 0
-128 -107 -173 -88 0
-128 -107 -5 -4 0
-128 -107 -5 -88 0
-213 -192 -6 -172 0
-213 -192 -6 -4 0
-213 -192 -90 -172 0
-213 -192 -90 -4 0
-213 -24 -174 -172 0
-213 -24 -174 -4 0
-213 -24 -174 -88 0
-213 -24 -6 -172 0
-213 -24 -6 -4 0
-213 -24 -6 -88 0
-213 -24 -90 -172 0
-213 -24 -90 -4 0
-213 -108 -174 -172 0
-213 -108 -174 -4 0
-213 -108 -174 -88 0
-213 -108 -6 -172 0
-213 -108 -6 -4 0
-213 -108 -6 -88 0
-213 -108 -90 -172 0
-213 -108 -90 -4 0
-45 -192 -174 -4 0
-45 -192 -174 -88 0
-45 -192 -6 -172 0
-45 -192 -6 -4 0
-45 -192 -6 -88 0
-45 -192 -90 -172 0
-45 -192 -90 -4 0
-45 -192 -90 -88 0
-45 -24 -174 -172 0
-45 -24 -174 -4 0
-45 -24 -174 -88 0
-45 -24 -6 -172 0
-45 -24 -6 -4 0
-45 -24 -6 -88 0
-45 -24 -90 -172 0
-45 -24 -90 -4 0
-45 -24 -90 -88 0
-45 -108 -174 -172 0
-45 -108 -174 -4 0
-45 -108 -174 -88 0
-45 -108 -6 -172 0
-45 -108 -6 -4 0
-45 -108 -6 -88 0
-45 -108 -90 -172 0
-45 -108 -90 -4 0
-129 -192 -174 -4 0
-129 -192 -174 -88 0
-129 -192 -6 -172 0
-129 -192 -6 -4 0
-129 -192 -6 -88 0
-129 -192 -90 -172 0
-129 -192 -90 -4 0
-129 -192 -90 -88 0
-129 -24 -174 -4 0
-129 -24 -174 -88 0
-129 -24 -6 -172 0
-129 -24 -6 -4 0
-129 -24 -6 -88 0
-129 -24 -90 -172 0
-129 -24 -90 -4 0
-129 -24 -90 -88 0
-129 -108 -174 -4 0
-129 -108 -174 -88 0
-129 -108 -6 -4 0
-129 -108 -6 -88 0
-214 -193 -7 -172 0
-214 -193 -7 -4 0
-214 -193 -91 -172 0
-214 -193 -91 -4 0
-214 -25 -175 -172 0
-214 -25 -175 -4 0
-214 -25 -175 -88 0
-214 -25 -7 -172 0
-214 -25 -7 -4 0
-214 -25 -7 -88 0
-214 -25 -91 -172 0
-214 -25 -91 -4 0
-214 -109 -175 -172 0
-214 -109 -175 -4 0
-214 -109 -175 -88 0
-214 -109 -7 -172 0
-214 -109 -7 -4 0
-214 -109 -7 -88 0
-214 -109 -91 -172 0
-214 -109 -91 -4 0
-46 -193 -175 -4 0
-46 -193 -175 -88 0
-46 -193 -7 -172 0
-46 -193 -7 -4 0
-46 -193 -7 -88 0
-46 -193 -91 -172 0
-46 -193 -91 -4 0
-46 -193 -91 -88 0
-46 -25 -175 -172 0
-46 -25 -175 -4 0
-46 -25 -175 -88 0
-46 -25 -7 -172 0
-46 -25 -7 -4 0
-46 -25 -7 -88 0
-46 -25 -91 -172 0
-46 -25 -91 -4 0
-46 -25 -91 -88 0
-46 -109 -175 -172 0
-46 -109 -175 -4 0
-46 -109 -175 -88 0
-46 -109 -7 -172 0
-46 -109 -7 -4 0
-46 -109 -7 -88 0
-46 -109 -91 -172 0
-46 -109 -91 -4 0
-130 -193 -175 -4 0
-130 -193 -175 -88 0
-130 -193 -7 -172 0
-130 -193 -7 -4 0
-130 -193 -7 -88 0
-130 -193 -91 -172 0
-130 -193 -91 -4 0
-130 -193 -91 -88 0
-130 -25 -175 -4 0
-130 -25 -175 -88 0
-130 -25 -7 -172 0
-130 -25 -7 -4 0
-130 -25 -7 -88 0
-130 -25 -91 -172 0
-130 -25 -91 -4 0
-130 -25 -91 -88 0
-130 -109 -175 -4 0
-130 -109 -175 -88 0
-130 -109 -7 -4 0
-130 -109 -7 -88 0
-215 -194 -6 -173 0
-215 -194 -6 -5 0
-215 -194 -90 -173 0
-215 -194 -90 -5 0
-215 -26 -174 -173 0
-215 -26 -174 -5 0
-215 -26 -174 -89 0
-215 -26 -6 -173 0
-215 -26 -6 -5 0
-215 -26 -6 -89 0
-215 -26 -90 -173 0
-215 -26 -90 -5 0
-215 -110 -174 -173 0
-215 -110 -174 -5 0
-215 -110 -174 -89 0
-215 -110 -6 -173 0
-215 -110 -6 -5 0
-215 -110 -6 -89 0
-215 -110 -90 -173 0
-215 -110 -90 -5 0
-47 -194 -174 -5 0
-47 -194 -174 -89 0
-47 -194 -6 -173 0
-47 -194 -6 -5 0
-47 -194 -6 -89 0
-47 -194 -90 -173 0
-47 -194 -90 -5 0
-47 -194 -90 -89 0
-47 -26 -174 -173 0
-47 -26 -174 -5 0
-47 -26 -174 -89 0
-47 -26 -6 -173 0
-47 -26 -6 -5 0
-47 -26 -6 -89 0
-47 -26 -90 -173 0
-47 -26 -90 -5 0
-47 -26 -90 -89 0
-47 -110 -174 -173 0
-47 -110 -174 -5 0
-47 -110 -174 -89 0
-47 -110 -6 -173 0
-47 -110 -6 -5 0
-47 -110 -6 -89 0
-47 -110 -90 -173 0
-47 -110 -90 -5 0
-131 -194 -174 -5 0
-131 -194 -174 -89 0
-131 -194 -6 -173 0
-131 -194 -6 -5 0
-131 -194 -6 -89 0
-131 -194 -90 -173 0
-131 -194 -90 -5 0
-131 -194 -90 -89 0
-131 -26 -174 -5 0
-131 -26 -174 -89 0
-131 -26 -6 -173 0
-131 -26 -6 -5 0
-131 -26 -6 -89 0
-131 -26 -90 -173 0
-131 -26 -90 -5 0
-131 -26 -90 -89 0
-131 -110 -174 -5 0
-131 -110 -174 -89 0
-131 -110 -6 -5 0
-131 -110 -6 -89 0
-216 -195 -7 -173 0
-216 -195 -7 -5 0
-216 -195 -91 -173 0
-216 -195 -91 -5 0
-216 -27 -175 -173 0
-216 -27 -175 -5 0
-216 -27 -175 -89 0
-216 -27 -7 -173 0
-216 -27 -7 -5 0
-216 -27 -7 -89 0
-216 -27 -91 -173 0
-216 -27 -91 -5 0
-216 -111 -175 -173 0
-216 -111 -175 -5 0
-216 -111 -175 -89 0
-216 -111 -7 -173 0
-216 -111 -7 -5 0
-216 -111 -7 -89 0
-216 -111 -91 -173 0
-216 -111 -91 -5 0
-48 -195 -175 -5 0
-48 -195 -175 -89 0
-48 -195 -7 -173 0
-48 -195 -7 -5 0
-48 -195 -7 -89 0
-48 -195 -91 -173 0
-48 -195 -91 -5 0
-48 -195 -91 -89 0
-48 -27 -175 -173 0
-48 -27 -175 -5 0
-48 -27 -175 -89 0
-48 -27 -7 -173 0
-48 -27 -7 -5 0
-48 -27 -7 -89 0
-48 -27 -91 -173 0
-48 -27 -91 -5 0
-48 -27 -91 -89 0
-48 -111 -175 -173 0
-48 -111 -175 -5 0
-48 -111 -175 -89 0
-48 -111 -7 -173 0
-48 -111 -7 -5 0
-48 -111 -7 -89 0
-48 -111 -91 -173 0
-48 -111 -91 -5 0
-132 -195 -175 -5 0
-132 -195 -175 -89 0
-132 -195 -7 -173 0
-132 -195 -7 -5 0
-132 -195 -7 -89 0
-132 -195 -91 -173 0
-132 -195 -91 -5 0
-132 -195 -91 -89 0
-132 -27 -175 -5 0
-132 -27 -175 -89 0
-132 -27 -7 -173 0
-132 -27 -7 -5 0
-132 -27 -7 -89 0
-132 -27 -91 -173 0
-132 -27 -91 -5 0
-132 -27 -91 -89 0
-132 -111 -175 -5 0
-132 -111 -175 -89 0
-132 -111 -7 -5 0
-132 -111 -7 -89 0
-217 -196 -7 -174 0
-217 -196 -7 -6 0
-217 -196 -91 -174 0
-217 -196 -91 -6 0
-217 -28 -175 -174 0
-217 -28 -175 -6 0
-217 -28 -175 -90 0
-217 -28 -7 -174 0
-217 -28 -7 -6 0
-217 -28 -7 -90 0
-217 -28 -91 -174 0
-217 -28 -91 -6 0
-217 -112 -175 -174 0
-217 -112 -175 -6 0
-217 -112 -175 -90 0
-217 -112 -7 -174 0
-217 -112 -7 -6 0
-217 -112 -7 -90 0
-217 -112 -91 -174 0
-217 -112 -91 -6 0
-49 -196 -175 -6 0
-49 -196 -175 -90 0
-49 -196 -7 -174 0
-49 -196 -7 -6 0
-49 -196 -7 -90 0
-49 -196 -91 -174 0
-49 -196 -91 -6 0
-49 -196 -91 -90 0
-49 -28 -175 -174 0
-49 -28 -175 -6 0
-49 -28 -175 -90 0
-49 -28 -7 -174 0
-49 -28 -7 -6 0
-49 -28 -7 -90 0
-49 -28 -91 -174 0
-49 -28 -91 -6 0
-49 -28 -91 -90 0
-49 -112 -175 -174 0
-49 -112 -175 -6 0
-49 -112 -175 -90 0
-49 -112 -7 -174 0
-49 -112 -7 -6 0
-49 -112 -7 -90 0
-49 -112 -91 -174 0
-49 -112 -91 -6 0
-133 -196 -175 -6 0
-133 -196 -175 -90 0
-133 -196 -7 -174 0
-133 -196 -7 -6 0
-133 -196 -7 -90 0
-133 -196 -91 -174 0
-133 -196 -91 -6 0
-133 -196 -91 -90 0
-133 -28 -175 -6 0
-133 -28 -175 -90 0
-133 -28 -7 -174 0
-133 -28 -7 -6 0
-133 -28 -7 -90 0
-133 -28 -91 -174 0
-133 -28 -91 -6 0
-133 -28 -91 -90 0
-133 -112 -175 -6 0
-133 -112 -175 -90 0
-133 -112 -7 -6 0
-133 -112 -7 -90 0
-218 -182 -9 -176 0
-218 -182 -9 -8 0
-218 -182 -93 -176 0
-218 -182 -93 -8 0
-218 -14 -177 -176 0
-218 -14 -177 -8 0
-218 -14 -177 -92 0
-218 -14 -9 -176 0
-218 -14 -9 -8 0
-218 -14 -9 -92 0
-218 -14 -93 -176 0
-218 -14 -93 -8 0
-218 -98 -177 -176 0
-218 -98 -177 -8 0
-218 -98 -177 -92 0
-218 -98 -9 -176 0
-218 -98 -9 -8 0
-218 -98 -9 -92 0
-218 -98 -93 -176 0
-218 -98 -93 -8 0
-50 -182 -177 -8 0
-50 -182 -177 -92 0
-50 -182 -9 -176 0
-50 -182 -9 -8 0
-50 -182 -9 -92 0
-50 -182 -93 -176 0
-50 -182 -93 -8 0
-50 -182 -93 -92 0
-50 -14 -177 -176 0
-50 -14 -177 -8 0
-50 -14 -177 -92 0
-50 -14 -9 -176 0
-50 -14 -9 -8 0
-50 -14 -9 -92 0
-50 -14 -93 -176 0
-50 -14 -93 -8 0
-50 -14 -93 -92 0
-50 -98 -177 -176 0
-50 -98 -177 -8 0
-50 -98 -177 -92 0
-50 -98 -9 -176 0
-50 -98 -9 -8 0
-50 -98 -9 -92 0
-50 -98 -93 -176 0
-50 -98 -93 -8 0
-134 -182 -177 -8 0
-134 -182 -177 -92 0
-134 -182 -9 -176 0
-134 -182 -9 -8 0
-134 -182 -9 -92 0
-134 -182 -93 -176 0
-134 -182 -93 -8 0
-134 -182 -93 -92 0
-134 -14 -177 -8 0
-134 -14 -177 -92 0
-134 -14 -9 -176 0
-134 -14 -9 -8 0
-134 -14 -9 -92 0
-134 -14 -93 -176 0
-134 -14 -93 -8 0
-134 -14 -93 -92 0
-134 -98 -177 -8 0
-134 -98 -177 -92 0
-134 -98 -9 -8 0
-134 -98 -9 -92 0
-219 -183 -10 -176 0
-219 -183 -10 -8 0
-219 -183 -94 -176 0
-219 -183 -94 -8 0
-219 -15 -178 -176 0
-219 -15 -178 -8 0
-219 -15 -178 -92 0
-219 -15 -10 -176 0
-219 -15 -10 -8 0
-219 -15 -10 -92 0
-219 -15 -94 -176 0
-219 -15 -94 -8 0
-219 -99 -178 -176 0
-219 -99 -178 -8 0
-219 -99 -178 -92 0
-219 -99 -10 -176 0
-219 -99 -10 -8 0
-219 -99 -10 -92 0
-219 -99 -94 -176 0
-219 -99 -94 -8 0
-51 -183 -178 -8 0
-51 -183 -178 -92 0
-51 -183 -10 -176 0
-51 -183 -10 -8 0
-51 -183 -10 -92 0
-51 -183 -94 -176 0
-51 -183 -94 -8 0
-51 -183 -94 -92 0
-51 -15 -178 -176 0
-51 -15 -178 -8 0
-51 -15 -178 -92 0
-51 -15 -10 -176 0
-51 -15 -10 -8 0
-51 -15 -10 -92 0
-51 -15 -94 -176 0
-51 -15 -94 -8 0
-51 -15 -94 -92 0
-51 -99 -178 -176 0
-51 -99 -178 -8 0
-51 -99 -178 -92 0
-51 -99 -10 -176 0
-51 -99 -10 -8 0
-51 -99 -10 -92 0
-51 -99 -94 -176 0
-51 -99 -94 -8 0
-135 -183 -178 -8 0
-135 -183 -178 -92 0
-135 -183 -10 -176 0
-135 -183 -10 -8 0
-135 -183 -10 -92 0
-135 -183 -94 -176 0
-135 -183 -94 -8 0
-135 -183 -94 -92 0
-135 -15 -178 -8 0
-135 -15 -178 -92 0
-135 -15 -10 -176 0
-135 -15 -10 -8 0
-135 -15 -10 -92 0
-135 -15 -94 -176 0
-135 -15 -94 -8 0
-135 -15 -94 -92 0
-135 -99 -178 -8 0
-135 -99 -178 -92 0
-135 -99 -10 -8 0
-135 -99 -10 -92 0
-220 -184 -11 -176 0
-220 -184 -11 -8 0
-220 -184 -95 -176 0
-220 -184 -95 -8 0
-220 -16 -179 -176 0
-220 -16 -179 -8 0
-220 -16 -179 -92 0
-220 -16 -11 -176 0
-220 -16 -11 -8 0
-220 -16 -11 -92 0
-220 -16 -95 -176 0
-220 -16 -95 -8 0
-220 -100 -179 -176 0
-220 -100 -179 -8 0
-220 -100 -179 -92 0
-220 -100 -11 -176 0
-220 -100 -11 -8 0
-220 -100 -11 -92 0
-220 -100 -95 -176 0
-220 -100 -95 -8 0
-52 -184 -179 -8 0
-52 -184 -179 -92 0
-52 -184 -11 -176 0
-52 -184 -11 -8 0
-52 -184 -11 -92 0
-52 -184 -95 -176 0
-52 -184 -95 -8 0
-52 -184 -95 -92 0
-52 -16 -179 -176 0
-52 -16 -179 -8 0
-52 -16 -179 -92 0
-52 -16 -11 -176 0
-52 -16 -11 -8 0
-52 -16 -11 -92 0
-52 -16 -95 -176 0
-52 -16 -95 -8 0
-52 -16 -95 -92 0
-52 -100 -179 -176 0
-52 -100 -179 -8 0
-52 -100 -179 -92 0
-52 -100 -11 -176 0
-52 -100 -11 -8 0
-52 -100 -11 -92 0
-52 -100 -95 -176 0
-52 -100 -95 -8 0
-136 -184 -179 -8 0
-136 -184 -179 -92 0
-136 -184 -11 -176 0
-136 -184 -11 -8 0
-136 -184 -11 -92 0
-136 -184 -95 -176 0
-136 -184 -95 -8 0
-136 -184 -95 -92 0
-136 -16 -179 -8 0
-136 -16 -179 -92 0
-136 -16 -11 -176 0
-136 -16 -11 -8 0
-136 -16 -11 -92 0
-136 -16 -95 -176 0
-136 -16 -95 -8 0
-136 -16 -95 -92 0
-136 -100 -179 -8 0
-136 -100 -179 -92 0
-136 -100 -11 -8 0
-136 -100 -11 -92 0
-221 -185 -12 -176 0
-221 -185 -12 -8 0
-221 -185 -96 -176 0
-221 -185 -96 -8 0
-221 -17 -180 -176 0
-221 -17 -180 -8 0
-221 -17 -180 -92 0
-221 -17 -12 -176 0
-221 -17 -12 -8 0
-221 -17 -12 -92 0
-221 -17 -96 -176 0
-221 -17 -96 -8 0
-221 -101 -180 -176 0
-221 -101 -180 -8 0
-221 -101 -180 -92 0
-221 -101 -12 -176 0
-221 -101 -12 -8 0
-221 -101 -12 -92 0
-221 -101 -96 -176 0
-221 -101 -96 -8 0
-53 -185 -180 -8 0
-53 -185 -180 -92 0
-53 -185 -12 -176 0
-53 -185 -12 -8 0
-53 -185 -12 -92 0
-53 -185 -96 -176 0
-53 -185 -96 -8 0
-53 -185 -96 -92 0
-53 -17 -180 -176 0
-53 -17 -180 -8 0
-53 -17 -180 -92 0
-53 -17 -12 -176 0
-53 -17 -12 -8 0
-53 -17 -12 -92 0
-53 -17 -96 -176 0
-53 -17 -96 -8 0
-53 -17 -96 -92 0
-53 -101 -180 -176 0
-53 -101 -180 -8 0
-53 -101 -180 -92 0
-53 -101 -12 -176 0
-53 -101 -12 -8 0
-53 -101 -12 -92 0
-53 -101 -96 -176 0
-53 -101 -96 -8 0
-137 -185 -180 -8 0
-137 -185 -180 -92 0
-137 -185 -12 -176 0
-137 -185 -12 -8 0
-137 -185 -12 -92 0
-137 -185 -96 -176 0
-137 -185 -96 -8 0
-137 -185 -96 -92 0
-137 -17 -180 -8 0
-137 -17 -180 -92 0
-137 -17 -12 -176 0
-137 -17 -12 -8 0
-137 -17 -12 -92 0
-137 -17 -96 -176 0
-137 -17 -96 -8 0
-137 -17 -96 -92 0
-137 -101 -180 -8 0
-137 -101 -180 -92 0
-137 -101 -12 -8 0
-137 -101 -12 -92 0
-222 -186 -13 -176 0
-222 -186 -13 -8 0
-222 -186 -97 -176 0
-222 -186 -97 -8 0
-222 -18 -181 -176 0
-222 -18 -181 -8 0
-222 -18 -181 -92 0
-222 -18 -13 -176 0
-222 -18 -13 -8 0
-222 -18 -13 -92 0
-222 -18 -97 -176 0
-222 -18 -97 -8 0
-222 -102 -181 -176 0
-222 -102 -181 -8 0
-222 -102 -181 -92 0
-222 -102 -13 -176 0
-222 -102 -13 -8 0
-222 -102 -13 -92 0
-222 -102 -97 -176 0
-222 -102 -97 -8 0
-54 -186 -181 -8 0
-54 -186 -181 -92 0
-54 -186 -13 -176 0
-54 -186 -13 -8 0
-54 -186 -13 -92 0
-54 -186 -97 -176 0
-54 -186 -97 -8 0
-54 -186 -97 -92 0
-54 -18 -181 -176 0
-54 -18 -181 -8 0
-54 -18 -181 -92 0
-54 -18 -13 -176 0
-54 -18 -13 -8 0
-54 -18 -13 -92 0
-54 -18 -97 -176 0
-54 -18 -97 -8 0
-54 -18 -97 -92 0
-54 -102 -181 -176 0
-54 -102 -181 -8 0
-54 -102 -181 -92 0
-54 -102 -13 -176 0
-54 -102 -13 -8 0
-54 -102 -13 -92 0
-54 -102 -97 -176 0
-54 -102 -97 -8 0
-138 -186 -181 -8 0
-138 -186 -181 -92 0
-138 -186 -13 -176 0
-138 -186 -13 -8 0
-138 -186 -13 -92 0
-138 -186 -97 -176 0
-138 -186 -97 -8 0
-138 -186 -97 -92 0
-138 -18 -181 -8 0
-138 -18 -181 -92 0
-138 -18 -13 -176 0
-138 -18 -13 -8 0
-138 -18 -13 -92 0
-138 -18 -97 -176 0
-138 -18 -97 -8 0
-138 -18 -97 -92 0
-138 -102 -181 -8 0
-138 -102 -181 -92 0
-138 -102 -13 -8 0
-138 -102 -13 -92 0
-223 -187 -10 -177 0
-223 -187 -10 -9 0
-223 -187 -94 -177 0
-223 -187 -94 -9 0
-223 -19 -178 -177 0
-223 -19 -178 -9 0
-223 -19 -178 -93 0
-223 -19 -10 -177 0
-223 -19 -10 -9 0
-223 -19 -10 -93 0
-223 -19 -94 -177 0
-223 -19 -94 -9 0
-223 -103 -178 -177 0
-223 -103 -178 -9 0
-223 -103 -178 -93 0
-223 -103 -10 -177 0
-223 -103 -10 -9 0
-223 -103 -10 -93 0
-223 -103 -94 -177 0
-223 -103 -94 -9 0
-55 -187 -178 -9 0
-55 -187 -178 -93 0
-55 -187 -10 -177 0
-55 -187 -10 -9 0
-55 -187 -10 -93 0
-55 -187 -94 -177 0
-55 -187 -94 -9 0
-55 -187 -94 -93 0
-55 -19 -178 -177 0
-55 -19 -178 -9 0
-55 -19 -178 -93 0
-55 -19 -10 -177 0
-55 -19 -10 -9 0
-55 -19 -10 -93 0
-55 -19 -94 -177 0
-55 -19 -94 -9 0
-55 -19 -94 -93 0
-55 -103 -178 -177 0
-55 -103 -178 -9 0
-55 -103 -178 -93 0
-55 -103 -10 -177 0
-55 -103 -10 -9 0
-55 -103 -10 -93 0
-55 -103 -94 -177 0
-55 -103 -94 -9 0
-139 -187 -178 -9 0
-139 -187 -178 -93 0
-139 -187 -10 -177 0
-139 -187 -10 -9 0
-139 -187 -10 -93 0
-139 -187 -94 -177 0
-139 -187 -94 -9 0
-139 -187 -94 -93 0
-139 -19 -178 -9 0
-139 -19 -178 -93 0
-139 -19 -10 -177 0
-139 -19 -10 -9 0
-139 -19 -10 -93 0
-139 -19 -94 -177 0
-139 -19 -94 -9 0
-139 -19 -94 -93 0
-139 -103 -178 -9 0
-139 -103 -178 -93 0
-139 -103 -10 -9 0
-139 -103 -10 -93 0
-224 -188 -11 -177 0
-224 -188 -11 -9 0
-224 -188 -95 -177 0
-224 -188 -95 -9 0
-224 -20 -179 -177 0
-224 -20 -179 -9 0
-224 -20 -179 -93 0
-224 -20 -11 -177 0
-224 -20 -11 -9 0
-224 -20 -11 -93 0
-224 -20 -95 -177 0
-224 -20 -95 -9 0
-224 -104 -179 -177 0
-224 -104 -179 -9 0
-224 -104 -179 -93 0
-224 -104 -11 -177 0
-224 -104 -11 -9 0
-224 -104 -11 -93 0
-224 -104 -95 -177 0
-224 -104 -95 -9 0
-56 -188 -179 -9 0
-56 -188 -179 -93 0
-56 -188 -11 -177 0
-56 -188 -11 -9 0
-56 -188 -11 -93 0
-56 -188 -95 -177 0
-56 -188 -95 -9 0
-56 -188 -95 -93 0
-56 -20 -179 -177 0
-56 -20 -179 -9 0
-56 -20 -179 -93 0
-56 -20 -11 -177 0
-56 -20 -11 -9 0
-56 -20 -11 -93 0
-56 -20 -95 -177 0
-56 -20 -95 -9 0
-56 -20 -95 -93 0
-56 -104 -179 -177 0
-56 -104 -179 -9 0
-56 -104 -179 -93 0
-56 -104 -11 -177 0
-56 -104 -11 -9 0
-56 -104 -11 -93 0
-56 -104 -95 -177 0
-56 -104 -95 -9 0
-140 -188 -179 -9 0
-140 -188 -179 -93 0
-140 -188 -11 -177 0
-140 -188 -11 -9 0
-140 -188 -11 -93 0
-140 -188 -95 -177 0
-140 -188 -95 -9 0
-140 -188 -95 -93 0
-140 -20 -179 -9 0
-140 -20 -179 -93 0
-140 -20 -11 -177 0
-140 -20 -11 -9 0
-140 -20 -11 -93 0
-140 -20 -95 -177 0
-140 -20 -95 -9 0
-140 -20 -95 -93 0
-140 -104 -179 -9 0
-140 -104 -179 -93 0
-140 -104 -11 -9 0
-140 -104 -11 -93 0
-225 -189 -12 -177 0
-225 -189 -12 -9 0
-225 -189 -96 -177 0
-225 -189 -96 -9 0
-225 -21 -180 -177 0
-225 -21 -180 -9 0
-225 -21 -180 -93 0
-225 -21 -12 -177 0
-225 -21 -12 -9 0
-225 -21 -12 -93 0
-225 -21 -96 -177 0
-225 -21 -96 -9 0
-225 -105 -180 -177 0
-225 -105 -180 -9 0
-225 -105 -180 -93 0
-225 -105 -12 -177 0
-225 -105 -12 -9 0
-225 -105 -12 -93 0
-225 -105 -96 -177 0
-225 -105 -96 -9 0
-57 -189 -180 -9 0
-57 -189 -180 -93 0
-57 -189 -12 -177 0
-57 -189 -12 -9 0
-57 -189 -12 -93 0
-57 -189 -96 -177 0
-57 -189 -96 -9 0
-57 -189 -96 -93 0
-57 -21 -180 -177 0
-57 -21 -180 -9 0
-57 -21 -180 -93 0
-57 -21 -12 -177 0
-57 -21 -12 -9 0
-57 -21 -12 -93 0
-57 -21 -96 -177 0
-57 -21 -96 -9 0
-57 -21 -96 -93 0
-57 -105 -180 -177 0
-57 -105 -180 -9 0
-57 -105 -180 -93 0
-57 -105 -12 -177 0
-57 -105 -12 -9 0
-57 -105 -12 -93 0
-57 -105 -96 -177 0
-57 -105 -96 -9 0
-141 -189 -180 -9 0
-141 -189 -180 -93 0
-141 -189 -12 -177 0
-141 -189 -12 -9 0
-141 -189 -12 -93 0
-141 -189 -96 -177 0
-141 -189 -96 -9 0
-141 -189 -96 -93 0
-141 -21 -180 -9 0
-141 -21 -180 -93 0
-141 -21 -12 -177 0
-141 -21 -12 -9 0
-141 -21 -12 -93 0
-141 -21 -96 -177 0
-141 -21 -96 -9 0
-141 -21 -96 -93 0
-141 -105 -180 -9 0
-141 -105 -180 -93 0
-141 -105 -12 -9 0
-141 -105 -12 -93 0
-226 -190 -13 -177 0
-226 -190 -13 -9 0
-226 -190 -97 -177 0
-226 -190 -97 -9 0
-226 -22 -181 -177 0
-226 -22 -181 -9 0
-226 -22 -181 -93 0
-226 -22 -13 -177 0
-226 -22 -13 -9 0
-226 -22 -13 -93 0
-226 -22 -97 -177 0
-226 -22 -97 -9 0
-226 -106 -181 -177 0
-226 -106 -181 -9 0
-226 -106 -181 -93 0
-226 -106 -13 -177 0
-226 -106 -13 -9 0
-226 -106 -13 -93 0
-226 -106 -97 -177 0
-226 -106 -97 -9 0
-58 -190 -181 -9 0
-58 -190 -181 -93 0
-58 -190 -13 -177 0
-58 -190 -13 -9 0
-58 -190 -13 -93 0
-58 -190 -97 -177 0
-58 -190 -97 -9 0
-58 -190 -97 -93 0
-58 -22 -181 -177 0
-58 -22 -181 -9 0
-58 -22 -181 -93 0
-58 -22 -13 -177 0
-58 -22 -13 -9 0
-58 -22 -13 -93 0
-58 -22 -97 -177 0
-58 -22 -97 -9 0
-58 -22 -97 -93 0
-58 -106 -181 -177 0
-58 -106 -181 -9 0
-58 -106 -181 -93 0
-58 -106 -13 -177 0
-58 -106 -13 -9 0
-58 -106 -13 -93 0
-58 -106 -97 -177 0
-58 -106 -97 -9 0
-142 -190 -181 -9 0
-142 -190 -181 -93 0
-142 -190 -13 -177 0
-142 -190 -13 -9 0
-142 -190 -13 -93 0
-142 -190 -97 -177 0
-142 -190 -97 -9 0
-142 -190 -97 -93 0
-142 -22 -181 -9 0
-142 -22 -181 -93 0
-142 -22 -13 -177 0
-142 -22 -13 -9 0
-142 -22 -13 -93 0
-142 -22 -97 -177 0
-142 -22 -97 -9 0
-142 -22 -97 -93 0
-142 -106 -181 -9 0
-142 -106 -181 -93 0
-142 -106 -13 -9 0
-142 -106 -13 -93 0
-227 -191 -11 -178 0
-227 -191 -11 -10 0
-227 -191 -95 -178 0
-227 -191 -95 -10 0
-227 -23 -179 -178 0
-227 -23 -179 -10 0
-227 -23 -179 -94 0
-227 -23 -11 -178 0
-227 -23 -11 -10 0
-227 -23 -11 -94 0
-227 -23 -95 -178 0
-227 -23 -95 -10 0
-227 -107 -179 -178 0
-227 -107 -179 -10 0
-227 -107 -179 -94 0
-227 -107 -11 -178 0
-227 -107 -11 -10 0
-227 -107 -11 -94 0
-227 -107 -95 -178 0
-227 -107 -95 -10 0
-59 -191 -179 -10 0
-59 -191 -179 -94 0
-59 -191 -11 -178 0
-59 -191 -11 -10 0
-59 -191 -11 -94 0
-59 -191 -95 -178 0
-59 -191 -95 -10 0
-59 -191 -95 -94 0
-59 -23 -179 -178 0
-59 -23 -179 -10 0
-59 -23 -179 -94 0
-59 -23 -11 -178 0
-59 -23 -11 -10 0
-59 -23 -11 -94 0
-59 -23 -95 -178 0
-59 -23 -95 -10 0
-59 -23 -95 -94 0
-59 -107 -179 -178 0
-59 -107 -179 -10 0
-59 -107 -179 -94 0
-59 -107 -11 -178 0
-59 -107 -11 -10 0
-59 -107 -11 -94 0
-59 -107 -95 -178 0
-59 -107 -95 -10 0
-143 -191 -179 -10 0
-143 -191 -179 -94 0
-143 -191 -11 -178 0
-143 -191 -11 -10 0
-143 -191 -11 -94 0
-143 -191 -95 -178 0
-143 -191 -95 -10 0
-143 -191 -95 -94 0
-143 -23 -179 -10 0
-143 -23 -179 -94 0
-143 -23 -11 -178 0
-143 -23 -11 -10 0
-143 -23 -11 -94 0
-143 -23 -95 -178 0
-143 -23 -95 -10 0
-143 -23 -95 -94 0
-143 -107 -179 -10 0
-143 -107 -179 -94 0
-143 -107 -11 -10 0
-143 -107 -11 -94 0
-228 -192 -12 -178 0
-228 -192 -12 -10 0
-228 -192 -96 -178 0
-228 -192 -96 -10 0
-228 -24 -180 -178 0
-228 -24 -180 -10 0
-228 -24 -180 -94 0
-228 -24 -12 -178 0
-228 -24 -12 -10 0
-228 -24 -12 -94 0
-228 -24 -96 -178 0
-228 -24 -96 -10 0
-228 -108 -180 -178 0
-228 -108 -180 -10 0
-228 -108 -180 -94 0
-228 -108 -12 -178 0
-228 -108 -12 -10 0
-228 -108 -12 -94 0
-228 -108 -96 -178 0
-228 -108 -96 -10 0
-60 -192 -180 -10 0
-60 -192 -180 -94 0
-60 -192 -12 -178 0
-60 -192 -12 -10 0
-60 -192 -12 -94 0
-60 -192 -96 -178 0
-60 -192 -96 -10 0
-60 -192 -96 -94 0
-60 -24 -180 -178 0
-60 -24 -180 -10 0
-60 -24 -180 -94 0
-60 -24 -12 -178 0
-60 -24 -12 -10 0
-60 -24 -12 -94 0
-60 -24 -96 -178 0
-60 -24 -96 -10 0
-60 -24 -96 -94 0
-60 -108 -180 -178 0
-60 -108 -180 -10 0
-60 -108 -180 -94 0
-60 -108 -12 -178 0
-60 -108 -12 -10 0
-60 -108 -12 -94 0
-60 -108 -96 -178 0
-60 -108 -96 -10 0
-144 -192 -180 -10 0
-144 -192 -180 -94 0
-144 -192 -12 -178 0
-144 -192 -12 -10 0
-144 -192 -12 -94 0
-144 -192 -96 -178 0
-144 -192 -96 -10 0
-144 -192 -96 -94 0
-144 -24 -180 -10 0
-144 -24 -180 -94 0
-144 -24 -12 -178 0
-144 -24 -12 -10 0
-144 -24 -12 -94 0
-144 -24 -96 -178 0
-144 -24 -96 -10 0
-144 -24 -96 -94 0
-144 -108 -180 -10 0
-144 -108 -180 -94 0
-144 -108 -12 -10 0
-144 -108 -12 -94 0
-229 -193 -13 -178 0
-229 -193 -13 -10 0
-229 -193 -97 -178 0
-229 -193 -97 -10 0
-229 -25 -181 -178 0
-229 -25 -181 -10 0
-229 -25 -181 -94 0
-229 -25 -13 -178 0
-229 -25 -13 -10 0
-229 -25 -13 -94 0
-229 -25 -97 -178 0
-229 -25 -97 -10 0
-229 -109 -181 -178 0
-229 -109 -181 -10 0
-229 -109 -181 -94 0
-229 -109 -13 -178 0
-229 -109 -13 -10 0
-229 -109 -13 -94 0
-229 -109 -97 -178 0
-229 -109 -97 -10 0
-61 -193 -181 -10 0
-61 -193 -181 -94 0
-61 -193 -13 -178 0
-61 -193 -13 -10 0
-61 -193 -13 -94 0
-61 -193 -97 -178 0
-61 -193 -97 -10 0
-61 -193 -97 -94 0
-61 -25 -181 -178 0
-61 -25 -181 -10 0
-61 -25 -181 -94 0
-61 -25 -13 -178 0
-61 -25 -13 -10 0
-61 -25 -13 -94 0
-61 -25 -97 -178 0
-61 -25 -97 -10 0
-61 -25 -97 -94 0
-61 -109 -181 -178 0
-61 -109 -181 -10 0
-61 -109 -181 -94 0
-61 -109 -13 -178 0
-61 -109 -13 -10 0
-61 -109 -13 -94 0
-61 -109 -97 -178 0
-61 -109 -97 -10 0
-145 -193 -181 -10 0
-145 -193 -181 -94 0
-145 -193 -13 -178 0
-145 -193 -13 -10 0
-145 -193 -13 -94 0
-145 -193 -97 -178 0
-145 -193 -97 -10 0
-145 -193 -97 -94 0
-145 -25 -181 -10 0
-145 -25 -181 -94 0
-145 -25 -13 -178 0
-145 -25 -13 -10 0
-145 -25 -13 -94 0
-145 -25 -97 -178 0
-145 -25 -97 -10 0
-145 -25 -97 -94 0
-145 -109 -181 -10 0
-145 -109 -181 -94 0
-145 -109 -13 -10 0
-145 -109 -13 -94 0
-230 -194 -12 -179 0
-230 -194 -12 -11 0
-230 -194 -96 -179 0
-230 -194 -96 -11 0
-230 -26 -180 -179 0
-230 -26 -180 -11 0
-230 -26 -180 -95 0
-230 -26 -12 -179 0
-230 -26 -12 -11 0
-230 -26 -12 -95 0
-230 -26 -96 -179 0
-230 -26 -96 -11 0
-230 -110 -180 -179 0
-230 -110 -180 -11 0
-230 -110 -180 -95 0
-230 -110 -12 -179 0
-230 -110 -12 -11 0
-230 -110 -12 -95 0
-230 -110 -96 -179 0
-230 -110 -96 -11 0
-62 -194 -180 -11 0
-62 -194 -180 -95 0
-62 -194 -12 -179 0
-62 -194 -12 -11 0
-62 -194 -12 -95 0
-62 -194 -96 -179 0
-62 -194 -96 -11 0
-62 -194 -96 -95 0
-62 -26 -180 -179 0
-62 -26 -180 -11 0
-62 -26 -180 -95 0
-62 -26 -12 -179 0
-62 -26 -12 -11 0
-62 -26 -12 -95 0
-62 -26 -96 -179 0
-62 -26 -96 -11 0
-62 -26 -96 -95 0
-62 -110 -180 -179 0
-62 -110 -180 -11 0
-62 -110 -180 -95 0
-62 -110 -12 -179 0
-62 -110 -12 -11 0
-62 -110 -12 -95 0
-62 -110 -96 -179 0
-62 -110 -96 -11 0
-146 -194 -180 -11 0
-146 -194 -180 -95 0
-146 -194 -12 -179 0
-146 -194 -12 -11 0
-146 -194 -12 -95 0
-146 -194 -96 -179 0
-146 -194 -96 -11 0
-146 -194 -96 -95 0
-146 -26 -180 -11 0
-146 -26 -180 -95 0
-146 -26 -12 -179 0
-146 -26 -12 -11 0
-146 -26 -12 -95 0
-146 -26 -96 -179 0
-146 -26 -96 -11 0
-146 -26 -96 -95 0
-146 -110 -180 -11 0
-146 -110 -180 -95 0
-146 -110 -12 -11 0
-146 -110 -12 -95 0
-231 -195 -13 -179 0
-231 -195 -13 -11 0
-231 -195 -97 -179 0
-231 -195 -97 -11 0
-231 -27 -181 -179 0
-231 -27 -181 -11 0
-231 -27 -181 -95 0
-231 -27 -13 -179 0
-231 -27 -13 -11 0
-231 -27 -13 -95 0
-231 -27 -97 -179 0
-231 -27 -97 -11 0
-231 -111 -181 -179 0
-231 -111 -181 -11 0
-231 -111 -181 -95 0
-231 -111 -13 -179 0
-231 -111 -13 -11 0
-231 -111 -13 -95 0
-231 -111 -97 -179 0
-231 -111 -97 -11 0
-63 -195 -181 -11 0
-63 -195 -181 -95 0
-63 -195 -13 -179 0
-63 -195 -13 -11 0
-63 -195 -13 -95 0
-63 -195 -97 -179 0
-63 -195 -97 -11 0
-63 -195 -97 -95 0
-63 -27 -181 -179 0
-63 -27 -181 -11 0
-63 -27 -181 -95 0
-63 -27 -13 -179 0
-63 -27 -13 -11 0
-63 -27 -13 -95 0
-63 -27 -97 -179 0
-63 -27 -97 -11 0
-63 -27 -97 -95 0
-63 -111 -181 -179 0
-63 -111 -181 -11 0
-63 -111 -181 -95 0
-63 -111 -13 -179 0
-63 -111 -13 -11 0
-63 -111 -13 -95 0
-63 -111 -97 -179 0
-63 -111 -97 -11 0
-147 -195 -181 -11 0
-147 -195 -181 -95 0
-147 -195 -13 -179 0
-147 -195 -13 -11 0
-147 -195 -13 -95 0
-147 -195 -97 -179 0
-147 -195 -97 -11 0
-147 -195 -97 -95 0
-147 -27 -181 -11 0
-147 -27 -181 -95 0
-147 -27 -13 -179 0
-147 -27 -13 -11 0
-147 -27 -13 -95 0
-147 -27 -97 -179 0
-147 -27 -97 -11 0
-147 -27 -97 -95 0
-147 -111 -181 -11 0
-147 -111 -181 -95 0
-147 -111 -13 -11 0
-147 -111 -13 -95 0
-232 -196 -13 -180 0
-232 -196 -13 -12 0
-232 -196 -97 -180 0
-232 -196 -97 -12 0
-232 -28 -181 -180 0
-232 -28 -181 -12 0
-232 -28 -181 -96 0
-232 -28 -13 -180 0
-232 -28 -13 -12 0
-232 -28 -13 -96 0
-232 -28 -97 -180 0
-232 -28 -97 -12 0
-232 -112 -181 -180 0
-232 -112 -181 -12 0
-232 -112 -181 -96 0
-232 -112 -13 -180 0
-232 -112 -13 -12 0
-232 -112 -13 -96 0
-232 -112 -97 -180 0
-232 -112 -97 -12 0
-64 -196 -181 -12 0
-64 -196 -181 -96 0
-64 -196 -13 -180 0
-64 -196 -13 -12 0
-64 -196 -13 -96 0
-64 -196 -97 -180 0
-64 -196 -97 -12 0
-64 -196 -97 -96 0
-64 -28 -181 -180 0
-64 -28 -181 -12 0
-64 -28 -181 -96 0
-64 -28 -13 -180 0
-64 -28 -13 -12 0
-64 -28 -13 -96 0
-64 -28 -97 -180 0
-64 -28 -97 -12 0
-64 -28 -97 -96 0
-64 -112 -181 -180 0
-64 -112 -181 -12 0
-64 -112 -181 -96 0
-64 -112 -13 -180 0
-64 -112 -13 -12 0
-64 -112 -13 -96 0
-64 -112 -97 -180 0
-64 -112 -97 -12 0
-148 -196 -181 -12 0
-148 -196 -181 -96 0
-148 -196 -13 -180 0
-148 -196 -13 -12 0
-148 -196 -13 -96 0
-148 -196 -97 -180 0
-148 -196 -97 -12 0
-148 -196 -97 -96 0
-148 -28 -181 -12 0
-148 -28 -181 -96 0
-148 -28 -13 -180 0
-148 -28 -13 -12 0
-148 -28 -13 -96 0
-148 -28 -97 -180 0
-148 -28 -97 -12 0
-148 -28 -97 -96 0
-148 -112 -181 -12 0
-148 -112 -181 -96 0
-148 -112 -13 -12 0
-148 -112 -13 -96 0
-233 -187 -15 -182 0
-233 -187 -15 -14 0
-233 -187 -99 -182 0
-233 -187 -99 -14 0
-233 -19 -183 -182 0
-233 -19 -183 -14 0
-233 -19 -183 -98 0
-233 -19 -15 -182 0
-233 -19 -15 -14 0
-233 -19 -15 -98 0
-233 -19 -99 -182 0
-233 -19 -99 -14 0
-233 -103 -183 -182 0
-233 -103 -183 -14 0
-233 -103 -183 -98 0
-233 -103 -15 -182 0
-233 -103 -15 -14 0
-233 -103 -15 -98 0
-233 -103 -99 -182 0
-233 -103 -99 -14 0
-65 -187 -183 -14 0
-65 -187 -183 -98 0
-65 -187 -15 -182 0
-65 -187 -15 -14 0
-65 -187 -15 -98 0
-65 -187 -99 -182 0
-65 -187 -99 -14 0
-65 -187 -99 -98 0
-65 -19 -183 -182 0
-65 -19 -183 -14 0
-65 -19 -183 -98 0
-65 -19 -15 -182 0
-65 -19 -15 -14 0
-65 -19 -15 -98 0
-65 -19 -99 -182 0
-65 -19 -99 -14 0
-65 -19 -99 -98 0
-65 -103 -183 -182 0
-65 -103 -183 -14 0
-65 -103 -183 -98 0
-65 -103 -15 -182 0
-65 -103 -15 -14 0
-65 -103 -15 -98 0
-65 -103 -99 -182 0
-65 -103 -99 -14 0
-149 -187 -183 -14 0
-149 -187 -183 -98 0
-149 -187 -15 -182 0
-149 -187 -15 -14 0
-149 -187 -15 -98 0
-149 -187 -99 -182 0
-149 -187 -99 -14 0
-149 -187 -99 -98 0
-149 -19 -183 -14 0
-149 -19 -183 -98 0
-149 -19 -15 -182 0
-149 -19 -15 -14 0
-149 -19 -15 -98 0
-149 -19 -99 -182 0
-149 -19 -99 -14 0
-149 -19 -99 -98 0
-149 -103 -183 -14 0
-149 -103 -183 -98 0
-149 -103 -15 -14 0
-149 -103 -15 -98 0
-234 -188 -16 -182 0
-234 -188 -16 -14 0
-234 -188 -100 -182 0
-234 -188 -100 -14 0
-234 -20 -184 -182 0
-234 -20 -184 -14 0
-234 -20 -184 -98 0
-234 -20 -16 -182 0
-234 -20 -16 -14 0
-234 -20 -16 -98 0
-234 -20 -100 -182 0
-234 -20 -100 -14 0
-234 -104 -184 -182 0
-234 -104 -184 -14 0
-234 -104 -184 -98 0
-234 -104 -16 -182 0
-234 -104 -16 -14 0
-234 -104 -16 -98 0
-234 -104 -100 -182 0
-234 -104 -100 -14 0
-66 -188 -184 -14 0
-66 -188 -184 -98 0
-66 -188 -16 -182 0
-66 -188 -16 -14 0
-66 -188 -16 -98 0
-66 -188 -100 -182 0
-66 -188 -100 -14 0
-66 -188 -100 -98 0
-66 -20 -184 -182 0
-66 -20 -184 -14 0
-66 -20 -184 -98 0
-66 -20 -16 -182 0
-66 -20 -16 -14 0
-66 -20 -16 -98 0
-66 -20 -100 -182 0
-66 -20 -100 -14 0
-66 -20 -100 -98 0
-66 -104 -184 -182 0
-66 -104 -184 -14 0
-66 -104 -184 -98 0
-66 -104 -16 -182 0
-66 -104 -16 -14 0
-66 -104 -16 -98 0
-66 -104 -100 -182 0
-66 -104 -100 -14 0
-150 -188 -184 -14 0
-150 -188 -184 -98 0
-150 -188 -16 -182 0
-150 -188 -16 -14 0
-150 -188 -16 -98 0
-150 -188 -100 -182 0
-150 -188 -100 -14 0
-150 -188 -100 -98 0
-150 -20 -184 -14 0
-150 -20 -184 -98 0
-150 -20 -16 -182 0
-150 -20 -16 -14 0
-150 -20 -16 -98 0
-150 -20 -100 -182 0
-150 -20 -100 -14 0
-150 -20 -100 -98 0
-150 -104 -184 -14 0
-150 -104 -184 -98 0
-150 -104 -16 -14 0
-150 -104 -16 -98 0
-235 -189 -17 -182 0
-235 -189 -17 -14 0
-235 -189 -101 -182 0
-235 -189 -101 -14 0
-235 -21 -185 -182 0
-235 -21 -185 -14 0
-235 -21 -185 -98 0
-235 -21 -17 -182 0
-235 -21 -17 -14 0
-235 -21 -17 -98 0
-235 -21 -101 -182 0
-235 -21 -101 -14 0
-235 -105 -185 -182 0
-235 -105 -185 -14 0
-235 -105 -185 -98 0
-235 -105 -17 -182 0
-235 -105 -17 -14 0
-235 -105 -17 -98 0
-235 -105 -101 -182 0
-235 -105 -101 -14 0
-67 -189 -185 -14 0
-67 -189 -185 -98 0
-67 -189 -17 -182 0
-67 -189 -17 -14 0
-67 -189 -17 -98 0
-67 -189 -101 -182 0
-67 -189 -101 -14 0
-67 -189 -101 -98 0
-67 -21 -185 -182 0
-67 -21 -185 -14 0
-67 -21 -185 -98 0
-67 -21 -17 -182 0
-67 -21 -17 -14 0
-67 -21 -17 -98 0
-67 -21 -101 -182 0
-67 -21 -101 -14 0
-67 -21 -101 -98 0
-67 -105 -185 -182 0
-67 -105 -185 -14 0
-67 -105 -185 -98 0
-67 -105 -17 -182 0
-67 -105 -17 -14 0
-67 -105 -17 -98 0
-67 -105 -101 -182 0
-67 -105 -101 -14 0
-151 -189 -185 -14 0
-151 -189 -185 -98 0
-151 -189 -17 -182 0
-151 -189 -17 -14 0
-151 -189 -17 -98 0
-151 -189 -101 -182 0
-151 -189 -101 -14 0
-151 -189 -101 -98 0
-151 -21 -185 -14 0
-151 -21 -185 -98 0
-151 -21 -17 -182 0
-151 -21 -17 -14 0
-151 -21 -17 -98 0
-151 -21 -101 -182 0
-151 -21 -101 -14 0
-151 -21 -101 -98 0
-151 -105 -185 -14 0
-151 -105 -185 -98 0
-151 -105 -17 -14 0
-151 -105 -17 -98 0
-236 -190 -18 -182 0
-236 -190 -18 -14 0
-236 -190 -102 -182 0
-236 -190 -102 -14 0
-236 -22 -186 -182 0
-236 -22 -186 -14 0
-236 -22 -186 -98 0
-236 -22 -18 -182 0
-236 -22 -18 -14 0
-236 -22 -18 -98 0
-236 -22 -102 -182 0
-236 -22 -102 -14 0
-236 -106 -186 -182 0
-236 -106 -186 -14 0
-236 -106 -186 -98 0
-236 -106 -18 -182 0
-236 -106 -18 -14 0
-236 -106 -18 -98 0
-236 -106 -102 -182 0
-236 -106 -102 -14 0
-68 -190 -186 -14 0
-68 -190 -186 -98 0
-68 -190 -18 -182 0
-68 -190 -18 -14 0
-68 -190 -18 -98 0
-68 -190 -102 -182 0
-68 -190 -102 -14 0
-68 -190 -102 -98 0
-68 -22 -186 -182 0
-68 -22 -186 -14 0
-68 -22 -186 -98 0
-68 -22 -18 -182 0
-68 -22 -18 -14 0
-68 -22 -18 -98 0
-68 -22 -102 -182 0
-68 -22 -102 -14 0
-68 -22 -102 -98 0
-68 -106 -186 -182 0
-68 -106 -186 -14 0
-68 -106 -186 -98 0
-68 -106 -18 -182 0
-68 -106 -18 -14 0
-68 -106 -18 -98 0
-68 -106 -102 -182 0
-68 -106 -102 -14 0
-152 -190 -186 -14 0
-152 -190 -186 -98 0
-152 -190 -18 -182 0
-152 -190 -18 -14 0
-152 -190 -18 -98 0
-152 -190 -102 -182 0
-152 -190 -102 -14 0
-152 -190 -102 -98 0
-152 -22 -186 -14 0
-152 -22 -186 -98 0
-152 -22 -18 -182 0
-152 -22 -18 -14 0
-152 -22 -18 -98 0
-152 -22 -102 -182 0
-152 -22 -102 -14 0
-152 -22 -102 -98 0
-152 -106 -186 -14 0
-152 -106 -186 -98 0
-152 -106 -18 -14 0
-152 -106 -18 -98 0
-237 -191 -16 -183 0
-237 -191 -16 -15 0
-237 -191 -100 -183 0
-237 -191 -100 -15 0
-237 -23 -184 -183 0
-237 -23 -184 -15 0
-237 -23 -184 -99 0
-237 -23 -16 -183 0
-237 -23 -16 -15 0
-237 -23 -16 -99 0
-237 -23 -100 -183 0
-237 -23 -100 -15 0
-237 -107 -184 -183 0
-237 -107 -184 -15 0
-237 -107 -184 -99 0
-237 -107 -16 -183 0
-237 -107 -16 -15 0
-237 -107 -16 -99 0
-237 -107 -100 -183 0
-237 -107 -100 -15 0
-69 -191 -184 -15 0
-69 -191 -184 -99 0
-69 -191 -16 -183 0
-69 -191 -16 -15 0
-69 -191 -16 -99 0
-69 -191 -100 -183 0
-69 -191 -100 -15 0
-69 -191 -100 -99 0
-69 -23 -184 -183 0
-69 -23 -184 -15 0
-69 -23 -184 -99 0
-69 -23 -16 -183 0
-69 -23 -16 -15 0
-69 -23 -16 -99 0
-69 -23 -100 -183 0
-69 -23 -100 -15 0
-69 -23 -100 -99 0
-69 -107 -184 -183 0
-69 -107 -184 -15 0
-69 -107 -184 -99 0
-69 -107 -16 -183 0
-69 -107 -16 -15 0
-69 -107 -16 -99 0
-69 -107 -100 -183 0
-69 -107 -100 -15 0
-153 -191 -184 -15 0
-153 -191 -184 -99 0
-153 -191 -16 -183 0
-153 -191 -16 -15 0
-153 -191 -16 -99 0
-153 -191 -100 -183 0
-153 -191 -100 -15 0
-153 -191 -100 -99 0
-153 -23 -184 -15 0
-153 -23 -184 -99 0
-153 -23 -16 -183 0
-153 -23 -16 -15 0
-153 -23 -16 -99 0
-153 -23 -100 -183 0
-153 -23 -100 -15 0
-153 -23 -100 -99 0
-153 -107 -184 -15 0
-153 -107 -184 -99 0
-153 -107 -16 -15 0
-153 -107 -16 -99 0
-238 -192 -17 -183 0
-238 -192 -17 -15 0
-238 -192 -101 -183 0
-238 -192 -101 -15 0
-238 -24 -185 -183 0
-238 -24 -185 -15 0
-238 -24 -185 -99 0
-238 -24 -17 -183 0
-238 -24 -17 -15 0
-238 -24 -17 -99 0
-238 -24 -101 -183 0
-238 -24 -101 -15 0
-238 -108 -185 -183 0
-238 -108 -185 -15 0
-238 -108 -185 -99 0
-238 -108 -17 -183 0
-238 -108 -17 -15 0
-238 -108 -17 -99 0
-238 -108 -101 -183 0
-238 -108 -101 -15 0
-70 -192 -185 -15 0
-70 -192 -185 -99 0
-70 -192 -17 -183 0
-70 -192 -17 -15 0
-70 -192 -17 -99 0
-70 -192 -101 -183 0
-70 -192 -101 -15 0
-70 -192 -101 -99 0
-70 -24 -185 -183 0
-70 -24 -185 -15 0
-70 -24 -185 -99 0
-70 -24 -17 -183 0
-70 -24 -17 -15 0
-70 -24 -17 -99 0
-70 -24 -101 -183 0
-70 -24 -101 -15 0
-70 -24 -101 -99 0
-70 -108 -185 -183 0
-70 -108 -185 -15 0
-70 -108 -185 -99 0
-70 -108 -17 -183 0
-70 -108 -17 -15 0
-70 -108 -17 -99 0
-70 -108 -101 -183 0
-70 -108 -101 -15 0
-154 -192 -185 -15 0
-154 -192 -185 -99 0
-154 -192 -17 -183 0
-154 -192 -17 -15 0
-154 -192 -17 -99 0
-154 -192 -101 -183 0
-154 -192 -101 -15 0
-154 -192 -101 -99 0
-154 -24 -185 -15 0
-154 -24 -185 -99 0
-154 -24 -17 -183 0
-154 -24 -17 -15 0
-154 -24 -17 -99 0
-154 -24 -101 -183 0
-154 -24 -101 -15 0
-154 -24 -101 -99 0
-154 -108 -185 -15 0
-154 -108 -185 -99 0
-154 -108 -17 -15 0
-154 -108 -17 -99 0
-239 -193 -18 -183 0
-239 -193 -18 -15 0
-239 -193 -102 -183 0
-239 -193 -102 -15 0
-239 -25 -186 -183 0
-239 -25 -186 -15 0
-239 -25 -186 -99 0
-239 -25 -18 -183 0
-239 -25 -18 -15 0
-239 -25 -18 -99 0
-239 -25 -102 -183 0
-239 -25 -102 -15 0
-239 -109 -186 -183 0
-239 -109 -186 -15 0
-239 -109 -186 -99 0
-239 -109 -18 -183 0
-239 -109 -18 -15 0
-239 -109 -18 -99 0
-239 -109 -102 -183 0
-239 -109 -102 -15 0
-71 -193 -186 -15 0
-71 -193 -186 -99 0
-71 -193 -18 -183 0
-71 -193 -18 -15 0
-71 -193 -18 -99 0
-71 -193 -102 -183 0
-71 -193 -102 -15 0
-71 -193 -102 -99 0
-71 -25 -186 -183 0
-71 -25 -186 -15 0
-71 -25 -186 -99 0
-71 -25 -18 -183 0
-71 -25 -18 -15 0
-71 -25 -18 -99 0
-71 -25 -102 -183 0
-71 -25 -102 -15 0
-71 -25 -102 -99 0
-71 -109 -186 -183 0
-71 -109 -186 -15 0
-71 -109 -186 -99 0
-71 -109 -18 -183 0
-71 -109 -18 -15 0
-71 -109 -18 -99 0
-71 -109 -102 -183 0
-71 -109 -102 -15 0
-155 -193 -186 -15 0
-155 -193 -186 -99 0
-155 -193 -18 -183 0
-155 -193 -18 -15 0
-155 -193 -18 -99 0
-155 -193 -102 -183 0
-155 -193 -102 -15 0
-155 -193 -102 -99 0
-155 -25 -186 -15 0
-155 -25 -186 -99 0
-155 -25 -18 -183 0
-155 -25 -18 -15 0
-155 -25 -18 -99 0
-155 -25 -102 -183 0
-155 -25 -102 -15 0
-155 -25 -102 -99 0
-155 -109 -186 -15 0
-155 -109 -186 -99 0
-155 -109 -18 -15 0
-155 -109 -18 -99 0
-240 -194 -17 -184 0
-240 -194 -17 -16 0
-240 -194 -101 -184 0
-240 -194 -101 -16 0
-240 -26 -185 -184 0
-240 -26 -185 -16 0
-240 -26 -185 -100 0
-240 -26 -17 -184 0
-240 -26 -17 -16 0
-240 -26 -17 -100 0
-240 -26 -101 -184 0
-240 -26 -101 -16 0
-240 -110 -185 -184 0
-240 -110 -185 -16 0
-240 -110 -185 -100 0
-240 -110 -17 -184 0
-240 -110 -17 -16 0
-240 -110 -17 -100 0
-240 -110 -101 -184 0
-240 -110 -101 -16 0
-72 -194 -185 -16 0
-72 -194 -185 -100 0
-72 -194 -17 -184 0
-72 -194 -17 -16 0
-72 -194 -17 -100 0
-72 -194 -101 -184 0
-72 -194 -101 -16 0
-72 -194 -101 -100 0
-72 -26 -185 -184 0
-72 -26 -185 -16 0
-72 -26 -185 -100 0
-72 -26 -17 -184 0
-72 -26 -17 -16 0
-72 -26 -17 -100 0
-72 -26 -101 -184 0
-72 -26 -101 -16 0
-72 -26 -101 -100 0
-72 -110 -185 -184 0
-72 -110 -185 -16 0
-72 -110 -185 -100 0
-72 -110 -17 -184 0
-72 -110 -17 -16 0
-72 -110 -17 -100 0
-72 -110 -101 -184 0
-72 -110 -101 -16 0
-156 -194 -185 -16 0
-156 -194 -185 -100 0
-156 -194 -17 -184 0
-156 -194 -17 -16 0
-156 -194 -17 -100 0
-156 -194 -101 -184 0
-156 -194 -101 -16 0
-156 -194 -101 -100 0
-156 -26 -185 -16 0
-156 -26 -185 -100 0
-156 -26 -17 -184 0
-156 -26 -17 -16 0
-156 -26 -17 -100 0
-156 -26 -101 -184 0
-156 -26 -101 -16 0
-156 -26 -101 -100 0
-156 -110 -185 -16 0
-156 -110 -185 -100 0
-156 -110 -17 -16 0
-156 -110 -17 -100 0
-241 -195 -18 -184 0
-241 -195 -18 -16 0
-241 -195 -102 -184 0
-241 -195 -102 -16 0
-241 -27 -186 -184 0
-241 -27 -186 -16 0
-241 -27 -186 -100 0
-241 -27 -18 -184 0
-241 -27 -18 -16 0
-241 -27 -18 -100 0
-241 -27 -102 -184 0
-241 -27 -102 -16 0
-241 -111 -186 -184 0
-241 -111 -186 -16 0
-241 -111 -186 -100 0
-241 -111 -18 -184 0
-241 -111 -18 -16 0
-241 -111 -18 -100 0
-241 -111 -102 -184 0
-241 -111 -102 -16 0
-73 -195 -186 -16 0
-73 -195 -186 -100 0
-73 -195 -18 -184 0
-73 -195 -18 -16 0
-73 -195 -18 -100 0
-73 -195 -102 -184 0
-73 -195 -102 -16 0
-73 -195 -102 -100 0
-73 -27 -186 -184 0
-73 -27 -186 -16 0
-73 -27 -186 -100 0
-73 -27 -18 -184 0
-73 -27 -18 -16 0
-73 -27 -18 -100 0
-73 -27 -102 -184 0
-73 -27 -102 -16 0
-73 -27 -102 -100 0
-73 -111 -186 -184 0
-73 -111 -186 -16 0
-73 -111 -186 -100 0
-73 -111 -18 -184 0
-73 -111 -18 -16 0
-73 -111 -18 -100 0
-73 -111 -102 -184 0
-73 -111 -102 -16 0
-157 -195 -186 -16 0
-157 -195 -186 -100 0
-157 -195 -18 -184 0
-157 -195 -18 -16 0
-157 -195 -18 -100 0
-157 -195 -102 -184 0
-157 -195 -102 -16 0
-157 -195 -102 -100 0
-157 -27 -186 -16 0
-157 -27 -186 -100 0
-157 -27 -18 -184 0
-157 -27 -18 -16 0
-157 -27 -18 -100 0
-157 -27 -102 -184 0
-157 -27 -102 -16 0
-157 -27 -102 -100 0
-157 -111 -186 -16 0
-157 -111 -186 -100 0
-157 -111 -18 -16 0
-157 -111 -18 -100 0
-242 -196 -18 -185 0
-242 -196 -18 -17 0
-242 -196 -102 -185 0
-242 -196 -102 -17 0
-242 -28 -186 -185 0
-242 -28 -186 -17 0
-242 -28 -186 -101 0
-242 -28 -18 -185 0
-242 -28 -18 -17 0
-242 -28 -18 -101 0
-242 -28 -102 -185 0
-242 -28 -102 -17 0
-242 -112 -186 -185 0
-242 -112 -186 -17 0
-242 -112 -186 -101 0
-242 -112 -18 -185 0
-242 -112 -18 -17 0
-242 -112 -18 -101 0
-242 -112 -102 -185 0
-242 -112 -102 -17 0
-74 -196 -186 -17 0
-74 -196 -186 -101 0
-74 -196 -18 -185 0
-74 -196 -18 -17 0
-74 -196 -18 -101 0
-74 -196 -102 -185 0
-74 -196 -102 -17 0
-74 -196 -102 -101 0
-74 -28 -186 -185 0
-74 -28 -186 -17 0
-74 -28 -186 -101 0
-74 -28 -18 -185 0
-74 -28 -18 -17 0
-74 -28 -18 -101 0
-74 -28 -102 -185 0
-74 -28 -102 -17 0
-74 -28 -102 -101 0
-74 -112 -186 -185 0
-74 -112 -186 -17 0
-74 -112 -186 -101 0
-74 -112 -18 -185 0
-74 -112 -18 -17 0
-74 -112 -18 -101 0
-74 -112 -102 -185 0
-74 -112 -102 -17 0
-158 -196 -186 -17 0
-158 -196 -186 -101 0
-158 -196 -18 -185 0
-158 -196 -18 -17 0
-158 -196 -18 -101 0
-158 -196 -102 -185 0
-158 -196 -102 -17 0
-158 -196 -102 -101 0
-158 -28 -186 -17 0
-158 -28 -186 -101 0
-158 -28 -18 -185 0
-158 -28 -18 -17 0
-158 -28 -18 -101 0
-158 -28 -102 -185 0
-158 -28 -102 -17 0
-158 -28 -102 -101 0
-158 -112 -186 -17 0
-158 -112 -186 -101 0
-158 -112 -18 -17 0
-158 -112 -18 -101 0
-243 -191 -20 -187 0
-243 -191 -20 -19 0
-243 -191 -104 -187 0
-243 -191 -104 -19 0
-243 -23 -188 -187 0
-243 -23 -188 -19 0
-243 -23 -188 -103 0
-243 -23 -20 -187 0
-243 -23 -20 -19 0
-243 -23 -20 -103 0
-243 -23 -104 -187 0
-243 -23 -104 -19 0
-243 -107 -188 -187 0
-243 -107 -188 -19 0
-243 -107 -188 -103 0
-243 -107 -20 -187 0
-243 -107 -20 -19 0
-243 -107 -20 -103 0
-243 -107 -104 -187 0
-243 -107 -104 -19 0
-75 -191 -188 -19 0
-75 -191 -188 -103 0
-75 -191 -20 -187 0
-75 -191 -20 -19 0
-75 -191 -20 -103 0
-75 -191 -104 -187 0
-75 -191 -104 -19 0
-75 -191 -104 -103 0
-75 -23 -188 -187 0
-75 -23 -188 -19 0
-75 -23 -188 -103 0
-75 -23 -20 -187 0
-75 -23 -20 -19 0
-75 -23 -20 -103 0
-75 -23 -104 -187 0
-75 -23 -104 -19 0
-75 -23 -104 -103 0
-75 -107 -188 -187 0
-75 -107 -188 -19 0
-75 -107 -188 -103 0
-75 -107 -20 -187 0
-75 -107 -20 -19 0
-75 -107 -20 -103 0
-75 -107 -104 -187 0
-75 -107 -104 -19 0
-159 -191 -188 -19 0
-159 -191 -188 -103 0
-159 -191 -20 -187 0
-159 -191 -20 -19 0
-159 -191 -20 -103 0
-159 -191 -104 -187 0
-159 -191 -104 -19 0
-159 -191 -104 -103 0
-159 -23 -188 -19 0
-159 -23 -188 -103 0
-159 -23 -20 -187 0
-159 -23 -20 -19 0
-159 -23 -20 -103 0
-159 -23 -104 -187 0
-159 -23 -104 -19 0
-159 -23 -104 -103 0
-159 -107 -188 -19 0
-159 -107 -188 -103 0
-159 -107 -20 -19 0
-159 -107 -20 -103 0
-244 -192 -21 -187 0
-244 -192 -21 -19 0
-244 -192 -105 -187 0
-244 -192 -105 -19 0
-244 -24 -189 -187 0
-244 -24 -189 -19 0
-244 -24 -189 -103 0
-244 -24 -21 -187 0
-244 -24 -21 -19 0
-244 -24 -21 -103 0
-244 -24 -105 -187 0
-244 -24 -105 -19 0
-244 -108 -189 -187 0
-244 -108 -189 -19 0
-244 -108 -189 -103 0
-244 -108 -21 -187 0
-244 -108 -21 -19 0
-244 -108 -21 -103 0
-244 -108 -105 -187 0
-244 -108 -105 -19 0
-76 -192 -189 -19 0
-76 -192 -189 -103 0
-76 -192 -21 -187 0
-76 -192 -21 -19 0
-76 -192 -21 -103 0
-76 -192 -105 -187 0
-76 -192 -105 -19 0
-76 -192 -105 -103 0
-76 -24 -189 -187 0
-76 -24 -189 -19 0
-76 -24 -189 -103 0
-76 -24 -21 -187 0
-76 -24 -21 -19 0
-76 -24 -21 -103 0
-76 -24 -105 -187 0
-76 -24 -105 -19 0
-76 -24 -105 -103 0
-76 -108 -189 -187 0
-76 -108 -189 -19 0
-76 -108 -189 -103 0
-76 -108 -21 -187 0
-76 -108 -21 -19 0
-76 -108 -21 -103 0
-76 -108 -105 -187 0
-76 -108 -105 -19 0
-160 -192 -189 -19 0
-160 -192 -189 -103 0
-160 -192 -21 -187 0
-160 -192 -21 -19 0
-160 -192 -21 -103 0
-160 -192 -105 -187 0
-160 -192 -105 -19 0
-160 -192 -105 -103 0
-160 -24 -189 -19 0
-160 -24 -189 -103 0
-160 -24 -21 -187 0
-160 -24 -21 -19 0
-160 -24 -21 -103 0
-160 -24 -105 -187 0
-160 -24 -105 -19 0
-160 -24 -105 -103 0
-160 -108 -189 -19 0
-160 -108 -189 -103 0
-160 -108 -21 -19 0
-160 -108 -21 -103 0
-245 -193 -22 -187 0
-245 -193 -22 -19 0
-245 -193 -106 -187 0
-245 -193 -106 -19 0
-245 -25 -190 -187 0
-245 -25 -190 -19 0
-245 -25 -190 -103 0
-245 -25 -22 -187 0
-245 -25 -22 -19 0
-245 -25 -22 -103 0
-245 -25 -106 -187 0
-245 -25 -106 -19 0
-245 -109 -190 -187 0
-245 -109 -190 -19 0
-245 -109 -190 -103 0
-245 -109 -22 -187 0
-245 -109 -22 -19 0
-245 -109 -22 -103 0
-245 -109 -106 -187 0
-245 -109 -106 -19 0
-77 -193 -190 -19 0
-77 -193 -190 -103 0
-77 -193 -22 -187 0
-77 -193 -22 -19 0
-77 -193 -22 -103 0
-77 -193 -106 -187 0
-77 -193 -106 -19 0
-77 -193 -106 -103 0
-77 -25 -190 -187 0
-77 -25 -190 -19 0
-77 -25 -190 -103 0
-77 -25 -22 -187 0
-77 -25 -22 -19 0
-77 -25 -22 -103 0
-77 -25 -106 -187 0
-77 -25 -106 -19 0
-77 -25 -106 -103 0
-77 -109 -190 -187 0
-77 -109 -190 -19 0
-77 -109 -190 -103 0
-77 -109 -22 -187 0
-77 -109 -22 -19 0
-77 -109 -22 -103 0
-77 -109 -106 -187 0
-77 -109 -106 -19 0
-161 -193 -190 -19 0
-161 -193 -190 -103 0
-161 -193 -22 -187 0
-161 -193 -22 -19 0
-161 -193 -22 -103 0
-161 -193 -106 -187 0
-161 -193 -106 -19 0
-161 -193 -106 -103 0
-161 -25 -190 -19 0
-161 -25 -190 -103 0
-161 -25 -22 -187 0
-161 -25 -22 -19 0
-161 -25 -22 -103 0
-161 -25 -106 -187 0
-161 -25 -106 -19 0
-161 -25 -106 -103 0
-161 -109 -190 -19 0
-161 -109 -190 -103 0
-161 -109 -22 -19 0
-161 -109 -22 -103 0
-246 -194 -21 -188 0
-246 -194 -21 -20 0
-246 -194 -105 -188 0
-246 -194 -105 -20 0
-246 -26 -189 -188 0
-246 -26 -189 -20 0
-246 -26 -189 -104 0
-246 -26 -21 -188 0
-246 -26 -21 -20 0
-246 -26 -21 -104 0
-246 -26 -105 -188 0
-246 -26 -105 -20 0
-246 -110 -189 -188 0
-246 -110 -189 -20 0
-246 -110 -189 -104 0
-246 -110 -21 -188 0
-246 -110 -21 -20 0
-246 -110 -21 -104 0
-246 -110 -105 -188 0
-246 -110 -105 -20 0
-78 -194 -189 -20 0
-78 -194 -189 -104 0
-78 -194 -21 -188 0
-78 -194 -21 -20 0
-78 -194 -21 -104 0
-78 -194 -105 -188 0
-78 -194 -105 -20 0
-78 -194 -105 -104 0
-78 -26 -189 -188 0
-78 -26 -189 -20 0
-78 -26 -189 -104 0
-78 -26 -21 -188 0
-78 -26 -21 -20 0
-78 -26 -21 -104 0
-78 -26 -105 -188 0
-78 -26 -105 -20 0
-78 -26 -105 -104 0
-78 -110 -189 -188 0
-78 -110 -189 -20 0
-78 -110 -189 -104 0
-78 -110 -21 -188 0
-78 -110 -21 -20 0
-78 -110 -21 -104 0
-78 -110 -105 -188 0
-78 -110 -105 -20 0
-162 -194 -189 -20 0
-162 -194 -189 -104 0
-162 -194 -21 -188 0
-162 -194 -21 -20 0
-162 -194 -21 -104 0
-162 -194 -105 -188 0
-162 -194 -105 -20 0
-162 -194 -105 -104 0
-162 -26 -189 -20 0
-162 -26 -189 -104 0
-162 -26 -21 -188 0
-162 -26 -21 -20 0
-162 -26 -21 -104 0
-162 -26 -105 -188 0
-162 -26 -105 -20 0
-162 -26 -105 -104 0
-162 -110 -189 -20 0
-162 -110 -189 -104 0
-162 -110 -21 -20 0
-162 -110 -21 -104 0
-247 -195 -22 -188 0
-247 -195 -22 -20 0
-247 -195 -106 -188 0
-247 -195 -106 -20 0
-247 -27 -190 -188 0
-247 -27 -190 -20 0
-247 -27 -190 -104 0
-247 -27 -22 -188 0
-247 -27 -22 -20 0
-247 -27 -22 -104 0
-247 -27 -106 -188 0
-247 -27 -106 -20 0
-247 -111 -190 -188 0
-247 -111 -190 -20 0
-247 -111 -190 -104 0
-247 -111 -22 -188 0
-247 -111 -22 -20 0
-247 -111 -22 -104 0
-247 -111 -106 -188 0
-247 -111 -106 -20 0
-79 -195 -190 -20 0
-79 -195 -190 -104 0
-79 -195 -22 -188 0
-79 -195 -22 -20 0
-79 -195 -22 -104 0
-79 -195 -106 -188 0
-79 -195 -106 -20 0
-79 -195 -106 -104 0
-79 -27 -190 -188 0
-79 -27 -190 -20 0
-79 -27 -190 -104 0
-79 -27 -22 -188 0
-79 -27 -22 -20 0
-79 -27 -22 -104 0
-79 -27 -106 -188 0
-79 -27 -106 -20 0
-79 -27 -106 -104 0
-79 -111 -190 -188 0
-79 -111 -190 -20 0
-79 -111 -190 -104 0
-79 -111 -22 -188 0
-79 -111 -22 -20 0
-79 -111 -22 -104 0
-79 -111 -106 -188 0
-79 -111 -106 -20 0
-163 -195 -190 -20 0
-163 -195 -190 -104 0
-163 -195 -22 -188 0
-163 -195 -22 -20 0
-163 -195 -22 -104 0
-163 -195 -106 -188 0
-163 -195 -106 -20 0
-163 -195 -106 -104 0
-163 -27 -190 -20 0
-163 -27 -190 -104 0
-163 -27 -22 -188 0
-163 -27 -22 -20 0
-163 -27 -22 -104 0
-163 -27 -106 -188 0
-163 -27 -106 -20 0
-163 -27 -106 -104 0
-163 -111 -190 -20 0
-163 -111 -190 -104 0
-163 -111 -22 -20 0
-163 -111 -22 -104 0
-248 -196 -22 -189 0
-248 -196 -22 -21 0
-248 -196 -106 -189 0
-248 -196 -106 -21 0
-248 -28 -190 -189 0
-248 -28 -190 -21 0
-248 -28 -190 -105 0
-248 -28 -22 -189 0
-248 -28 -22 -21 0
-248 -28 -22 -105 0
-248 -28 -106 -189 0
-248 -28 -106 -21 0
-248 -112 -190 -189 0
-248 -112 -190 -21 0
-248 -112 -190 -105 0
-248 -112 -22 -189 0
-248 -112 -22 -21 0
-248 -112 -22 -105 0
-248 -112 -106 -189 0
-248 -112 -106 -21 0
-80 -196 -190 -21 0
-80 -196 -190 -105 0
-80 -196 -22 -189 0
-80 -196 -22 -21 0
-80 -196 -22 -105 0
-80 -196 -106 -189 0
-80 -196 -106 -21 0
-80 -196 -106 -105 0
-80 -28 -190 -189 0
-80 -28 -190 -21 0
-80 -28 -190 -105 0
-80 -28 -22 -189 0
-80 -28 -22 -21 0
-80 -28 -22 -105 0
-80 -28 -106 -189 0
-80 -28 -106 -21 0
-80 -28 -106 -105 0
-80 -112 -190 -189 0
-80 -112 -190 -21 0
-80 -112 -190 -105 0
-80 -112 -22 -189 0
-80 -112 -22 -21 0
-80 -112 -22 -105 0
-80 -112 -106 -189 0
-80 -112 -106 -21 0
-164 -196 -190 -21 0
-164 -196 -190 -105 0
-164 -196 -22 -189 0
-164 -196 -22 -21 0
-164 -196 -22 -105 0
-164 -196 -106 -189 0
-164 -196 -106 -21 0
-164 -196 -106 -105 0
-164 -28 -190 -21 0
-164 -28 -190 -105 0
-164 -28 -22 -189 0
-164 -28 -22 -21 0
-164 -28 -22 -105 0
-164 -28 -106 -189 0
-164 -28 -106 -21 0
-164 -28 -106 -105 0
-164 -112 -190 -21 0
-164 -112 -190 -105 0
-164 -112 -22 -21 0
-164 -112 -22 -105 0
-249 -194 -24 -191 0
-249 -194 -24 -23 0
-249 -194 -108 -191 0
-249 -194 -108 -23 0
-249 -26 -192 -191 0
-249 -26 -192 -23 0
-249 -26 -192 -107 0
-249 -26 -24 -191 0
-249 -26 -24 -23 0
-249 -26 -24 -107 0
-249 -26 -108 -191 0
-249 -26 -108 -23 0
-249 -110 -192 -191 0
-249 -110 -192 -23 0
-249 -110 -192 -107 0
-249 -110 -24 -191 0
-249 -110 -24 -23 0
-249 -110 -24 -107 0
-249 -110 -108 -191 0
-249 -110 -108 -23 0
-81 -194 -192 -23 0
-81 -194 -192 -107 0
-81 -194 -24 -191 0
-81 -194 -24 -23 0
-81 -194 -24 -107 0
-81 -194 -108 -191 0
-81 -194 -108 -23 0
-81 -194 -108 -107 0
-81 -26 -192 -191 0
-81 -26 -192 -23 0
-81 -26 -192 -107 0
-81 -26 -24 -191 0
-81 -26 -24 -23 0
-81 -26 -24 -107 0
-81 -26 -108 -191 0
-81 -26 -108 -23 0
-81 -26 -108 -107 0
-81 -110 -192 -191 0
-81 -110 -192 -23 0
-81 -110 -192 -107 0
-81 -110 -24 -191 0
-81 -110 -24 -23 0
-81 -110 -24 -107 0
-81 -110 -108 -191 0
-81 -110 -108 -23 0
-165 -194 -192 -23 0
-165 -194 -192 -107 0
-165 -194 -24 -191 0
-165 -194 -24 -23 0
-165 -194 -24 -107 0
-165 -194 -108 -191 0
-165 -194 -108 -23 0
-165 -194 -108 -107 0
-165 -26 -192 -23 0
-165 -26 -192 -107 0
-165 -26 -24 -191 0
-165 -26 -24 -23 0
-165 -26 -24 -107 0
-165 -26 -108 -191 0
-165 -26 -108 -23 0
-165 -26 -108 -107 0
-165 -110 -192 -23 0
-165 -110 -192 -107 0
-165 -110 -24 -23 0
-165 -110 -24 -107 0
-250 -195 -25 -191 0
-250 -195 -25 -23 0
-250 -195 -109 -191 0
-250 -195 -109 -23 0
-250 -27 -193 -191 0
-250 -27 -193 -23 0
-250 -27 -193 -107 0
-250 -27 -25 -191 0
-250 -27 -25 -23 0
-250 -27 -25 -107 0
-250 -27 -109 -191 0
-250 -27 -109 -23 0
-250 -111 -193 -191 0
-250 -111 -193 -23 0
-250 -111 -193 -107 0
-250 -111 -25 -191 0
-250 -111 -25 -23 0
-250 -111 -25 -107 0
-250 -111 -109 -191 0
-250 -111 -109 -23 0
-82 -195 -193 -23 0
-82 -195 -193 -107 0
-82 -195 -25 -191 0
-82 -195 -25 -23 0
-82 -195 -25 -107 0
-82 -195 -109 -191 0
-82 -195 -109 -23 0
-82 -195 -109 -107 0
-82 -27 -193 -191 0
-82 -27 -193 -23 0
-82 -27 -193 -107 0
-82 -27 -25 -191 0
-82 -27 -25 -23 0
-82 -27 -25 -107 0
-82 -27 -109 -191 0
-82 -27 -109 -23 0
-82 -27 -109 -107 0
-82 -111 -193 -191 0
-82 -111 -193 -23 0
-82 -111 -193 -107 0
-82 -111 -25 -191 0
-82 -111 -25 -23 0
-82 -111 -25 -107 0
-82 -111 -109 -191 0
-82 -111 -109 -23 0
-166 -195 -193 -23 0
-166 -195 -193 -107 0
-166 -195 -25 -191 0
-166 -195 -25 -23 0
-166 -195 -25 -107 0
-166 -195 -109 -191 0
-166 -195 -109 -23 0
-166 -195 -109 -107 0
-166 -27 -193 -23 0
-166 -27 -193 -107 0
-166 -27 -25 -191 0
-166 -27 -25 -23 0
-166 -27 -25 -107 0
-166 -27 -109 -191 0
-166 -27 -109 -23 0
-166 -27 -109 -107 0
-166 -111 -193 -23 0
-166 -111 -193 -107 0
-166 -111 -25 -23 0
-166 -111 -25 -107 0
-251 -196 -25 -192 0
-251 -196 -25 -24 0
-251 -196 -109 -192 0
-251 -196 -109 -24 0
-251 -28 -193 -192 0
-251 -28 -193 -24 0
-251 -28 -193 -108 0
-251 -28 -25 -192 0
-251 -28 -25 -24 0
-251 -28 -25 -108 0
-251 -28 -109 -192 0
-251 -28 -109 -24 0
-251 -112 -193 -192 0
-251 -112 -193 -24 0
-251 -112 -193 -108 0
-251 -112 -25 -192 0
-251 -112 -25 -24 0
-251 -112 -25 -108 0
-251 -112 -109 -192 0
-251 -112 -109 -24 0
-83 -196 -193 -24 0
-83 -196 -193 -108 0
-83 -196 -25 -192 0
-83 -196 -25 -24 0
-83 -196 -25 -108 0
-83 -196 -109 -192 0
-83 -196 -109 -24 0
-83 -196 -109 -108 0
-83 -28 -193 -192 0
-83 -28 -193 -24 0
-83 -28 -193 -108 0
-83 -28 -25 -192 0
-83 -28 -25 -24 0
-83 -28 -25 -108 0
-83 -28 -109 -192 0
-83 -28 -109 -24 0
-83 -28 -109 -108 0
-83 -112 -193 -192 0
-83 -112 -193 -24 0
-83 -112 -193 -108 0
-83 -112 -25 -192 0
-83 -112 -25 -24 0
-83 -112 -25 -108 0
-83 -112 -109 -192 0
-83 -112 -109 -24 0
-167 -196 -193 -24 0
-167 -196 -193 -108 0
-167 -196 -25 -192 0
-167 -196 -25 -24 0
-167 -196 -25 -108 0
-167 -196 -109 -192 0
-167 -196 -109 -24 0
-167 -196 -109 -108 0
-167 -28 -193 -24 0
-167 -28 -193 -108 0
-167 -28 -25 -192 0
-167 -28 -25 -24 0
-167 -28 -25 -108 0
-167 -28 -109 -192 0
-167 -28 -109 -24 0
-167 -28 -109 -108 0
-167 -112 -193 -24 0
-167 -112 -193 -108 0
-167 -112 -25 -24 0
-167 -112 -25 -108 0
-252 -196 -27 -194 0
-252 -196 -27 -26 0
-252 -196 -111 -194 0
-252 -196 -111 -26 0
-252 -28 -195 -194 0
-252 -28 -195 -26 0
-252 -28 -195 -110 0
-252 -28 -27 -194 0
-252 -28 -27 -26 0
-252 -28 -27 -110 0
-252 -28 -111 -194 0
-252 -28 -111 -26 0
-252 -112 -195 -194 0
-252 -112 -195 -26 0
-252 -112 -195 -110 0
-252 -112 -27 -194 0
-252 -112 -27 -26 0
-252 -112 -27 -110 0
-252 -112 -111 -194 0
-252 -112 -111 -26 0
-84 -196 -195 -26 0
-84 -196 -195 -110 0
-84 -196 -27 -194 0
-84 -196 -27 -26 0
-84 -196 -27 -110 0
-84 -196 -111 -194 0
-84 -196 -111 -26 0
-84 -196 -111 -110 0
-84 -28 -195 -194 0
-84 -28 -195 -26 0
-84 -28 -195 -110 0
-84 -28 -27 -194 0
-84 -28 -27 -26 0
-84 -28 -27 -110 0
-84 -28 -111 -194 0
-84 -28 -111 -26 0
-84 -28 -111 -110 0
-84 -112 -195 -194 0
-84 -112 -195 -26 0
-84 -112 -195 -110 0
-84 -112 -27 -194 0
-84 -112 -27 -26 0
-84 -112 -27 -110 0
-84 -112 -111 -194 0
-84 -112 -111 -26 0
-168 -196 -195 -26 0
-168 -196 -195 -110 0
-168 -196 -27 -194 0
-168 -196 -27 -26 0
-168 -196 -27 -110 0
-168 -196 -111 -194 0
-168 -196 -111 -26 0
-168 -196 -111 -110 0
-168 -28 -195 -26 0
-168 -28 -195 -110 0
-168 -28 -27 -194 0
-168 -28 -27 -26 0
-168 -28 -27 -110 0
-168 -28 -111 -194 0
-168 -28 -111 -26 0
-168 -28 -111 -110 0
-168 -112 -195 -26 0
-168 -112 -195 -110 0
-168 -112 -27 -26 0
-168 -112 -27 -110 0
-218 -203 -30 -197 0
-218 -203 -30 -29 0
-218 -203 -114 -197 0
-218 -203 -114 -29 0
-218 -35 -198 -197 0
-218 -35 -198 -29 0
-218 -35 -198 -113 0
-218 -35 -30 -197 0
-218 -35 -30 -29 0
-218 -35 -30 -113 0
-218 -35 -114 -197 0
-218 -35 -114 -29 0
-218 -119 -198 -197 0
-218 -119 -198 -29 0
-218 -119 -198 -113 0
-218 -119 -30 -197 0
-218 -119 -30 -29 0
-218 -119 -30 -113 0
-218 -119 -114 -197 0
-218 -119 -114 -29 0
-50 -203 -198 -29 0
-50 -203 -198 -113 0
-50 -203 -30 -197 0
-50 -203 -30 -29 0
-50 -203 -30 -113 0
-50 -203 -114 -197 0
-50 -203 -114 -29 0
-50 -203 -114 -113 0
-50 -35 -198 -197 0
-50 -35 -198 -29 0
-50 -35 -198 -113 0
-50 -35 -30 -197 0
-50 -35 -30 -29 0
-50 -35 -30 -113 0
-50 -35 -114 -197 0
-50 -35 -114 -29 0
-50 -35 -114 -113 0
-50 -119 -198 -197 0
-50 -119 -198 -29 0
-50 -119 -198 -113 0
-50 -119 -30 -197 0
-50 -119 -30 -29 0
-50 -119 -30 -113 0
-50 -119 -114 -197 0
-50 -119 -114 -29 0
-134 -203 -198 -29 0
-134 -203 -198 -113 0
-134 -203 -30 -197 0
-134 -203 -30 -29 0
-134 -203 -30 -113 0
-134 -203 -114 -197 0
-134 -203 -114 -29 0
-134 -203 -114 -113 0
-134 -35 -198 -29 0
-134 -35 -198 -113 0
-134 -35 -30 -197 0
-134 -35 -30 -29 0
-134 -35 -30 -113 0
-134 -35 -114 -197 0
-134 -35 -114 -29 0
-134 -35 -114 -113 0
-134 -119 -198 -29 0
-134 -119 -198 -113 0
-134 -119 -30 -29 0
-134 -119 -30 -113 0
-219 -204 -31 -197 0
-219 -204 -31 -29 0
-219 -204 -115 -197 0
-219 -204 -115 -29 0
-219 -36 -199 -197 0
-219 -36 -199 -29 0
-219 -36 -199 -113 0
-219 -36 -31 -197 0
-219 -36 -31 -29 0
-219 -36 -31 -113 0
-219 -36 -115 -197 0
-219 -36 -115 -29 0
-219 -120 -199 -197 0
-219 -120 -199 -29 0
-219 -120 -199 -113 0
-219 -120 -31 -197 0
-219 -120 -31 -29 0
-219 -120 -31 -113 0
-219 -120 -115 -197 0
-219 -120 -115 -29 0
-51 -204 -199 -29 0
-51 -204 -199 -113 0
-51 -204 -31 -197 0
-51 -204 -31 -29 0
-51 -204 -31 -113 0
-51 -204 -115 -197 0
-51 -204 -115 -29 0
-51 -204 -115 -113 0
-51 -36 -199 -197 0
-51 -36 -199 -29 0
-51 -36 -199 -113 0
-51 -36 -31 -197 0
-51 -36 -31 -29 0
-51 -36 -31 -113 0
-51 -36 -115 -197 0
-51 -36 -115 -29 0
-51 -36 -115 -113 0
-51 -120 -199 -197 0
-51 -120 -199 -29 0
-51 -120 -199 -113 0
-51 -120 -31 -197 0
-51 -120 -31 -29 0
-51 -120 -31 -113 0
-51 -120 -115 -197 0
-51 -120 -115 -29 0
-135 -204 -199 -29 0
-135 -204 -199 -113 0
-135 -204 -31 -197 0
-135 -204 -31 -29 0
-135 -204 -31 -113 0
-135 -204 -115 -197 0
-135 -204 -115 -29 0
-135 -204 -115 -113 0
-135 -36 -199 -29 0
-135 -36 -199 -113 0
-135 -36 -31 -197 0
-135 -36 -31 -29 0
-135 -36 -31 -113 0
-135 -36 -115 -197 0
-135 -36 -115 -29 0
-135 -36 -115 -113 0
-135 -120 -199 -29 0
-135 -120 -199 -113 0
-135 -120 -31 -29 0
-135 -120 -31 -113 0
-220 -205 -32 -197 0
-220 -205 -32 -29 0
-220 -205 -116 -197 0
-220 -205 -116 -29 0
-220 -37 -200 -197 0
-220 -37 -200 -29 0
-220 -37 -200 -113 0
-220 -37 -32 -197 0
-220 -37 -32 -29 0
-220 -37 -32 -113 0
-220 -37 -116 -197 0
-220 -37 -116 -29 0
-220 -121 -200 -197 0
-220 -121 -200 -29 0
-220 -121 -200 -113 0
-220 -121 -32 -197 0
-220 -121 -32 -29 0
-220 -121 -32 -113 0
-220 -121 -116 -197 0
-220 -121 -116 -29 0
-52 -205 -200 -29 0
-52 -205 -200 -113 0
-52 -205 -32 -197 0
-52 -205 -32 -29 0
-52 -205 -32 -113 0
-52 -205 -116 -197 0
-52 -205 -116 -29 0
-52 -205 -116 -113 0
-52 -37 -200 -197 0
-52 -37 -200 -29 0
-52 -37 -200 -113 0
-52 -37 -32 -197 0
-52 -37 -32 -29 0
-52 -37 -32 -113 0
-52 -37 -116 -197 0
-52 -37 -116 -29 0
-52 -37 -116 -113 0
-52 -121 -200 -197 0
-52 -121 -200 -29 0
-52 -121 -200 -113 0
-52 -121 -32 -197 0
-52 -121 -32 -29 0
-52 -121 -32 -113 0
-52 -121 -116 -197 0
-52 -121 -116 -29 0
-136 -205 -200 -29 0
-136 -205 -200 -113 0
-136 -205 -32 -197 0
-136 -205 -32 -29 0
-136 -205 -32 -113 0
-136 -205 -116 -197 0
-136 -205 -116 -29 0
-136 -205 -116 -113 0
-136 -37 -200 -29 0
-136 -37 -200 -113 0
-136 -37 -32 -197 0
-136 -37 -32 -29 0
-136 -37 -32 -113 0
-136 -37 -116 -197 0
-136 -37 -116 -29 0
-136 -37 -116 -113 0
-136 -121 -200 -29 0
-136 -121 -200 -113 0
-136 -121 -32 -29 0
-136 -121 -32 -113 0
-221 -206 -33 -197 0
-221 -206 -33 -29 0
-221 -206 -117 -197 0
-221 -206 -117 -29 0
-221 -38 -201 -197 0
-221 -38 -201 -29 0
-221 -38 -201 -113 0
-221 -38 -33 -197 0
-221 -38 -33 -29 0
-221 -38 -33 -113 0
-221 -38 -117 -197 0
-221 -38 -117 -29 0
-221 -122 -201 -197 0
-221 -122 -201 -29 0
-221 -122 -201 -113 0
-221 -122 -33 -197 0
-221 -122 -33 -29 0
-221 -122 -33 -113 0
-221 -122 -117 -197 0
-221 -122 -117 -29 0
-53 -206 -201 -29 0
-53 -206 -201 -113 0
-53 -206 -33 -197 0
-53 -206 -33 -29 0
-53 -206 -33 -113 0
-53 -206 -117 -197 0
-53 -206 -117 -29 0
-53 -206 -117 -113 0
-53 -38 -201 -197 0
-53 -38 -201 -29 0
-53 -38 -201 -113 0
-53 -38 -33 -197 0
-53 -38 -33 -29 0
-53 -38 -33 -113 0
-53 -38 -117 -197 0
-53 -38 -117 -29 0
-53 -38 -117 -113 0
-53 -122 -201 -197 0
-53 -122 -201 -29 0
-53 -122 -201 -113 0
-53 -122 -33 -197 0
-53 -122 -33 -29 0
-53 -122 -33 -113 0
-53 -122 -117 -197 0
-53 -122 -117 -29 0
-137 -206 -201 -29 0
-137 -206 -201 -113 0
-137 -206 -33 -197 0
-137 -206 -33 -29 0
-137 -206 -33 -113 0
-137 -206 -117 -197 0
-137 -206 -117 -29 0
-137 -206 -117 -113 0
-137 -38 -201 -29 0
-137 -38 -201 -113 0
-137 -38 -33 -197 0
-137 -38 -33 -29 0
-137 -38 -33 -113 0
-137 -38 -117 -197 0
-137 -38 -117 -29 0
-137 -38 -117 -113 0
-137 -122 -201 -29 0
-137 -122 -201 -113 0
-137 -122 -33 -29 0
-137 -122 -33 -113 0
-222 -207 -34 -197 0
-222 -207 -34 -29 0
-222 -207 -118 -197 0
-222 -207 -118 -29 0
-222 -39 -202 -197 0
-222 -39 -202 -29 0
-222 -39 -202 -113 0
-222 -39 -34 -197 0
-222 -39 -34 -29 0
-222 -39 -34 -113 0
-222 -39 -118 -197 0
-222 -39 -118 -29 0
-222 -123 -202 -197 0
-222 -123 -202 -29 0
-222 -123 -202 -113 0
-222 -123 -34 -197 0
-222 -123 -34 -29 0
-222 -123 -34 -113 0
-222 -123 -118 -197 0
-222 -123 -118 -29 0
-54 -207 -202 -29 0
-54 -207 -202 -113 0
-54 -207 -34 -197 0
-54 -207 -34 -29 0
-54 -207 -34 -113 0
-54 -207 -118 -197 0
-54 -207 -118 -29 0
-54 -207 -118 -113 0
-54 -39 -202 -197 0
-54 -39 -202 -29 0
-54 -39 -202 -113 0
-54 -39 -34 -197 0
-54 -39 -34 -29 0
-54 -39 -34 -113 0
-54 -39 -118 -197 0
-54 -39 -118 -29 0
-54 -39 -118 -113 0
-54 -123 -202 -197 0
-54 -123 -202 -29 0
-54 -123 -202 -113 0
-54 -123 -34 -197 0
-54 -123 -34 -29 0
-54 -123 -34 -113 0
-54 -123 -118 -197 0
-54 -123 -118 -29 0
-138 -207 -202 -29 0
-138 -207 -202 -113 0
-138 -207 -34 -197 0
-138 -207 -34 -29 0
-138 -207 -34 -113 0
-138 -207 -118 -197 0
-138 -207 -118 -29 0
-138 -207 -118 -113 0
-138 -39 -202 -29 0
-138 -39 -202 -113 0
-138 -39 -34 -197 0
-138 -39 -34 -29 0
-138 -39 -34 -113 0
-138 -39 -118 -197 0
-138 -39 -118 -29 0
-138 -39 -118 -113 0
-138 -123 -202 -29 0
-138 -123 -202 -113 0
-138 -123 -34 -29 0
-138 -123 -34 -113 0
-223 -208 -31 -198 0
-223 -208 -31 -30 0
-223 -208 -115 -198 0
-223 -208 -115 -30 0
-223 -40 -199 -198 0
-223 -40 -199 -30 0
-223 -40 -199 -114 0
-223 -40 -31 -198 0
-223 -40 -31 -30 0
-223 -40 -31 -114 0
-223 -40 -115 -198 0
-223 -40 -115 -30 0
-223 -124 -199 -198 0
-223 -124 -199 -30 0
-223 -124 -199 -114 0
-223 -124 -31 -198 0
-223 -124 -31 -30 0
-223 -124 -31 -114 0
-223 -124 -115 -198 0
-223 -124 -115 -30 0
-55 -208 -199 -30 0
-55 -208 -199 -114 0
-55 -208 -31 -198 0
-55 -208 -31 -30 0
-55 -208 -31 -114 0
-55 -208 -115 -198 0
-55 -208 -115 -30 0
-55 -208 -115 -114 0
-55 -40 -199 -198 0
-55 -40 -199 -30 0
-55 -40 -199 -114 0
-55 -40 -31 -198 0
-55 -40 -31 -30 0
-55 -40 -31 -114 0
-55 -40 -115 -198 0
-55 -40 -115 -30 0
-55 -40 -115 -114 0
-55 -124 -199 -198 0
-55 -124 -199 -30 0
-55 -124 -199 -114 0
-55 -124 -31 -198 0
-55 -124 -31 -30 0
-55 -124 -31 -114 0
-55 -124 -115 -198 0
-55 -124 -115 -30 0
-139 -208 -199 -30 0
-139 -208 -199 -114 0
-139 -208 -31 -198 0
-139 -208 -31 -30 0
-139 -208 -31 -114 0
-139 -208 -115 -198 0
-139 -208 -115 -30 0
-139 -208 -115 -114 0
-139 -40 -199 -30 0
-139 -40 -199 -114 0
-139 -40 -31 -198 0
-139 -40 -31 -30 0
-139 -40 -31 -114 0
-139 -40 -115 -198 0
-139 -40 -115 -30 0
-139 -40 -115 -114 0
-139 -124 -199 -30 0
-139 -124 -199 -114 0
-139 -124 -31 -30 0
-139 -124 -31 -114 0
-224 -209 -32 -198 0
-224 -209 -32 -30 0
-224 -209 -116 -198 0
-224 -209 -116 -30 0
-224 -41 -200 -198 0
-224 -41 -200 -30 0
-224 -41 -200 -114 0
-224 -41 -32 -198 0
-224 -41 -32 -30 0
-224 -41 -32 -114 0
-224 -41 -116 -198 0
-224 -41 -116 -30 0
-224 -125 -200 -198 0
-224 -125 -200 -30 0
-224 -125 -200 -114 0
-224 -125 -32 -198 0
-224 -125 -32 -30 0
-224 -125 -32 -114 0
-224 -125 -116 -198 0
-224 -125 -116 -30 0
-56 -209 -200 -30 0
-56 -209 -200 -114 0
-56 -209 -32 -198 0
-56 -209 -32 -30 0
-56 -209 -32 -114 0
-56 -209 -116 -198 0
-56 -209 -116 -30 0
-56 -209 -116 -114 0
-56 -41 -200 -198 0
-56 -41 -200 -30 0
-56 -41 -200 -114 0
-56 -41 -32 -198 0
-56 -41 -32 -30 0
-56 -41 -32 -114 0
-56 -41 -116 -198 0
-56 -41 -116 -30 0
-56 -41 -116 -114 0
-56 -125 -200 -198 0
-56 -125 -200 -30 0
-56 -125 -200 -114 0
-56 -125 -32 -198 0
-56 -125 -32 -30 0
-56 -125 -32 -114 0
-56 -125 -116 -198 0
-56 -125 -116 -30 0
-140 -209 -200 -30 0
-140 -209 -200 -114 0
-140 -209 -32 -198 0
-140 -209 -32 -30 0
-140 -209 -32 -114 0
-140 -209 -116 -198 0
-140 -209 -116 -30 0
-140 -209 -116 -114 0
-140 -41 -200 -30 0
-140 -41 -200 -114 0
-140 -41 -32 -198 0
-140 -41 -32 -30 0
-140 -41 -32 -114 0
-140 -41 -116 -198 0
-140 -41 -116 -30 0
-140 -41 -116 -114 0
-140 -125 -200 -30 0
-140 -125 -200 -114 0
-140 -125 -32 -30 0
-140 -125 -32 -114 0
-225 -210 -33 -198 0
-225 -210 -33 -30 0
-225 -210 -117 -198 0
-225 -210 -117 -30 0
-225 -42 -201 -198 0
-225 -42 -201 -30 0
-225 -42 -201 -114 0
-225 -42 -33 -198 0
-225 -42 -33 -30 0
-225 -42 -33 -114 0
-225 -42 -117 -198 0
-225 -42 -117 -30 0
-225 -126 -201 -198 0
-225 -126 -201 -30 0
-225 -126 -201 -114 0
-225 -126 -33 -198 0
-225 -126 -33 -30 0
-225 -126 -33 -114 0
-225 -126 -117 -198 0
-225 -126 -117 -30 0
-57 -210 -201 -30 0
-57 -210 -201 -114 0
-57 -210 -33 -198 0
-57 -210 -33 -30 0
-57 -210 -33 -114 0
-57 -210 -117 -198 0
-57 -210 -117 -30 0
-57 -210 -117 -114 0
-57 -42 -201 -198 0
-57 -42 -201 -30 0
-57 -42 -201 -114 0
-57 -42 -33 -198 0
-57 -42 -33 -30 0
-57 -42 -33 -114 0
-57 -42 -117 -198 0
-57 -42 -117 -30 0
-57 -42 -117 -114 0
-57 -126 -201 -198 0
-57 -126 -201 -30 0
-57 -126 -201 -114 0
-57 -126 -33 -198 0
-57 -126 -33 -30 0
-57 -126 -33 -114 0
-57 -126 -117 -198 0
-57 -126 -117 -30 0
-141 -210 -201 -30 0
-141 -210 -201 -114 0
-141 -210 -33 -198 0
-141 -210 -33 -30 0
-141 -210 -33 -114 0
-141 -210 -117 -198 0
-141 -210 -117 -30 0
-141 -210 -117 -114 0
-141 -42 -201 -30 0
-141 -42 -201 -114 0
-141 -42 -33 -198 0
-141 -42 -33 -30 0
-141 -42 -33 -114 0
-141 -42 -117 -198 0
-141 -42 -117 -30 0
-141 -42 -117 -114 0
-141 -126 -201 -30 0
-141 -126 -201 -114 0
-141 -126 -33 -30 0
-141 -126 -33 -114 0
-226 -211 -34 -198 0
-226 -211 -34 -30 0
-226 -211 -118 -198 0
-226 -211 -118 -30 0
-226 -43 -202 -198 0
-226 -43 -202 -30 0
-226 -43 -202 -114 0
-226 -43 -34 -198 0
-226 -43 -34 -30 0
-226 -43 -34 -114 0
-226 -43 -118 -198 0
-226 -43 -118 -30 0
-226 -127 -202 -198 0
-226 -127 -202 -30 0
-226 -127 -202 -114 0
-226 -127 -34 -198 0
-226 -127 -34 -30 0
-226 -127 -34 -114 0
-226 -127 -118 -198 0
-226 -127 -118 -30 0
-58 -211 -202 -30 0
-58 -211 -202 -114 0
-58 -211 -34 -198 0
-58 -211 -34 -30 0
-58 -211 -34 -114 0
-58 -211 -118 -198 0
-58 -211 -118 -30 0
-58 -211 -118 -114 0
-58 -43 -202 -198 0
-58 -43 -202 -30 0
-58 -43 -202 -114 0
-58 -43 -34 -198 0
-58 -43 -34 -30 0
-58 -43 -34 -114 0
-58 -43 -118 -198 0
-58 -43 -118 -30 0
-58 -43 -118 -114 0
-58 -127 -202 -198 0
-58 -127 -202 -30 0
-58 -127 -202 -114 0
-58 -127 -34 -198 0
-58 -127 -34 -30 0
-58 -127 -34 -114 0
-58 -127 -118 -198 0
-58 -127 -118 -30 0
-142 -211 -202 -30 0
-142 -211 -202 -114 0
-142 -211 -34 -198 0
-142 -211 -34 -30 0
-142 -211 -34 -114 0
-142 -211 -118 -198 0
-142 -211 -118 -30 0
-142 -211 -118 -114 0
-142 -43 -202 -30 0
-142 -43 -202 -114 0
-142 -43 -34 -198 0
-142 -43 -34 -30 0
-142 -43 -34 -114 0
-142 -43 -118 -198 0
-142 -43 -118 -30 0
-142 -43 -118 -114 0
-142 -127 -202 -30 0
-142 -127 -202 -114 0
-142 -127 -34 -30 0
-142 -127 -34 -114 0
-227 -212 -32 -199 0
-227 -212 -32 -31 0
-227 -212 -116 -199 0
-227 -212 -116 -31 0
-227 -44 -200 -199 0
-227 -44 -200 -31 0
-227 -44 -200 -115 0
-227 -44 -32 -199 0
-227 -44 -32 -31 0
-227 -44 -32 -115 0
-227 -44 -116 -199 0
-227 -44 -116 -31 0
-227 -128 -200 -199 0
-227 -128 -200 -31 0
-227 -128 -200 -115 0
-227 -128 -32 -199 0
-227 -128 -32 -31 0
-227 -128 -32 -115 0
-227 -128 -116 -199 0
-227 -128 -116 -31 0
-59 -212 -200 -31 0
-59 -212 -200 -115 0
-59 -212 -32 -199 0
-59 -212 -32 -31 0
-59 -212 -32 -115 0
-59 -212 -116 -199 0
-59 -212 -116 -31 0
-59 -212 -116 -115 0
-59 -44 -200 -199 0
-59 -44 -200 -31 0
-59 -44 -200 -115 0
-59 -44 -32 -199 0
-59 -44 -32 -31 0
-59 -44 -32 -115 0
-59 -44 -116 -199 0
-59 -44 -116 -31 0
-59 -44 -116 -115 0
-59 -128 -200 -199 0
-59 -128 -200 -31 0
-59 -128 -200 -115 0
-59 -128 -32 -199 0
-59 -128 -32 -31 0
-59 -128 -32 -115 0
-59 -128 -116 -199 0
-59 -128 -116 -31 0
-143 -212 -200 -31 0
-143 -212 -200 -115 0
-143 -212 -32 -199 0
-143 -212 -32 -31 0
-143 -212 -32 -115 0
-143 -212 -116 -199 0
-143 -212 -116 -31 0
-143 -212 -116 -115 0
-143 -44 -200 -31 0
-143 -44 -200 -115 0
-143 -44 -32 -199 0
-143 -44 -32 -31 0
-143 -44 -32 -115 0
-143 -44 -116 -199 0
-143 -44 -116 -31 0
-143 -44 -116 -115 0
-143 -128 -200 -31 0
-143 -128 -200 -115 0
-143 -128 -32 -31 0
-143 -128 -32 -115 0
-228 -213 -33 -199 0
-228 -213 -33 -31 0
-228 -213 -117 -199 0
-228 -213 -117 -31 0
-228 -45 -201 -199 0
-228 -45 -201 -31 0
-228 -45 -201 -115 0
-228 -45 -33 -199 0
-228 -45 -33 -31 0
-228 -45 -33 -115 0
-228 -45 -117 -199 0
-228 -45 -117 -31 0
-228 -129 -201 -199 0
-228 -129 -201 -31 0
-228 -129 -201 -115 0
-228 -129 -33 -199 0
-228 -129 -33 -31 0
-228 -129 -33 -115 0
-228 -129 -117 -199 0
-228 -129 -117 -31 0
-60 -213 -201 -31 0
-60 -213 -201 -115 0
-60 -213 -33 -199 0
-60 -213 -33 -31 0
-60 -213 -33 -115 0
-60 -213 -117 -199 0
-60 -213 -117 -31 0
-60 -213 -117 -115 0
-60 -45 -201 -199 0
-60 -45 -201 -31 0
-60 -45 -201 -115 0
-60 -45 -33 -199 0
-60 -45 -33 -31 0
-60 -45 -33 -115 0
-60 -45 -117 -199 0
-60 -45 -117 -31 0
-60 -45 -117 -115 0
-60 -129 -201 -199 0
-60 -129 -201 -31 0
-60 -129 -201 -115 0
-60 -129 -33 -199 0
-60 -129 -33 -31 0
-60 -129 -33 -115 0
-60 -129 -117 -199 0
-60 -129 -117 -31 0
-144 -213 -201 -31 0
-144 -213 -201 -115 0
-144 -213 -33 -199 0
-144 -213 -33 -31 0
-144 -213 -33 -115 0
-144 -213 -117 -199 0
-144 -213 -117 -31 0
-144 -213 -117 -115 0
-144 -45 -201 -31 0
-144 -45 -201 -115 0
-144 -45 -33 -199 0
-144 -45 -33 -31 0
-144 -45 -33 -115 0
-144 -45 -117 -199 0
-144 -45 -117 -31 0
-144 -45 -117 -115 0
-144 -129 -201 -31 0
-144 -129 -201 -115 0
-144 -129 -33 -31 0
-144 -129 -33 -115 0
-229 -214 -34 -199 0
-229 -214 -34 -31 0
-229 -214 -118 -199 0
-229 -214 -118 -31 0
-229 -46 -202 -199 0
-229 -46 -202 -31 0
-229 -46 -202 -115 0
-229 -46 -34 -199 0
-229 -46 -34 -31 0
-229 -46 -34 -115 0
-229 -46 -118 -199 0
-229 -46 -118 -31 0
-229 -130 -202 -199 0
-229 -130 -202 -31 0
-229 -130 -202 -115 0
-229 -130 -34 -199 0
-229 -130 -34 -31 0
-229 -130 -34 -115 0
-229 -130 -118 -199 0
-229 -130 -118 -31 0
-61 -214 -202 -31 0
-61 -214 -202 -115 0
-61 -214 -34 -199 0
-61 -214 -34 -31 0
-61 -214 -34 -115 0
-61 -214 -118 -199 0
-61 -214 -118 -31 0
-61 -214 -118 -115 0
-61 -46 -202 -199 0
-61 -46 -202 -31 0
-61 -46 -202 -115 0
-61 -46 -34 -199 0
-61 -46 -34 -31 0
-61 -46 -34 -115 0
-61 -46 -118 -199 0
-61 -46 -118 -31 0
-61 -46 -118 -115 0
-61 -130 -202 -199 0
-61 -130 -202 -31 0
-61 -130 -202 -115 0
-61 -130 -34 -199 0
-61 -130 -34 -31 0
-61 -130 -34 -115 0
-61 -130 -118 -199 0
-61 -130 -118 -31 0
-145 -214 -202 -31 0
-145 -214 -202 -115 0
-145 -214 -34 -199 0
-145 -214 -34 -31 0
-145 -214 -34 -115 0
-145 -214 -118 -199 0
-145 -214 -118 -31 0
-145 -214 -118 -115 0
-145 -46 -202 -31 0
-145 -46 -202 -115 0
-145 -46 -34 -199 0
-145 -46 -34 -31 0
-145 -46 -34 -115 0
-145 -46 -118 -199 0
-145 -46 -118 -31 0
-145 -46 -118 -115 0
-145 -130 -202 -31 0
-145 -130 -202 -115 0
-145 -130 -34 -31 0
-145 -130 -34 -115 0
-230 -215 -33 -200 0
-230 -215 -33 -32 0
-230 -215 -117 -200 0
-230 -215 -117 -32 0
-230 -47 -201 -200 0
-230 -47 -201 -32 0
-230 -47 -201 -116 0
-230 -47 -33 -200 0
-230 -47 -33 -32 0
-230 -47 -33 -116 0
-230 -47 -117 -200 0
-230 -47 -117 -32 0
-230 -131 -201 -200 0
-230 -131 -201 -32 0
-230 -131 -201 -116 0
-230 -131 -33 -200 0
-230 -131 -33 -32 0
-230 -131 -33 -116 0
-230 -131 -117 -200 0
-230 -131 -117 -32 0
-62 -215 -201 -32 0
-62 -215 -201 -116 0
-62 -215 -33 -200 0
-62 -215 -33 -32 0
-62 -215 -33 -116 0
-62 -215 -117 -200 0
-62 -215 -117 -32 0
-62 -215 -117 -116 0
-62 -47 -201 -200 0
-62 -47 -201 -32 0
-62 -47 -201 -116 0
-62 -47 -33 -200 0
-62 -47 -33 -32 0
-62 -47 -33 -116 0
-62 -47 -117 -200 0
-62 -47 -117 -32 0
-62 -47 -117 -116 0
-62 -131 -201 -200 0
-62 -131 -201 -32 0
-62 -131 -201 -116 0
-62 -131 -33 -200 0
-62 -131 -33 -32 0
-62 -131 -33 -116 0
-62 -131 -117 -200 0
-62 -131 -117 -32 0
-146 -215 -201 -32 0
-146 -215 -201 -116 0
-146 -215 -33 -200 0
-146 -215 -33 -32 0
-146 -215 -33 -116 0
-146 -215 -117 -200 0
-146 -215 -117 -32 0
-146 -215 -117 -116 0
-146 -47 -201 -32 0
-146 -47 -201 -116 0
-146 -47 -33 -200 0
-146 -47 -33 -32 0
-146 -47 -33 -116 0
-146 -47 -117 -200 0
-146 -47 -117 -32 0
-146 -47 -117 -116 0
-146 -131 -201 -32 0
-146 -131 -201 -116 0
-146 -131 -33 -32 0
-146 -131 -33 -116 0
-231 -216 -34 -200 0
-231 -216 -34 -32 0
-231 -216 -118 -200 0
-231 -216 -118 -32 0
-231 -48 -202 -200 0
-231 -48 -202 -32 0
-231 -48 -202 -116 0
-231 -48 -34 -200 0
-231 -48 -34 -32 0
-231 -48 -34 -116 0
-231 -48 -118 -200 0
-231 -48 -118 -32 0
-231 -132 -202 -200 0
-231 -132 -202 -32 0
-231 -132 -202 -116 0
-231 -132 -34 -200 0
-231 -132 -34 -32 0
-231 -132 -34 -116 0
-231 -132 -118 -200 0
-231 -132 -118 -32 0
-63 -216 -202 -32 0
-63 -216 -202 -116 0
-63 -216 -34 -200 0
-63 -216 -34 -32 0
-63 -216 -34 -116 0
-63 -216 -118 -200 0
-63 -216 -118 -32 0
-63 -216 -118 -116 0
-63 -48 -202 -200 0
-63 -48 -202 -32 0
-63 -48 -202 -116 0
-63 -48 -34 -200 0
-63 -48 -34 -32 0
-63 -48 -34 -116 0
-63 -48 -118 -200 0
-63 -48 -118 -32 0
-63 -48 -118 -116 0
-63 -132 -202 -200 0
-63 -132 -202 -32 0
-63 -132 -202 -116 0
-63 -132 -34 -200 0
-63 -132 -34 -32 0
-63 -132 -34 -116 0
-63 -132 -118 -200 0
-63 -132 -118 -32 0
-147 -216 -202 -32 0
-147 -216 -202 -116 0
-147 -216 -34 -200 0
-147 -216 -34 -32 0
-147 -216 -34 -116 0
-147 -216 -118 -200 0
-147 -216 -118 -32 0
-147 -216 -118 -116 0
-147 -48 -202 -32 0
-147 -48 -202 -116 0
-147 -48 -34 -200 0
-147 -48 -34 -32 0
-147 -48 -34 -116 0
-147 -48 -118 -200 0
-147 -48 -118 -32 0
-147 -48 -118 -116 0
-147 -132 -202 -32 0
-147 -132 -202 -116 0
-147 -132 -34 -32 0
-147 -132 -34 -116 0
-232 -217 -34 -201 0
-232 -217 -34 -33 0
-232 -217 -118 -201 0
-232 -217 -118 -33 0
-232 -49 -202 -201 0
-232 -49 -202 -33 0
-232 -49 -202 -117 0
-232 -49 -34 -201 0
-232 -49 -34 -33 0
-232 -49 -34 -117 0
-232 -49 -118 -201 0
-232 -49 -118 -33 0
-232 -133 -202 -201 0
-232 -133 -202 -33 0
-232 -133 -202 -117 0
-232 -133 -34 -201 0
-232 -133 -34 -33 0
-232 -133 -34 -117 0
-232 -133 -118 -201 0
-232 -133 -118 -33 0
-64 -217 -202 -33 0
-64 -217 -202 -117 0
-64 -217 -34 -201 0
-64 -217 -34 -33 0
-64 -217 -34 -117 0
-64 -217 -118 -201 0
-64 -217 -118 -33 0
-64 -217 -118 -117 0
-64 -49 -202 -201 0
-64 -49 -202 -33 0
-64 -49 -202 -117 0
-64 -49 -34 -201 0
-64 -49 -34 -33 0
-64 -49 -34 -117 0
-64 -49 -118 -201 0
-64 -49 -118 -33 0
-64 -49 -118 -117 0
-64 -133 -202 -201 0
-64 -133 -202 -33 0
-64 -133 -202 -117 0
-64 -133 -34 -201 0
-64 -133 -34 -33 0
-64 -133 -34 -117 0
-64 -133 -118 -201 0
-64 -133 -118 -33 0
-148 -217 -202 -33 0
-148 -217 -202 -117 0
-148 -217 -34 -201 0
-148 -217 -34 -33 0
-148 -217 -34 -117 0
-148 -217 -118 -201 0
-148 -217 -118 -33 0
-148 -217 -118 -117 0
-148 -49 -202 -33 0
-148 -49 -202 -117 0
-148 -49 -34 -201 0
-148 -49 -34 -33 0
-148 -49 -34 -117 0
-148 -49 -118 -201 0
-148 -49 -118 -33 0
-148 -49 -118 -117 0
-148 -133 -202 -33 0
-148 -133 -202 -117 0
-148 -133 -34 -33 0
-148 -133 -34 -117 0
-233 -208 -36 -203 0
-233 -208 -36 -35 0
-233 -208 -120 -203 0
-233 -208 -120 -35 0
-233 -40 -204 -203 0
-233 -40 -204 -35 0
-233 -40 -204 -119 0
-233 -40 -36 -203 0
-233 -40 -36 -35 0
-233 -40 -36 -119 0
-233 -40 -120 -203 0
-233 -40 -120 -35 0
-233 -124 -204 -203 0
-233 -124 -204 -35 0
-233 -124 -204 -119 0
-233 -124 -36 -203 0
-233 -124 -36 -35 0
-233 -124 -36 -119 0
-233 -124 -120 -203 0
-233 -124 -120 -35 0
-65 -208 -204 -35 0
-65 -208 -204 -119 0
-65 -208 -36 -203 0
-65 -208 -36 -35 0
-65 -208 -36 -119 0
-65 -208 -120 -203 0
-65 -208 -120 -35 0
-65 -208 -120 -119 0
-65 -40 -204 -203 0
-65 -40 -204 -35 0
-65 -40 -204 -119 0
-65 -40 -36 -203 0
-65 -40 -36 -35 0
-65 -40 -36 -119 0
-65 -40 -120 -203 0
-65 -40 -120 -35 0
-65 -40 -120 -119 0
-65 -124 -204 -203 0
-65 -124 -204 -35 0
-65 -124 -204 -119 0
-65 -124 -36 -203 0
-65 -124 -36 -35 0
-65 -124 -36 -119 0
-65 -124 -120 -203 0
-65 -124 -120 -35 0
-149 -208 -204 -35 0
-149 -208 -204 -119 0
-149 -208 -36 -203 0
-149 -208 -36 -35 0
-149 -208 -36 -119 0
-149 -208 -120 -203 0
-149 -208 -120 -35 0
-149 -208 -120 -119 0
-149 -40 -204 -35 0
-149 -40 -204 -119 0
-149 -40 -36 -203 0
-149 -40 -36 -35 0
-149 -40 -36 -119 0
-149 -40 -120 -203 0
-149 -40 -120 -35 0
-149 -40 -120 -119 0
-149 -124 -204 -35 0
-149 -124 -204 -119 0
-149 -124 -36 -35 0
-149 -124 -36 -119 0
-234 -209 -37 -203 0
-234 -209 -37 -35 0
-234 -209 -121 -203 0
-234 -209 -121 -35 0
-234 -41 -205 -203 0
-234 -41 -205 -35 0
-234 -41 -205 -119 0
-234 -41 -37 -203 0
-234 -41 -37 -35 0
-234 -41 -37 -119 0
-234 -41 -121 -203 0
-234 -41 -121 -35 0
-234 -125 -205 -203 0
-234 -125 -205 -35 0
-234 -125 -205 -119 0
-234 -125 -37 -203 0
-234 -125 -37 -35 0
-234 -125 -37 -119 0
-234 -125 -121 -203 0
-234 -125 -121 -35 0
-66 -209 -205 -35 0
-66 -209 -205 -119 0
-66 -209 -37 -203 0
-66 -209 -37 -35 0
-66 -209 -37 -119 0
-66 -209 -121 -203 0
-66 -209 -121 -35 0
-66 -209 -121 -119 0
-66 -41 -205 -203 0
-66 -41 -205 -35 0
-66 -41 -205 -119 0
-66 -41 -37 -203 0
-66 -41 -37 -35 0
-66 -41 -37 -119 0
-66 -41 -121 -203 0
-66 -41 -121 -35 0
-66 -41 -121 -119 0
-66 -125 -205 -203 0
-66 -125 -205 -35 0
-66 -125 -205 -119 0
-66 -125 -37 -203 0
-66 -125 -37 -35 0
-66 -125 -37 -119 0
-66 -125 -121 -203 0
-66 -125 -121 -35 0
-150 -209 -205 -35 0
-150 -209 -205 -119 0
-150 -209 -37 -203 0
-150 -209 -37 -35 0
-150 -209 -37 -119 0
-150 -209 -121 -203 0
-150 -209 -121 -35 0
-150 -209 -121 -119 0
-150 -41 -205 -35 0
-150 -41 -205 -119 0
-150 -41 -37 -203 0
-150 -41 -37 -35 0
-150 -41 -37 -119 0
-150 -41 -121 -203 0
-150 -41 -121 -35 0
-150 -41 -121 -119 0
-150 -125 -205 -35 0
-150 -125 -205 -119 0
-150 -125 -37 -35 0
-150 -125 -37 -119 0
-235 -210 -38 -203 0
-235 -210 -38 -35 0
-235 -210 -122 -203 0
-235 -210 -122 -35 0
-235 -42 -206 -203 0
-235 -42 -206 -35 0
-235 -42 -206 -119 0
-235 -42 -38 -203 0
-235 -42 -38 -35 0
-235 -42 -38 -119 0
-235 -42 -122 -203 0
-235 -42 -122 -35 0
-235 -126 -206 -203 0
-235 -126 -206 -35 0
-235 -126 -206 -119 0
-235 -126 -38 -203 0
-235 -126 -38 -35 0
-235 -126 -38 -119 0
-235 -126 -122 -203 0
-235 -126 -122 -35 0
-67 -210 -206 -35 0
-67 -210 -206 -119 0
-67 -210 -38 -203 0
-67 -210 -38 -35 0
-67 -210 -38 -119 0
-67 -210 -122 -203 0
-67 -210 -122 -35 0
-67 -210 -122 -119 0
-67 -42 -206 -203 0
-67 -42 -206 -35 0
-67 -42 -206 -119 0
-67 -42 -38 -203 0
-67 -42 -38 -35 0
-67 -42 -38 -119 0
-67 -42 -122 -203 0
-67 -42 -122 -35 0
-67 -42 -122 -119 0
-67 -126 -206 -203 0
-67 -126 -206 -35 0
-67 -126 -206 -119 0
-67 -126 -38 -203 0
-67 -126 -38 -35 0
-67 -126 -38 -119 0
-67 -126 -122 -203 0
-67 -126 -122 -35 0
-151 -210 -206 -35 0
-151 -210 -206 -119 0
-151 -210 -38 -203 0
-151 -210 -38 -35 0
-151 -210 -38 -119 0
-151 -210 -122 -203 0
-151 -210 -122 -35 0
-151 -210 -122 -119 0
-151 -42 -206 -35 0
-151 -42 -206 -119 0
-151 -42 -38 -203 0
-151 -42 -38 -35 0
-151 -42 -38 -119 0
-151 -42 -122 -203 0
-151 -42 -122 -35 0
-151 -42 -122 -119 0
-151 -126 -206 -35 0
-151 -126 -206 -119 0
-151 -126 -38 -35 0
-151 -126 -38 -119 0
-236 -211 -39 -203 0
-236 -211 -39 -35 0
-236 -211 -123 -203 0
-236 -211 -123 -35 0
-236 -43 -207 -203 0
-236 -43 -207 -35 0
-236 -43 -207 -119 0
-236 -43 -39 -203 0
-236 -43 -39 -35 0
-236 -43 -39 -119 0
-236 -43 -123 -203 0
-236 -43 -123 -35 0
-236 -127 -207 -203 0
-236 -127 -207 -35 0
-236 -127 -207 -119 0
-236 -127 -39 -203 0
-236 -127 -39 -35 0
-236 -127 -39 -119 0
-236 -127 -123 -203 0
-236 -127 -123 -35 0
-68 -211 -207 -35 0
-68 -211 -207 -119 0
-68 -211 -39 -203 0
-68 -211 -39 -35 0
-68 -211 -39 -119 0
-68 -211 -123 -203 0
-68 -211 -123 -35 0
-68 -211 -123 -119 0
-68 -43 -207 -203 0
-68 -43 -207 -35 0
-68 -43 -207 -119 0
-68 -43 -39 -203 0
-68 -43 -39 -35 0
-68 -43 -39 -119 0
-68 -43 -123 -203 0
-68 -43 -123 -35 0
-68 -43 -123 -119 0
-68 -127 -207 -203 0
-68 -127 -207 -35 0
-68 -127 -207 -119 0
-68 -127 -39 -203 0
-68 -127 -39 -35 0
-68 -127 -39 -119 0
-68 -127 -123 -203 0
-68 -127 -123 -35 0
-152 -211 -207 -35 0
-152 -211 -207 -119 0
-152 -211 -39 -203 0
-152 -211 -39 -35 0
-152 -211 -39 -119 0
-152 -211 -123 -203 0
-152 -211 -123 -35 0
-152 -211 -123 -119 0
-152 -43 -207 -35 0
-152 -43 -207 -119 0
-152 -43 -39 -203 0
-152 -43 -39 -35 0
-152 -43 -39 -119 0
-152 -43 -123 -203 0
-152 -43 -123 -35 0
-152 -43 -123 -119 0
-152 -127 -207 -35 0
-152 -127 -207 -119 0
-152 -127 -39 -35 0
-152 -127 -39 -119 0
-237 -212 -37 -204 0
-237 -212 -37 -36 0
-237 -212 -121 -204 0
-237 -212 -121 -36 0
-237 -44 -205 -204 0
-237 -44 -205 -36 0
-237 -44 -205 -120 0
-237 -44 -37 -204 0
-237 -44 -37 -36 0
-237 -44 -37 -120 0
-237 -44 -121 -204 0
-237 -44 -121 -36 0
-237 -128 -205 -204 0
-237 -128 -205 -36 0
-237 -128 -205 -120 0
-237 -128 -37 -204 0
-237 -128 -37 -36 0
-237 -128 -37 -120 0
-237 -128 -121 -204 0
-237 -128 -121 -36 0
-69 -212 -205 -36 0
-69 -212 -205 -120 0
-69 -212 -37 -204 0
-69 -212 -37 -36 0
-69 -212 -37 -120 0
-69 -212 -121 -204 0
-69 -212 -121 -36 0
-69 -212 -121 -120 0
-69 -44 -205 -204 0
-69 -44 -205 -36 0
-69 -44 -205 -120 0
-69 -44 -37 -204 0
-69 -44 -37 -36 0
-69 -44 -37 -120 0
-69 -44 -121 -204 0
-69 -44 -121 -36 0
-69 -44 -121 -120 0
-69 -128 -205 -204 0
-69 -128 -205 -36 0
-69 -128 -205 -120 0
-69 -128 -37 -204 0
-69 -128 -37 -36 0
-69 -128 -37 -120 0
-69 -128 -121 -204 0
-69 -128 -121 -36 0
-153 -212 -205 -36 0
-153 -212 -205 -120 0
-153 -212 -37 -204 0
-153 -212 -37 -36 0
-153 -212 -37 -120 0
-153 -212 -121 -204 0
-153 -212 -121 -36 0
-153 -212 -121 -120 0
-153 -44 -205 -36 0
-153 -44 -205 -120 0
-153 -44 -37 -204 0
-153 -44 -37 -36 0
-153 -44 -37 -120 0
-153 -44 -121 -204 0
-153 -44 -121 -36 0
-153 -44 -121 -120 0
-153 -128 -205 -36 0
-153 -128 -205 -120 0
-153 -128 -37 -36 0
-153 -128 -37 -120 0
-238 -213 -38 -204 0
-238 -213 -38 -36 0
-238 -213 -122 -204 0
-238 -213 -122 -36 0
-238 -45 -206 -204 0
-238 -45 -206 -36 0
-238 -45 -206 -120 0
-238 -45 -38 -204 0
-238 -45 -38 -36 0
-238 -45 -38 -120 0
-238 -45 -122 -204 0
-238 -45 -122 -36 0
-238 -129 -206 -204 0
-238 -129 -206 -36 0
-238 -129 -206 -120 0
-238 -129 -38 -204 0
-238 -129 -38 -36 0
-238 -129 -38 -120 0
-238 -129 -122 -204 0
-238 -129 -122 -36 0
-70 -213 -206 -36 0
-70 -213 -206 -120 0
-70 -213 -38 -204 0
-70 -213 -38 -36 0
-70 -213 -38 -120 0
-70 -213 -122 -204 0
-70 -213 -122 -36 0
-70 -213 -122 -120 0
-70 -45 -206 -204 0
-70 -45 -206 -36 0
-70 -45 -206 -120 0
-70 -45 -38 -204 0
-70 -45 -38 -36 0
-70 -45 -38 -120 0
-70 -45 -122 -204 0
-70 -45 -122 -36 0
-70 -45 -122 -120 0
-70 -129 -206 -204 0
-70 -129 -206 -36 0
-70 -129 -206 -120 0
-70 -129 -38 -204 0
-70 -129 -38 -36 0
-70 -129 -38 -120 0
-70 -129 -122 -204 0
-70 -129 -122 -36 0
-154 -213 -206 -36 0
-154 -213 -206 -120 0
-154 -213 -38 -204 0
-154 -213 -38 -36 0
-154 -213 -38 -120 0
-154 -213 -122 -204 0
-154 -213 -122 -36 0
-154 -213 -122 -120 0
-154 -45 -206 -36 0
-154 -45 -206 -120 0
-154 -45 -38 -204 0
-154 -45 -38 -36 0
-154 -45 -38 -120 0
-154 -45 -122 -204 0
-154 -45 -122 -36 0
-154 -45 -122 -120 0
-154 -129 -206 -36 0
-154 -129 -206 -120 0
-154 -129 -38 -36 0
-154 -129 -38 -120 0
-239 -214 -39 -204 0
-239 -214 -39 -36 0
-239 -214 -123 -204 0
-239 -214 -123 -36 0
-239 -46 -207 -204 0
-239 -46 -207 -36 0
-239 -46 -207 -120 0
-239 -46 -39 -204 0
-239 -46 -39 -36 0
-239 -46 -39 -120 0
-239 -46 -123 -204 0
-239 -46 -123 -36 0
-239 -130 -207 -204 0
-239 -130 -207 -36 0
-239 -130 -207 -120 0
-239 -130 -39 -204 0
-239 -130 -39 -36 0
-239 -130 -39 -120 0
-239 -130 -123 -204 0
-239 -130 -123 -36 0
-71 -214 -207 -36 0
-71 -214 -207 -120 0
-71 -214 -39 -204 0
-71 -214 -39 -36 0
-71 -214 -39 -120 0
-71 -214 -123 -204 0
-71 -214 -123 -36 0
-71 -214 -123 -120 0
-71 -46 -207 -204 0
-71 -46 -207 -36 0
-71 -46 -207 -120 0
-71 -46 -39 -204 0
-71 -46 -39 -36 0
-71 -46 -39 -120 0
-71 -46 -123 -204 0
-71 -46 -123 -36 0
-71 -46 -123 -120 0
-71 -130 -207 -204 0
-71 -130 -207 -36 0
-71 -130 -207 -120 0
-71 -130 -39 -204 0
-71 -130 -39 -36 0
-71 -130 -39 -120 0
-71 -130 -123 -204 0
-71 -130 -123 -36 0
-155 -214 -207 -36 0
-155 -214 -207 -120 0
-155 -214 -39 -204 0
-155 -214 -39 -36 0
-155 -214 -39 -120 0
-155 -214 -123 -204 0
-155 -214 -123 -36 0
-155 -214 -123 -120 0
-155 -46 -207 -36 0
-155 -46 -207 -120 0
-155 -46 -39 -204 0
-155 -46 -39 -36 0
-155 -46 -39 -120 0
-155 -46 -123 -204 0
-155 -46 -123 -36 0
-155 -46 -123 -120 0
-155 -130 -207 -36 0
-155 -130 -207 -120 0
-155 -130 -39 -36 0
-155 -130 -39 -120 0
-240 -215 -38 -205 0
-240 -215 -38 -37 0
-240 -215 -122 -205 0
-240 -215 -122 -37 0
-240 -47 -206 -205 0
-240 -47 -206 -37 0
-240 -47 -206 -121 0
-240 -47 -38 -205 0
-240 -47 -38 -37 0
-240 -47 -38 -121 0
-240 -47 -122 -205 0
-240 -47 -122 -37 0
-240 -131 -206 -205 0
-240 -131 -206 -37 0
-240 -131 -206 -121 0
-240 -131 -38 -205 0
-240 -131 -38 -37 0
-240 -131 -38 -121 0
-240 -131 -122 -205 0
-240 -131 -122 -37 0
-72 -215 -206 -37 0
-72 -215 -206 -121 0
-72 -215 -38 -205 0
-72 -215 -38 -37 0
-72 -215 -38 -121 0
-72 -215 -122 -205 0
-72 -215 -122 -37 0
-72 -215 -122 -121 0
-72 -47 -206 -205 0
-72 -47 -206 -37 0
-72 -47 -206 -121 0
-72 -47 -38 -205 0
-72 -47 -38 -37 0
-72 -47 -38 -121 0
-72 -47 -122 -205 0
-72 -47 -122 -37 0
-72 -47 -122 -121 0
-72 -131 -206 -205 0
-72 -131 -206 -37 0
-72 -131 -206 -121 0
-72 -131 -38 -205 0
-72 -131 -38 -37 0
-72 -131 -38 -121 0
-72 -131 -122 -205 0
-72 -131 -122 -37 0
-156 -215 -206 -37 0
-156 -215 -206 -121 0
-156 -215 -38 -205 0
-156 -215 -38 -37 0
-156 -215 -38 -121 0
-156 -215 -122 -205 0
-156 -215 -122 -37 0
-156 -215 -122 -121 0
-156 -47 -206 -37 0
-156 -47 -206 -121 0
-156 -47 -38 -205 0
-156 -47 -38 -37 0
-156 -47 -38 -121 0
-156 -47 -122 -205 0
-156 -47 -122 -37 0
-156 -47 -122 -121 0
-156 -131 -206 -37 0
-156 -131 -206 -121 0
-156 -131 -38 -37 0
-156 -131 -38 -121 0
-241 -216 -39 -205 0
-241 -216 -39 -37 0
-241 -216 -123 -205 0
-241 -216 -123 -37 0
-241 -48 -207 -205 0
-241 -48 -207 -37 0
-241 -48 -207 -121 0
-241 -48 -39 -205 0
-241 -48 -39 -37 0
-241 -48 -39 -121 0
-241 -48 -123 -205 0
-241 -48 -123 -37 0
-241 -132 -207 -205 0
-241 -132 -207 -37 0
-241 -132 -207 -121 0
-241 -132 -39 -205 0
-241 -132 -39 -37 0
-241 -132 -39 -121 0
-241 -132 -123 -205 0
-241 -132 -123 -37 0
-73 -216 -207 -37 0
-73 -216 -207 -121 0
-73 -216 -39 -205 0
-73 -216 -39 -37 0
-73 -216 -39 -121 0
-73 -216 -123 -205 0
-73 -216 -123 -37 0
-73 -216 -123 -121 0
-73 -48 -207 -205 0
-73 -48 -207 -37 0
-73 -48 -207 -121 0
-73 -48 -39 -205 0
-73 -48 -39 -37 0
-73 -48 -39 -121 0
-73 -48 -123 -205 0
-73 -48 -123 -37 0
-73 -48 -123 -121 0
-73 -132 -207 -205 0
-73 -132 -207 -37 0
-73 -132 -207 -121 0
-73 -132 -39 -205 0
-73 -132 -39 -37 0
-73 -132 -39 -121 0
-73 -132 -123 -205 0
-73 -132 -123 -37 0
-157 -216 -207 -37 0
-157 -216 -207 -121 0
-157 -216 -39 -205 0
-157 -216 -39 -37 0
-157 -216 -39 -121 0
-157 -216 -123 -205 0
-157 -216 -123 -37 0
-157 -216 -123 -121 0
-157 -48 -207 -37 0
-157 -48 -207 -121 0
-157 -48 -39 -205 0
-157 -48 -39 -37 0
-157 -48 -39 -121 0
-157 -48 -123 -205 0
-157 -48 -123 -37 0
-157 -48 -123 -121 0
-157 -132 -207 -37 0
-157 -132 -207 -121 0
-157 -132 -39 -37 0
-157 -132 -39 -121 0
-242 -217 -39 -206 0
-242 -217 -39 -38 0
-242 -217 -123 -206 0
-242 -217 -123 -38 0
-242 -49 -207 -206 0
-242 -49 -207 -38 0
-242 -49 -207 -122 0
-242 -49 -39 -206 0
-242 -49 -39 -38 0
-242 -49 -39 -122 0
-242 -49 -123 -206 0
-242 -49 -123 -38 0
-242 -133 -207 -206 0
-242 -133 -207 -38 0
-242 -133 -207 -122 0
-242 -133 -39 -206 0
-242 -133 -39 -38 0
-242 -133 -39 -122 0
-242 -133 -123 -206 0
-242 -133 -123 -38 0
-74 -217 -207 -38 0
-74 -217 -207 -122 0
-74 -217 -39 -206 0
-74 -217 -39 -38 0
-74 -217 -39 -122 0
-74 -217 -123 -206 0
-74 -217 -123 -38 0
-74 -217 -123 -122 0
-74 -49 -207 -206 0
-74 -49 -207 -38 0
-74 -49 -207 -122 0
-74 -49 -39 -206 0
-74 -49 -39 -38 0
-74 -49 -39 -122 0
-74 -49 -123 -206 0
-74 -49 -123 -38 0
-74 -49 -123 -122 0
-74 -133 -207 -206 0
-74 -133 -207 -38 0
-74 -133 -207 -122 0
-74 -133 -39 -206 0
-74 -133 -39 -38 0
-74 -133 -39 -122 0
-74 -133 -123 -206 0
-74 -133 -123 -38 0
-158 -217 -207 -38 0
-158 -217 -207 -122 0
-158 -217 -39 -206 0
-158 -217 -39 -38 0
-158 -217 -39 -122 0
-158 -217 -123 -206 0
-158 -217 -123 -38 0
-158 -217 -123 -122 0
-158 -49 -207 -38 0
-158 -49 -207 -122 0
-158 -49 -39 -206 0
-158 -49 -39 -38 0
-158 -49 -39 -122 0
-158 -49 -123 -206 0
-158 -49 -123 -38 0
-158 -49 -123 -122 0
-158 -133 -207 -38 0
-158 -133 -207 -122 0
-158 -133 -39 -38 0
-158 -133 -39 -122 0
-243 -212 -41 -208 0
-243 -212 -41 -40 0
-243 -212 -125 -208 0
-243 -212 -125 -40 0
-243 -44 -209 -208 0
-243 -44 -209 -40 0
-243 -44 -209 -124 0
-243 -44 -41 -208 0
-243 -44 -41 -40 0
-243 -44 -41 -124 0
-243 -44 -125 -208 0
-243 -44 -125 -40 0
-243 -128 -209 -208 0
-243 -128 -209 -40 0
-243 -128 -209 -124 0
-243 -128 -41 -208 0
-243 -128 -41 -40 0
-243 -128 -41 -124 0
-243 -128 -125 -208 0
-243 -128 -125 -40 0
-75 -212 -209 -40 0
-75 -212 -209 -124 0
-75 -212 -41 -208 0
-75 -212 -41 -40 0
-75 -212 -41 -124 0
-75 -212 -125 -208 0
-75 -212 -125 -40 0
-75 -212 -125 -124 0
-75 -44 -209 -208 0
-75 -44 -209 -40 0
-75 -44 -209 -124 0
-75 -44 -41 -208 0
-75 -44 -41 -40 0
-75 -44 -41 -124 0
-75 -44 -125 -208 0
-75 -44 -125 -40 0
-75 -44 -125 -124 0
-75 -128 -209 -208 0
-75 -128 -209 -40 0
-75 -128 -209 -124 0
-75 -128 -41 -208 0
-75 -128 -41 -40 0
-75 -128 -41 -124 0
-75 -128 -125 -208 0
-75 -128 -125 -40 0
-159 -212 -209 -40 0
-159 -212 -209 -124 0
-159 -212 -41 -208 0
-159 -212 -41 -40 0
-159 -212 -41 -124 0
-159 -212 -125 -208 0
-159 -212 -125 -40 0
-159 -212 -125 -124 0
-159 -44 -209 -40 0
-159 -44 -209 -124 0
-159 -44 -41 -208 0
-159 -44 -41 -40 0
-159 -44 -41 -124 0
-159 -44 -125 -208 0
-159 -44 -125 -40 0
-159 -44 -125 -124 0
-159 -128 -209 -40 0
-159 -128 -209 -124 0
-159 -128 -41 -40 0
-159 -128 -41 -124 0
-244 -213 -42 -208 0
-244 -213 -42 -40 0
-244 -213 -126 -208 0
-244 -213 -126 -40 0
-244 -45 -210 -208 0
-244 -45 -210 -40 0
-244 -45 -210 -124 0
-244 -45 -42 -208 0
-244 -45 -42 -40 0
-244 -45 -42 -124 0
-244 -45 -126 -208 0
-244 -45 -126 -40 0
-244 -129 -210 -208 0
-244 -129 -210 -40 0
-244 -129 -210 -124 0
-244 -129 -42 -208 0
-244 -129 -42 -40 0
-244 -129 -42 -124 0
-244 -129 -126 -208 0
-244 -129 -126 -40 0
-76 -213 -210 -40 0
-76 -213 -210 -124 0
-76 -213 -42 -208 0
-76 -213 -42 -40 0
-76 -213 -42 -124 0
-76 -213 -126 -208 0
-76 -213 -126 -40 0
-76 -213 -126 -124 0
-76 -45 -210 -208 0
-76 -45 -210 -40 0
-76 -45 -210 -124 0
-76 -45 -42 -208 0
-76 -45 -42 -40 0
-76 -45 -42 -124 0
-76 -45 -126 -208 0
-76 -45 -126 -40 0
-76 -45 -126 -124 0
-76 -129 -210 -208 0
-76 -129 -210 -40 0
-76 -129 -210 -124 0
-76 -129 -42 -208 0
-76 -129 -42 -40 0
-76 -129 -42 -124 0
-76 -129 -126 -208 0
-76 -129 -126 -40 0
-160 -213 -210 -40 0
-160 -213 -210 -124 0
-160 -213 -42 -208 0
-160 -213 -42 -40 0
-160 -213 -42 -124 0
-160 -213 -126 -208 0
-160 -213 -126 -40 0
-160 -213 -126 -124 0
-160 -45 -210 -40 0
-160 -45 -210 -124 0
-160 -45 -42 -208 0
-160 -45 -42 -40 0
-160 -45 -42 -124 0
-160 -45 -126 -208 0
-160 -45 -126 -40 0
-160 -45 -126 -124 0
-160 -129 -210 -40 0
-160 -129 -210 -124 0
-160 -129 -42 -40 0
-160 -129 -42 -124 0
-245 -214 -43 -208 0
-245 -214 -43 -40 0
-245 -214 -127 -208 0
-245 -214 -127 -40 0
-245 -46 -211 -208 0
-245 -46 -211 -40 0
-245 -46 -211 -124 0
-245 -46 -43 -208 0
-245 -46 -43 -40 0
-245 -46 -43 -124 0
-245 -46 -127 -208 0
-245 -46 -127 -40 0
-245 -130 -211 -208 0
-245 -130 -211 -40 0
-245 -130 -211 -124 0
-245 -130 -43 -208 0
-245 -130 -43 -40 0
-245 -130 -43 -124 0
-245 -130 -127 -208 0
-245 -130 -127 -40 0
-77 -214 -211 -40 0
-77 -214 -211 -124 0
-77 -214 -43 -208 0
-77 -214 -43 -40 0
-77 -214 -43 -124 0
-77 -214 -127 -208 0
-77 -214 -127 -40 0
-77 -214 -127 -124 0
-77 -46 -211 -208 0
-77 -46 -211 -40 0
-77 -46 -211 -124 0
-77 -46 -43 -208 0
-77 -46 -43 -40 0
-77 -46 -43 -124 0
-77 -46 -127 -208 0
-77 -46 -127 -40 0
-77 -46 -127 -124 0
-77 -130 -211 -208 0
-77 -130 -211 -40 0
-77 -130 -211 -124 0
-77 -130 -43 -208 0
-77 -130 -43 -40 0
-77 -130 -43 -124 0
-77 -130 -127 -208 0
-77 -130 -127 -40 0
-161 -214 -211 -40 0
-161 -214 -211 -124 0
-161 -214 -43 -208 0
-161 -214 -43 -40 0
-161 -214 -43 -124 0
-161 -214 -127 -208 0
-161 -214 -127 -40 0
-161 -214 -127 -124 0
-161 -46 -211 -40 0
-161 -46 -211 -124 0
-161 -46 -43 -208 0
-161 -46 -43 -40 0
-161 -46 -43 -124 0
-161 -46 -127 -208 0
-161 -46 -127 -40 0
-161 -46 -127 -124 0
-161 -130 -211 -40 0
-161 -130 -211 -124 0
-161 -130 -43 -40 0
-161 -130 -43 -124 0
-246 -215 -42 -209 0
-246 -215 -42 -41 0
-246 -215 -126 -209 0
-246 -215 -126 -41 0
-246 -47 -210 -209 0
-246 -47 -210 -41 0
-246 -47 -210 -125 0
-246 -47 -42 -209 0
-246 -47 -42 -41 0
-246 -47 -42 -125 0
-246 -47 -126 -209 0
-246 -47 -126 -41 0
-246 -131 -210 -209 0
-246 -131 -210 -41 0
-246 -131 -210 -125 0
-246 -131 -42 -209 0
-246 -131 -42 -41 0
-246 -131 -42 -125 0
-246 -131 -126 -209 0
-246 -131 -126 -41 0
-78 -215 -210 -41 0
-78 -215 -210 -125 0
-78 -215 -42 -209 0
-78 -215 -42 -41 0
-78 -215 -42 -125 0
-78 -215 -126 -209 0
-78 -215 -126 -41 0
-78 -215 -126 -125 0
-78 -47 -210 -209 0
-78 -47 -210 -41 0
-78 -47 -210 -125 0
-78 -47 -42 -209 0
-78 -47 -42 -41 0
-78 -47 -42 -125 0
-78 -47 -126 -209 0
-78 -47 -126 -41 0
-78 -47 -126 -125 0
-78 -131 -210 -209 0
-78 -131 -210 -41 0
-78 -131 -210 -125 0
-78 -131 -42 -209 0
-78 -131 -42 -41 0
-78 -131 -42 -125 0
-78 -131 -126 -209 0
-78 -131 -126 -41 0
-162 -215 -210 -41 0
-162 -215 -210 -125 0
-162 -215 -42 -209 0
-162 -215 -42 -41 0
-162 -215 -42 -125 0
-162 -215 -126 -209 0
-162 -215 -126 -41 0
-162 -215 -126 -125 0
-162 -47 -210 -41 0
-162 -47 -210 -125 0
-162 -47 -42 -209 0
-162 -47 -42 -41 0
-162 -47 -42 -125 0
-162 -47 -126 -209 0
-162 -47 -126 -41 0
-162 -47 -126 -125 0
-162 -131 -210 -41 0
-162 -131 -210 -125 0
-162 -131 -42 -41 0
-162 -131 -42 -125 0
-247 -216 -43 -209 0
-247 -216 -43 -41 0
-247 -216 -127 -209 0
-247 -216 -127 -41 0
-247 -48 -211 -209 0
-247 -48 -211 -41 0
-247 -48 -211 -125 0
-247 -48 -43 -209 0
-247 -48 -43 -41 0
-247 -48 -43 -125 0
-247 -48 -127 -209 0
-247 -48 -127 -41 0
-247 -132 -211 -209 0
-247 -132 -211 -41 0
-247 -132 -211 -125 0
-247 -132 -43 -209 0
-247 -132 -43 -41 0
-247 -132 -43 -125 0
-247 -132 -127 -209 0
-247 -132 -127 -41 0
-79 -216 -211 -41 0
-79 -216 -211 -125 0
-79 -216 -43 -209 0
-79 -216 -43 -41 0
-79 -216 -43 -125 0
-79 -216 -127 -209 0
-79 -216 -127 -41 0
-79 -216 -127 -125 0
-79 -48 -211 -209 0
-79 -48 -211 -41 0
-79 -48 -211 -125 0
-79 -48 -43 -209 0
-79 -48 -43 -41 0
-79 -48 -43 -125 0
-79 -48 -127 -209 0
-79 -48 -127 -41 0
-79 -48 -127 -125 0
-79 -132 -211 -209 0
-79 -132 -211 -41 0
-79 -132 -211 -125 0
-79 -132 -43 -209 0
-79 -132 -43 -41 0
-79 -132 -43 -125 0
-79 -132 -127 -209 0
-79 -132 -127 -41 0
-163 -216 -211 -41 0
-163 -216 -211 -125 0
-163 -216 -43 -209 0
-163 -216 -43 -41 0
-163 -216 -43 -125 0
-163 -216 -127 -209 0
-163 -216 -127 -41 0
-163 -216 -127 -125 0
-163 -48 -211 -41 0
-163 -48 -211 -125 0
-163 -48 -43 -209 0
-163 -48 -43 -41 0
-163 -48 -43 -125 0
-163 -48 -127 -209 0
-163 -48 -127 -41 0
-163 -48 -127 -125 0
-163 -132 -211 -41 0
-163 -132 -211 -125 0
-163 -132 -43 -41 0
-163 -132 -43 -125 0
-248 -217 -43 -210 0
-248 -217 -43 -42 0
-248 -217 -127 -210 0
-248 -217 -127 -42 0
-248 -49 -211 -210 0
-248 -49 -211 -42 0
-248 -49 -211 -126 0
-248 -49 -43 -210 0
-248 -49 -43 -42 0
-248 -49 -43 -126 0
-248 -49 -127 -210 0
-248 -49 -127 -42 0
-248 -133 -211 -210 0
-248 -133 -211 -42 0
-248 -133 -211 -126 0
-248 -133 -43 -210 0
-248 -133 -43 -42 0
-248 -133 -43 -126 0
-248 -133 -127 -210 0
-248 -133 -127 -42 0
-80 -217 -211 -42 0
-80 -217 -211 -126 0
-80 -217 -43 -210 0
-80 -217 -43 -42 0
-80 -217 -43 -126 0
-80 -217 -127 -210 0
-80 -217 -127 -42 0
-80 -217 -127 -126 0
-80 -49 -211 -210 0
-80 -49 -211 -42 0
-80 -49 -211 -126 0
-80 -49 -43 -210 0
-80 -49 -43 -42 0
-80 -49 -43 -126 0
-80 -49 -127 -210 0
-80 -49 -127 -42 0
-80 -49 -127 -126 0
-80 -133 -211 -210 0
-80 -133 -211 -42 0
-80 -133 -211 -126 0
-80 -133 -43 -210 0
-80 -133 -43 -42 0
-80 -133 -43 -126 0
-80 -133 -127 -210 0
-80 -133 -127 -42 0
-164 -217 -211 -42 0
-164 -217 -211 -126 0
-164 -217 -43 -210 0
-164 -217 -43 -42 0
-164 -217 -43 -126 0
-164 -217 -127 -210 0
-164 -217 -127 -42 0
-164 -217 -127 -126 0
-164 -49 -211 -42 0
-164 -49 -211 -126 0
-164 -49 -43 -210 0
-164 -49 -43 -42 0
-164 -49 -43 -126 0
-164 -49 -127 -210 0
-164 -49 -127 -42 0
-164 -49 -127 -126 0
-164 -133 -211 -42 0
-164 -133 -211 -126 0
-164 -133 -43 -42 0
-164 -133 -43 -126 0
-249 -215 -45 -212 0
-249 -215 -45 -44 0
-249 -215 -129 -212 0
-249 -215 -129 -44 0
-249 -47 -213 -212 0
-249 -47 -213 -44 0
-249 -47 -213 -128 0
-249 -47 -45 -212 0
-249 -47 -45 -44 0
-249 -47 -45 -128 0
-249 -47 -129 -212 0
-249 -47 -129 -44 0
-249 -131 -213 -212 0
-249 -131 -213 -44 0
-249 -131 -213 -128 0
-249 -131 -45 -212 0
-249 -131 -45 -44 0
-249 -131 -45 -128 0
-249 -131 -129 -212 0
-249 -131 -129 -44 0
-81 -215 -213 -44 0
-81 -215 -213 -128 0
-81 -215 -45 -212 0
-81 -215 -45 -44 0
-81 -215 -45 -128 0
-81 -215 -129 -212 0
-81 -215 -129 -44 0
-81 -215 -129 -128 0
-81 -47 -213 -212 0
-81 -47 -213 -44 0
-81 -47 -213 -128 0
-81 -47 -45 -212 0
-81 -47 -45 -44 0
-81 -47 -45 -128 0
-81 -47 -129 -212 0
-81 -47 -129 -44 0
-81 -47 -129 -128 0
-81 -131 -213 -212 0
-81 -131 -213 -44 0
-81 -131 -213 -128 0
-81 -131 -45 -212 0
-81 -131 -45 -44 0
-81 -131 -45 -128 0
-81 -131 -129 -212 0
-81 -131 -129 -44 0
-165 -215 -213 -44 0
-165 -215 -213 -128 0
-165 -215 -45 -212 0
-165 -215 -45 -44 0
-165 -215 -45 -128 0
-165 -215 -129 -212 0
-165 -215 -129 -44 0
-165 -215 -129 -128 0
-165 -47 -213 -44 0
-165 -47 -213 -128 0
-165 -47 -45 -212 0
-165 -47 -45 -44 0
-165 -47 -45 -128 0
-165 -47 -129 -212 0
-165 -47 -129 -44 0
-165 -47 -129 -128 0
-165 -131 -213 -44 0
-165 -131 -213 -128 0
-165 -131 -45 -44 0
-165 -131 -45 -128 0
-250 -216 -46 -212 0
-250 -216 -46 -44 0
-250 -216 -130 -212 0
-250 -216 -130 -44 0
-250 -48 -214 -212 0
-250 -48 -214 -44 0
-250 -48 -214 -128 0
-250 -48 -46 -212 0
-250 -48 -46 -44 0
-250 -48 -46 -128 0
-250 -48 -130 -212 0
-250 -48 -130 -44 0
-250 -132 -214 -212 0
-250 -132 -214 -44 0
-250 -132 -214 -128 0
-250 -132 -46 -212 0
-250 -132 -46 -44 0
-250 -132 -46 -128 0
-250 -132 -130 -212 0
-250 -132 -130 -44 0
-82 -216 -214 -44 0
-82 -216 -214 -128 0
-82 -216 -46 -212 0
-82 -216 -46 -44 0
-82 -216 -46 -128 0
-82 -216 -130 -212 0
-82 -216 -130 -44 0
-82 -216 -130 -128 0
-82 -48 -214 -212 0
-82 -48 -214 -44 0
-82 -48 -214 -128 0
-82 -48 -46 -212 0
-82 -48 -46 -44 0
-82 -48 -46 -128 0
-82 -48 -130 -212 0
-82 -48 -130 -44 0
-82 -48 -130 -128 0
-82 -132 -214 -212 0
-82 -132 -214 -44 0
-82 -132 -214 -128 0
-82 -132 -46 -212 0
-82 -132 -46 -44 0
-82 -132 -46 -128 0
-82 -132 -130 -212 0
-82 -132 -130 -44 0
-166 -216 -214 -44 0
-166 -216 -214 -128 0
-166 -216 -46 -212 0
-166 -216 -46 -44 0
-166 -216 -46 -128 0
-166 -216 -130 -212 0
-166 -216 -130 -44 0
-166 -216 -130 -128 0
-166 -48 -214 -44 0
-166 -48 -214 -128 0
-166 -48 -46 -212 0
-166 -48 -46 -44 0
-166 -48 -46 -128 0
-166 -48 -130 -212 0
-166 -48 -130 -44 0
-166 -48 -130 -128 0
-166 -132 -214 -44 0
-166 -132 -214 -128 0
-166 -132 -46 -44 0
-166 -132 -46 -128 0
-251 -217 -46 -213 0
-251 -217 -46 -45 0
-251 -217 -130 -213 0
-251 -217 -130 -45 0
-251 -49 -214 -213 0
-251 -49 -214 -45 0
-251 -49 -214 -129 0
-251 -49 -46 -213 0
-251 -49 -46 -45 0
-251 -49 -46 -129 0
-251 -49 -130 -213 0
-251 -49 -130 -45 0
-251 -133 -214 -213 0
-251 -133 -214 -45 0
-251 -133 -214 -129 0
-251 -133 -46 -213 0
-251 -133 -46 -45 0
-251 -133 -46 -129 0
-251 -133 -130 -213 0
-251 -133 -130 -45 0
-83 -217 -214 -45 0
-83 -217 -214 -129 0
-83 -217 -46 -213 0
-83 -217 -46 -45 0
-83 -217 -46 -129 0
-83 -217 -130 -213 0
-83 -217 -130 -45 0
-83 -217 -130 -129 0
-83 -49 -214 -213 0
-83 -49 -214 -45 0
-83 -49 -214 -129 0
-83 -49 -46 -213 0
-83 -49 -46 -45 0
-83 -49 -46 -129 0
-83 -49 -130 -213 0
-83 -49 -130 -45 0
-83 -49 -130 -129 0
-83 -133 -214 -213 0
-83 -133 -214 -45 0
-83 -133 -214 -129 0
-83 -133 -46 -213 0
-83 -133 -46 -45 0
-83 -133 -46 -129 0
-83 -133 -130 -213 0
-83 -133 -130 -45 0
-167 -217 -214 -45 0
-167 -217 -214 -129 0
-167 -217 -46 -213 0
-167 -217 -46 -45 0
-167 -217 -46 -129 0
-167 -217 -130 -213 0
-167 -217 -130 -45 0
-167 -217 -130 -129 0
-167 -49 -214 -45 0
-167 -49 -214 -129 0
-167 -49 -46 -213 0
-167 -49 -46 -45 0
-167 -49 -46 -129 0
-167 -49 -130 -213 0
-167 -49 -130 -45 0
-167 -49 -130 -129 0
-167 -133 -214 -45 0
-167 -133 -214 -129 0
-167 -133 -46 -45 0
-167 -133 -46 -129 0
-252 -217 -48 -215 0
-252 -217 -48 -47 0
-252 -217 -132 -215 0
-252 -217 -132 -47 0
-252 -49 -216 -215 0
-252 -49 -216 -47 0
-252 -49 -216 -131 0
-252 -49 -48 -215 0
-252 -49 -48 -47 0
-252 -49 -48 -131 0
-252 -49 -132 -215 0
-252 -49 -132 -47 0
-252 -133 -216 -215 0
-252 -133 -216 -47 0
-252 -133 -216 -131 0
-252 -133 -48 -215 0
-252 -133 -48 -47 0
-252 -133 -48 -131 0
-252 -133 -132 -215 0
-252 -133 -132 -47 0
-84 -217 -216 -47 0
-84 -217 -216 -131 0
-84 -217 -48 -215 0
-84 -217 -48 -47 0
-84 -217 -48 -131 0
-84 -217 -132 -215 0
-84 -217 -132 -47 0
-84 -217 -132 -131 0
-84 -49 -216 -215 0
-84 -49 -216 -47 0
-84 -49 -216 -131 0
-84 -49 -48 -215 0
-84 -49 -48 -47 0
-84 -49 -48 -131 0
-84 -49 -132 -215 0
-84 -49 -132 -47 0
-84 -49 -132 -131 0
-84 -133 -216 -215 0
-84 -133 -216 -47 0
-84 -133 -216 -131 0
-84 -133 -48 -215 0
-84 -133 -48 -47 0
-84 -133 -48 -131 0
-84 -133 -132 -215 0
-84 -133 -132 -47 0
-168 -217 -216 -47 0
-168 -217 -216 -131 0
-168 -217 -48 -215 0
-168 -217 -48 -47 0
-168 -217 -48 -131 0
-168 -217 -132 -215 0
-168 -217 -132 -47 0
-168 -217 -132 -131 0
-168 -49 -216 -47 0
-168 -49 -216 -131 0
-168 -49 -48 -215 0
-168 -49 -48 -47 0
-168 -49 -48 -131 0
-168 -49 -132 -215 0
-168 -49 -132 -47 0
-168 -49 -132 -131 0
-168 -133 -216 -47 0
-168 -133 -216 -131 0
-168 -133 -48 -47 0
-168 -133 -48 -131 0
-233 -223 -51 -218 0
-233 -223 -51 -50 0
-233 -223 -135 -218 0
-233 -223 -135 -50 0
-233 -55 -219 -218 0
-233 -55 -219 -50 0
-233 -55 -219 -134 0
-233 -55 -51 -218 0
-233 -55 -51 -50 0
-233 -55 -51 -134 0
-233 -55 -135 -218 0
-233 -55 -135 -50 0
-233 -139 -219 -218 0
-233 -139 -219 -50 0
-233 -139 -219 -134 0
-233 -139 -51 -218 0
-233 -139 -51 -50 0
-233 -139 -51 -134 0
-233 -139 -135 -218 0
-233 -139 -135 -50 0
-65 -223 -219 -50 0
-65 -223 -219 -134 0
-65 -223 -51 -218 0
-65 -223 -51 -50 0
-65 -223 -51 -134 0
-65 -223 -135 -218 0
-65 -223 -135 -50 0
-65 -223 -135 -134 0
-65 -55 -219 -218 0
-65 -55 -219 -50 0
-65 -55 -219 -134 0
-65 -55 -51 -218 0
-65 -55 -51 -50 0
-65 -55 -51 -134 0
-65 -55 -135 -218 0
-65 -55 -135 -50 0
-65 -55 -135 -134 0
-65 -139 -219 -218 0
-65 -139 -219 -50 0
-65 -139 -219 -134 0
-65 -139 -51 -218 0
-65 -139 -51 -50 0
-65 -139 -51 -134 0
-65 -139 -135 -218 0
-65 -139 -135 -50 0
-149 -223 -219 -50 0
-149 -223 -219 -134 0
-149 -223 -51 -218 0
-149 -223 -51 -50 0
-149 -223 -51 -134 0
-149 -223 -135 -218 0
-149 -223 -135 -50 0
-149 -223 -135 -134 0
-149 -55 -219 -50 0
-149 -55 -219 -134 0
-149 -55 -51 -218 0
-149 -55 -51 -50 0
-149 -55 -51 -134 0
-149 -55 -135 -218 0
-149 -55 -135 -50 0
-149 -55 -135 -134 0
-149 -139 -219 -50 0
-149 -139 -219 -134 0
-149 -139 -51 -50 0
-149 -139 -51 -134 0
-234 -224 -52 -218 0
-234 -224 -52 -50 0
-234 -224 -136 -218 0
-234 -224 -136 -50 0
-234 -56 -220 -218 0
-234 -56 -220 -50 0
-234 -56 -220 -134 0
-234 -56 -52 -218 0
-234 -56 -52 -50 0
-234 -56 -52 -134 0
-234 -56 -136 -218 0
-234 -56 -136 -50 0
-234 -140 -220 -218 0
-234 -140 -220 -50 0
-234 -140 -220 -134 0
-234 -140 -52 -218 0
-234 -140 -52 -50 0
-234 -140 -52 -134 0
-234 -140 -136 -218 0
-234 -140 -136 -50 0
-66 -224 -220 -50 0
-66 -224 -220 -134 0
-66 -224 -52 -218 0
-66 -224 -52 -50 0
-66 -224 -52 -134 0
-66 -224 -136 -218 0
-66 -224 -136 -50 0
-66 -224 -136 -134 0
-66 -56 -220 -218 0
-66 -56 -220 -50 0
-66 -56 -220 -134 0
-66 -56 -52 -218 0
-66 -56 -52 -50 0
-66 -56 -52 -134 0
-66 -56 -136 -218 0
-66 -56 -136 -50 0
-66 -56 -136 -134 0
-66 -140 -220 -218 0
-66 -140 -220 -50 0
-66 -140 -220 -134 0
-66 -140 -52 -218 0
-66 -140 -52 -50 0
-66 -140 -52 -134 0
-66 -140 -136 -218 0
-66 -140 -136 -50 0
-150 -224 -220 -50 0
-150 -224 -220 -134 0
-150 -224 -52 -218 0
-150 -224 -52 -50 0
-150 -224 -52 -134 0
-150 -224 -136 -218 0
-150 -224 -136 -50 0
-150 -224 -136 -134 0
-150 -56 -220 -50 0
-150 -56 -220 -134 0
-150 -56 -52 -218 0
-150 -56 -52 -50 0
-150 -56 -52 -134 0
-150 -56 -136 -218 0
-150 -56 -136 -50 0
-150 -56 -136 -134 0
-150 -140 -220 -50 0
-150 -140 -220 -134 0
-150 -140 -52 -50 0
-150 -140 -52 -134 0
-235 -225 -53 -218 0
-235 -225 -53 -50 0
-235 -225 -137 -218 0
-235 -225 -137 -50 0
-235 -57 -221 -218 0
-235 -57 -221 -50 0
-235 -57 -221 -134 0
-235 -57 -53 -218 0
-235 -57 -53 -50 0
-235 -57 -53 -134 0
-235 -57 -137 -218 0
-235 -57 -137 -50 0
-235 -141 -221 -218 0
-235 -141 -221 -50 0
-235 -141 -221 -134 0
-235 -141 -53 -218 0
-235 -141 -53 -50 0
-235 -141 -53 -134 0
-235 -141 -137 -218 0
-235 -141 -137 -50 0
-67 -225 -221 -50 0
-67 -225 -221 -134 0
-67 -225 -53 -218 0
-67 -225 -53 -50 0
-67 -225 -53 -134 0
-67 -225 -137 -218 0
-67 -225 -137 -50 0
-67 -225 -137 -134 0
-67 -57 -221 -218 0
-67 -57 -221 -50 0
-67 -57 -221 -134 0
-67 -57 -53 -218 0
-67 -57 -53 -50 0
-67 -57 -53 -134 0
-67 -57 -137 -218 0
-67 -57 -137 -50 0
-67 -57 -137 -134 0
-67 -141 -221 -218 0
-67 -141 -221 -50 0
-67 -141 -221 -134 0
-67 -141 -53 -218 0
-67 -141 -53 -50 0
-67 -141 -53 -134 0
-67 -141 -137 -218 0
-67 -141 -137 -50 0
-151 -225 -221 -50 0
-151 -225 -221 -134 0
-151 -225 -53 -218 0
-151 -225 -53 -50 0
-151 -225 -53 -134 0
-151 -225 -137 -218 0
-151 -225 -137 -50 0
-151 -225 -137 -134 0
-151 -57 -221 -50 0
-151 -57 -221 -134 0
-151 -57 -53 -218 0
-151 -57 -53 -50 0
-151 -57 -53 -134 0
-151 -57 -137 -218 0
-151 -57 -137 -50 0
-151 -57 -137 -134 0
-151 -141 -221 -50 0
-151 -141 -221 -134 0
-151 -141 -53 -50 0
-151 -141 -53 -134 0
-236 -226 -54 -218 0
-236 -226 -54 -50 0
-236 -226 -138 -218 0
-236 -226 -138 -50 0
-236 -58 -222 -218 0
-236 -58 -222 -50 0
-236 -58 -222 -134 0
-236 -58 -54 -218 0
-236 -58 -54 -50 0
-236 -58 -54 -134 0
-236 -58 -138 -218 0
-236 -58 -138 -50 0
-236 -142 -222 -218 0
-236 -142 -222 -50 0
-236 -142 -222 -134 0
-236 -142 -54 -218 0
-236 -142 -54 -50 0
-236 -142 -54 -134 0
-236 -142 -138 -218 0
-236 -142 -138 -50 0
-68 -226 -222 -50 0
-68 -226 -222 -134 0
-68 -226 -54 -218 0
-68 -226 -54 -50 0
-68 -226 -54 -134 0
-68 -226 -138 -218 0
-68 -226 -138 -50 0
-68 -226 -138 -134 0
-68 -58 -222 -218 0
-68 -58 -222 -50 0
-68 -58 -222 -134 0
-68 -58 -54 -218 0
-68 -58 -54 -50 0
-68 -58 -54 -134 0
-68 -58 -138 -218 0
-68 -58 -138 -50 0
-68 -58 -138 -134 0
-68 -142 -222 -218 0
-68 -142 -222 -50 0
-68 -142 -222 -134 0
-68 -142 -54 -218 0
-68 -142 -54 -50 0
-68 -142 -54 -134 0
-68 -142 -138 -218 0
-68 -142 -138 -50 0
-152 -226 -222 -50 0
-152 -226 -222 -134 0
-152 -226 -54 -218 0
-152 -226 -54 -50 0
-152 -226 -54 -134 0
-152 -226 -138 -218 0
-152 -226 -138 -50 0
-152 -226 -138 -134 0
-152 -58 -222 -50 0
-152 -58 -222 -134 0
-152 -58 -54 -218 0
-152 -58 -54 -50 0
-152 -58 -54 -134 0
-152 -58 -138 -218 0
-152 -58 -138 -50 0
-152 -58 -138 -134 0
-152 -142 -222 -50 0
-152 -142 -222 -134 0
-152 -142 -54 -50 0
-152 -142 -54 -134 0
-237 -227 -52 -219 0
-237 -227 -52 -51 0
-237 -227 -136 -219 0
-237 -227 -136 -51 0
-237 -59 -220 -219 0
-237 -59 -220 -51 0
-237 -59 -220 -135 0
-237 -59 -52 -219 0
-237 -59 -52 -51 0
-237 -59 -52 -135 0
-237 -59 -136 -219 0
-237 -59 -136 -51 0
-237 -143 -220 -219 0
-237 -143 -220 -51 0
-237 -143 -220 -135 0
-237 -143 -52 -219 0
-237 -143 -52 -51 0
-237 -143 -52 -135 0
-237 -143 -136 -219 0
-237 -143 -136 -51 0
-69 -227 -220 -51 0
-69 -227 -220 -135 0
-69 -227 -52 -219 0
-69 -227 -52 -51 0
-69 -227 -52 -135 0
-69 -227 -136 -219 0
-69 -227 -136 -51 0
-69 -227 -136 -135 0
-69 -59 -220 -219 0
-69 -59 -220 -51 0
-69 -59 -220 -135 0
-69 -59 -52 -219 0
-69 -59 -52 -51 0
-69 -59 -52 -135 0
-69 -59 -136 -219 0
-69 -59 -136 -51 0
-69 -59 -136 -135 0
-69 -143 -220 -219 0
-69 -143 -220 -51 0
-69 -143 -220 -135 0
-69 -143 -52 -219 0
-69 -143 -52 -51 0
-69 -143 -52 -135 0
-69 -143 -136 -219 0
-69 -143 -136 -51 0
-153 -227 -220 -51 0
-153 -227 -220 -135 0
-153 -227 -52 -219 0
-153 -227 -52 -51 0
-153 -227 -52 -135 0
-153 -227 -136 -219 0
-153 -227 -136 -51 0
-153 -227 -136 -135 0
-153 -59 -220 -51 0
-153 -59 -220 -135 0
-153 -59 -52 -219 0
-153 -59 -52 -51 0
-153 -59 -52 -135 0
-153 -59 -136 -219 0
-153 -59 -136 -51 0
-153 -59 -136 -135 0
-153 -143 -220 -51 0
-153 -143 -220 -135 0
-153 -143 -52 -51 0
-153 -143 -52 -135 0
-238 -228 -53 -219 0
-238 -228 -53 -51 0
-238 -228 -137 -219 0
-238 -228 -137 -51 0
-238 -60 -221 -219 0
-238 -60 -221 -51 0
-238 -60 -221 -135 0
-238 -60 -53 -219 0
-238 -60 -53 -51 0
-238 -60 -53 -135 0
-238 -60 -137 -219 0
-238 -60 -137 -51 0
-238 -144 -221 -219 0
-238 -144 -221 -51 0
-238 -144 -221 -135 0
-238 -144 -53 -219 0
-238 -144 -53 -51 0
-238 -144 -53 -135 0
-238 -144 -137 -219 0
-238 -144 -137 -51 0
-70 -228 -221 -51 0
-70 -228 -221 -135 0
-70 -228 -53 -219 0
-70 -228 -53 -51 0
-70 -228 -53 -135 0
-70 -228 -137 -219 0
-70 -228 -137 -51 0
-70 -228 -137 -135 0
-70 -60 -221 -219 0
-70 -60 -221 -51 0
-70 -60 -221 -135 0
-70 -60 -53 -219 0
-70 -60 -53 -51 0
-70 -60 -53 -135 0
-70 -60 -137 -219 0
-70 -60 -137 -51 0
-70 -60 -137 -135 0
-70 -144 -221 -219 0
-70 -144 -221 -51 0
-70 -144 -221 -135 0
-70 -144 -53 -219 0
-70 -144 -53 -51 0
-70 -144 -53 -135 0
-70 -144 -137 -219 0
-70 -144 -137 -51 0
-154 -228 -221 -51 0
-154 -228 -221 -135 0
-154 -228 -53 -219 0
-154 -228 -53 -51 0
-154 -228 -53 -135 0
-154 -228 -137 -219 0
-154 -228 -137 -51 0
-154 -228 -137 -135 0
-154 -60 -221 -51 0
-154 -60 -221 -135 0
-154 -60 -53 -219 0
-154 -60 -53 -51 0
-154 -60 -53 -135 0
-154 -60 -137 -219 0
-154 -60 -137 -51 0
-154 -60 -137 -135 0
-154 -144 -221 -51 0
-154 -144 -221 -135 0
-154 -144 -53 -51 0
-154 -144 -53 -135 0
-239 -229 -54 -219 0
-239 -229 -54 -51 0
-239 -229 -138 -219 0
-239 -229 -138 -51 0
-239 -61 -222 -219 0
-239 -61 -222 -51 0
-239 -61 -222 -135 0
-239 -61 -54 -219 0
-239 -61 -54 -51 0
-239 -61 -54 -135 0
-239 -61 -138 -219 0
-239 -61 -138 -51 0
-239 -145 -222 -219 0
-239 -145 -222 -51 0
-239 -145 -222 -135 0
-239 -145 -54 -219 0
-239 -145 -54 -51 0
-239 -145 -54 -135 0
-239 -145 -138 -219 0
-239 -145 -138 -51 0
-71 -229 -222 -51 0
-71 -229 -222 -135 0
-71 -229 -54 -219 0
-71 -229 -54 -51 0
-71 -229 -54 -135 0
-71 -229 -138 -219 0
-71 -229 -138 -51 0
-71 -229 -138 -135 0
-71 -61 -222 -219 0
-71 -61 -222 -51 0
-71 -61 -222 -135 0
-71 -61 -54 -219 0
-71 -61 -54 -51 0
-71 -61 -54 -135 0
-71 -61 -138 -219 0
-71 -61 -138 -51 0
-71 -61 -138 -135 0
-71 -145 -222 -219 0
-71 -145 -222 -51 0
-71 -145 -222 -135 0
-71 -145 -54 -219 0
-71 -145 -54 -51 0
-71 -145 -54 -135 0
-71 -145 -138 -219 0
-71 -145 -138 -51 0
-155 -229 -222 -51 0
-155 -229 -222 -135 0
-155 -229 -54 -219 0
-155 -229 -54 -51 0
-155 -229 -54 -135 0
-155 -229 -138 -219 0
-155 -229 -138 -51 0
-155 -229 -138 -135 0
-155 -61 -222 -51 0
-155 -61 -222 -135 0
-155 -61 -54 -219 0
-155 -61 -54 -51 0
-155 -61 -54 -135 0
-155 -61 -138 -219 0
-155 -61 -138 -51 0
-155 -61 -138 -135 0
-155 -145 -222 -51 0
-155 -145 -222 -135 0
-155 -145 -54 -51 0
-155 -145 -54 -135 0
-240 -230 -53 -220 0
-240 -230 -53 -52 0
-240 -230 -137 -220 0
-240 -230 -137 -52 0
-240 -62 -221 -220 0
-240 -62 -221 -52 0
-240 -62 -221 -136 0
-240 -62 -53 -220 0
-240 -62 -53 -52 0
-240 -62 -53 -136 0
-240 -62 -137 -220 0
-240 -62 -137 -52 0
-240 -146 -221 -220 0
-240 -146 -221 -52 0
-240 -146 -221 -136 0
-240 -146 -53 -220 0
-240 -146 -53 -52 0
-240 -146 -53 -136 0
-240 -146 -137 -220 0
-240 -146 -137 -52 0
-72 -230 -221 -52 0
-72 -230 -221 -136 0
-72 -230 -53 -220 0
-72 -230 -53 -52 0
-72 -230 -53 -136 0
-72 -230 -137 -220 0
-72 -230 -137 -52 0
-72 -230 -137 -136 0
-72 -62 -221 -220 0
-72 -62 -221 -52 0
-72 -62 -221 -136 0
-72 -62 -53 -220 0
-72 -62 -53 -52 0
-72 -62 -53 -136 0
-72 -62 -137 -220 0
-72 -62 -137 -52 0
-72 -62 -137 -136 0
-72 -146 -221 -220 0
-72 -146 -221 -52 0
-72 -146 -221 -136 0
-72 -146 -53 -220 0
-72 -146 -53 -52 0
-72 -146 -53 -136 0
-72 -146 -137 -220 0
-72 -146 -137 -52 0
-156 -230 -221 -52 0
-156 -230 -221 -136 0
-156 -230 -53 -220 0
-156 -230 -53 -52 0
-156 -230 -53 -136 0
-156 -230 -137 -220 0
-156 -230 -137 -52 0
-156 -230 -137 -136 0
-156 -62 -221 -52 0
-156 -62 -221 -136 0
-156 -62 -53 -220 0
-156 -62 -53 -52 0
-156 -62 -53 -136 0
-156 -62 -137 -220 0
-156 -62 -137 -52 0
-156 -62 -137 -136 0
-156 -146 -221 -52 0
-156 -146 -221 -136 0
-156 -146 -53 -52 0
-156 -146 -53 -136 0
-241 -231 -54 -220 0
-241 -231 -54 -52 0
-241 -231 -138 -220 0
-241 -231 -138 -52 0
-241 -63 -222 -220 0
-241 -63 -222 -52 0
-241 -63 -222 -136 0
-241 -63 -54 -220 0
-241 -63 -54 -52 0
-241 -63 -54 -136 0
-241 -63 -138 -220 0
-241 -63 -138 -52 0
-241 -147 -222 -220 0
-241 -147 -222 -52 0
-241 -147 -222 -136 0
-241 -147 -54 -220 0
-241 -147 -54 -52 0
-241 -147 -54 -136 0
-241 -147 -138 -220 0
-241 -147 -138 -52 0
-73 -231 -222 -52 0
-73 -231 -222 -136 0
-73 -231 -54 -220 0
-73 -231 -54 -52 0
-73 -231 -54 -136 0
-73 -231 -138 -220 0
-73 -231 -138 -52 0
-73 -231 -138 -136 0
-73 -63 -222 -220 0
-73 -63 -222 -52 0
-73 -63 -222 -136 0
-73 -63 -54 -220 0
-73 -63 -54 -52 0
-73 -63 -54 -136 0
-73 -63 -138 -220 0
-73 -63 -138 -52 0
-73 -63 -138 -136 0
-73 -147 -222 -220 0
-73 -147 -222 -52 0
-73 -147 -222 -136 0
-73 -147 -54 -220 0
-73 -147 -54 -52 0
-73 -147 -54 -136 0
-73 -147 -138 -220 0
-73 -147 -138 -52 0
-157 -231 -222 -52 0
-157 -231 -222 -136 0
-157 -231 -54 -220 0
-157 -231 -54 -52 0
-157 -231 -54 -136 0
-157 -231 -138 -220 0
-157 -231 -138 -52 0
-157 -231 -138 -136 0
-157 -63 -222 -52 0
-157 -63 -222 -136 0
-157 -63 -54 -220 0
-157 -63 -54 -52 0
-157 -63 -54 -136 0
-157 -63 -138 -220 0
-157 -63 -138 -52 0
-157 -63 -138 -136 0
-157 -147 -222 -52 0
-157 -147 -222 -136 0
-157 -147 -54 -52 0
-157 -147 -54 -136 0
-242 -232 -54 -221 0
-242 -232 -54 -53 0
-242 -232 -138 -221 0
-242 -232 -138 -53 0
-242 -64 -222 -221 0
-242 -64 -222 -53 0
-242 -64 -222 -137 0
-242 -64 -54 -221 0
-242 -64 -54 -53 0
-242 -64 -54 -137 0
-242 -64 -138 -221 0
-242 -64 -138 -53 0
-242 -148 -222 -221 0
-242 -148 -222 -53 0
-242 -148 -222 -137 0
-242 -148 -54 -221 0
-242 -148 -54 -53 0
-242 -148 -54 -137 0
-242 -148 -138 -221 0
-242 -148 -138 -53 0
-74 -232 -222 -53 0
-74 -232 -222 -137 0
-74 -232 -54 -221 0
-74 -232 -54 -53 0
-74 -232 -54 -137 0
-74 -232 -138 -221 0
-74 -232 -138 -53 0
-74 -232 -138 -137 0
-74 -64 -222 -221 0
-74 -64 -222 -53 0
-74 -64 -222 -137 0
-74 -64 -54 -221 0
-74 -64 -54 -53 0
-74 -64 -54 -137 0
-74 -64 -138 -221 0
-74 -64 -138 -53 0
-74 -64 -138 -137 0
-74 -148 -222 -221 0
-74 -148 -222 -53 0
-74 -148 -222 -137 0
-74 -148 -54 -221 0
-74 -148 -54 -53 0
-74 -148 -54 -137 0
-74 -148 -138 -221 0
-74 -148 -138 -53 0
-158 -232 -222 -53 0
-158 -232 -222 -137 0
-158 -232 -54 -221 0
-158 -232 -54 -53 0
-158 -232 -54 -137 0
-158 -232 -138 -221 0
-158 -232 -138 -53 0
-158 -232 -138 -137 0
-158 -64 -222 -53 0
-158 -64 -222 -137 0
-158 -64 -54 -221 0
-158 -64 -54 -53 0
-158 -64 -54 -137 0
-158 -64 -138 -221 0
-158 -64 -138 -53 0
-158 -64 -138 -137 0
-158 -148 -222 -53 0
-158 -148 -222 -137 0
-158 -148 -54 -53 0
-158 -148 -54 -137 0
-243 -227 -56 -223 0
-243 -227 -56 -55 0
-243 -227 -140 -223 0
-243 -227 -140 -55 0
-243 -59 -224 -223 0
-243 -59 -224 -55 0
-243 -59 -224 -139 0
-243 -59 -56 -223 0
-243 -59 -56 -55 0
-243 -59 -56 -139 0
-243 -59 -140 -223 0
-243 -59 -140 -55 0
-243 -143 -224 -223 0
-243 -143 -224 -55 0
-243 -143 -224 -139 0
-243 -143 -56 -223 0
-243 -143 -56 -55 0
-243 -143 -56 -139 0
-243 -143 -140 -223 0
-243 -143 -140 -55 0
-75 -227 -224 -55 0
-75 -227 -224 -139 0
-75 -227 -56 -223 0
-75 -227 -56 -55 0
-75 -227 -56 -139 0
-75 -227 -140 -223 0
-75 -227 -140 -55 0
-75 -227 -140 -139 0
-75 -59 -224 -223 0
-75 -59 -224 -55 0
-75 -59 -224 -139 0
-75 -59 -56 -223 0
-75 -59 -56 -55 0
-75 -59 -56 -139 0
-75 -59 -140 -223 0
-75 -59 -140 -55 0
-75 -59 -140 -139 0
-75 -143 -224 -223 0
-75 -143 -224 -55 0
-75 -143 -224 -139 0
-75 -143 -56 -223 0
-75 -143 -56 -55 0
-75 -143 -56 -139 0
-75 -143 -140 -223 0
-75 -143 -140 -55 0
-159 -227 -224 -55 0
-159 -227 -224 -139 0
-159 -227 -56 -223 0
-159 -227 -56 -55 0
-159 -227 -56 -139 0
-159 -227 -140 -223 0
-159 -227 -140 -55 0
-159 -227 -140 -139 0
-159 -59 -224 -55 0
-159 -59 -224 -139 0
-159 -59 -56 -223 0
-159 -59 -56 -55 0
-159 -59 -56 -139 0
-159 -59 -140 -223 0
-159 -59 -140 -55 0
-159 -59 -140 -139 0
-159 -143 -224 -55 0
-159 -143 -224 -139 0
-159 -143 -56 -55 0
-159 -143 -56 -139 0
-244 -228 -57 -223 0
-244 -228 -57 -55 0
-244 -228 -141 -223 0
-244 -228 -141 -55 0
-244 -60 -225 -223 0
-244 -60 -225 -55 0
-244 -60 -225 -139 0
-244 -60 -57 -223 0
-244 -60 -57 -55 0
-244 -60 -57 -139 0
-244 -60 -141 -223 0
-244 -60 -141 -55 0
-244 -144 -225 -223 0
-244 -144 -225 -55 0
-244 -144 -225 -139 0
-244 -144 -57 -223 0
-244 -144 -57 -55 0
-244 -144 -57 -139 0
-244 -144 -141 -223 0
-244 -144 -141 -55 0
-76 -228 -225 -55 0
-76 -228 -225 -139 0
-76 -228 -57 -223 0
-76 -228 -57 -55 0
-76 -228 -57 -139 0
-76 -228 -141 -223 0
-76 -228 -141 -55 0
-76 -228 -141 -139 0
-76 -60 -225 -223 0
-76 -60 -225 -55 0
-76 -60 -225 -139 0
-76 -60 -57 -223 0
-76 -60 -57 -55 0
-76 -60 -57 -139 0
-76 -60 -141 -223 0
-76 -60 -141 -55 0
-76 -60 -141 -139 0
-76 -144 -225 -223 0
-76 -144 -225 -55 0
-76 -144 -225 -139 0
-76 -144 -57 -223 0
-76 -144 -57 -55 0
-76 -144 -57 -139 0
-76 -144 -141 -223 0
-76 -144 -141 -55 0
-160 -228 -225 -55 0
-160 -228 -225 -139 0
-160 -228 -57 -223 0
-160 -228 -57 -55 0
-160 -228 -57 -139 0
-160 -228 -141 -223 0
-160 -228 -141 -55 0
-160 -228 -141 -139 0
-160 -60 -225 -55 0
-160 -60 -225 -139 0
-160 -60 -57 -223 0
-160 -60 -57 -55 0
-160 -60 -57 -139 0
-160 -60 -141 -223 0
-160 -60 -141 -55 0
-160 -60 -141 -139 0
-160 -144 -225 -55 0
-160 -144 -225 -139 0
-160 -144 -57 -55 0
-160 -144 -57 -139 0
-245 -229 -58 -223 0
-245 -229 -58 -55 0
-245 -229 -142 -223 0
-245 -229 -142 -55 0
-245 -61 -226 -223 0
-245 -61 -226 -55 0
-245 -61 -226 -139 0
-245 -61 -58 -223 0
-245 -61 -58 -55 0
-245 -61 -58 -139 0
-245 -61 -142 -223 0
-245 -61 -142 -55 0
-245 -145 -226 -223 0
-245 -145 -226 -55 0
-245 -145 -226 -139 0
-245 -145 -58 -223 0
-245 -145 -58 -55 0
-245 -145 -58 -139 0
-245 -145 -142 -223 0
-245 -145 -142 -55 0
-77 -229 -226 -55 0
-77 -229 -226 -139 0
-77 -229 -58 -223 0
-77 -229 -58 -55 0
-77 -229 -58 -139 0
-77 -229 -142 -223 0
-77 -229 -142 -55 0
-77 -229 -142 -139 0
-77 -61 -226 -223 0
-77 -61 -226 -55 0
-77 -61 -226 -139 0
-77 -61 -58 -223 0
-77 -61 -58 -55 0
-77 -61 -58 -139 0
-77 -61 -142 -223 0
-77 -61 -142 -55 0
-77 -61 -142 -139 0
-77 -145 -226 -223 0
-77 -145 -226 -55 0
-77 -145 -226 -139 0
-77 -145 -58 -223 0
-77 -145 -58 -55 0
-77 -145 -58 -139 0
-77 -145 -142 -223 0
-77 -145 -142 -55 0
-161 -229 -226 -55 0
-161 -229 -226 -139 0
-161 -229 -58 -223 0
-161 -229 -58 -55 0
-161 -229 -58 -139 0
-161 -229 -142 -223 0
-161 -229 -142 -55 0
-161 -229 -142 -139 0
-161 -61 -226 -55 0
-161 -61 -226 -139 0
-161 -61 -58 -223 0
-161 -61 -58 -55 0
-161 -61 -58 -139 0
-161 -61 -142 -223 0
-161 -61 -142 -55 0
-161 -61 -142 -139 0
-161 -145 -226 -55 0
-161 -145 -226 -139 0
-161 -145 -58 -55 0
-161 -145 -58 -139 0
-246 -230 -57 -224 0
-246 -230 -57 -56 0
-246 -230 -141 -224 0
-246 -230 -141 -56 0
-246 -62 -225 -224 0
-246 -62 -225 -56 0
-246 -62 -225 -140 0
-246 -62 -57 -224 0
-246 -62 -57 -56 0
-246 -62 -57 -140 0
-246 -62 -141 -224 0
-246 -62 -141 -56 0
-246 -146 -225 -224 0
-246 -146 -225 -56 0
-246 -146 -225 -140 0
-246 -146 -57 -224 0
-246 -146 -57 -56 0
-246 -146 -57 -140 0
-246 -146 -141 -224 0
-246 -146 -141 -56 0
-78 -230 -225 -56 0
-78 -230 -225 -140 0
-78 -230 -57 -224 0
-78 -230 -57 -56 0
-78 -230 -57 -140 0
-78 -230 -141 -224 0
-78 -230 -141 -56 0
-78 -230 -141 -140 0
-78 -62 -225 -224 0
-78 -62 -225 -56 0
-78 -62 -225 -140 0
-78 -62 -57 -224 0
-78 -62 -57 -56 0
-78 -62 -57 -140 0
-78 -62 -141 -224 0
-78 -62 -141 -56 0
-78 -62 -141 -140 0
-78 -146 -225 -224 0
-78 -146 -225 -56 0
-78 -146 -225 -140 0
-78 -146 -57 -224 0
-78 -146 -57 -56 0
-78 -146 -57 -140 0
-78 -146 -141 -224 0
-78 -146 -141 -56 0
-162 -230 -225 -56 0
-162 -230 -225 -140 0
-162 -230 -57 -224 0
-162 -230 -57 -56 0
-162 -230 -57 -140 0
-162 -230 -141 -224 0
-162 -230 -141 -56 0
-162 -230 -141 -140 0
-162 -62 -225 -56 0
-162 -62 -225 -140 0
-162 -62 -57 -224 0
-162 -62 -57 -56 0
-162 -62 -57 -140 0
-162 -62 -141 -224 0
-162 -62 -141 -56 0
-162 -62 -141 -140 0
-162 -146 -225 -56 0
-162 -146 -225 -140 0
-162 -146 -57 -56 0
-162 -146 -57 -140 0
-247 -231 -58 -224 0
-247 -231 -58 -56 0
-247 -231 -142 -224 0
-247 -231 -142 -56 0
-247 -63 -226 -224 0
-247 -63 -226 -56 0
-247 -63 -226 -140 0
-247 -63 -58 -224 0
-247 -63 -58 -56 0
-247 -63 -58 -140 0
-247 -63 -142 -224 0
-247 -63 -142 -56 0
-247 -147 -226 -224 0
-247 -147 -226 -56 0
-247 -147 -226 -140 0
-247 -147 -58 -224 0
-247 -147 -58 -56 0
-247 -147 -58 -140 0
-247 -147 -142 -224 0
-247 -147 -142 -56 0
-79 -231 -226 -56 0
-79 -231 -226 -140 0
-79 -231 -58 -224 0
-79 -231 -58 -56 0
-79 -231 -58 -140 0
-79 -231 -142 -224 0
-79 -231 -142 -56 0
-79 -231 -142 -140 0
-79 -63 -226 -224 0
-79 -63 -226 -56 0
-79 -63 -226 -140 0
-79 -63 -58 -224 0
-79 -63 -58 -56 0
-79 -63 -58 -140 0
-79 -63 -142 -224 0
-79 -63 -142 -56 0
-79 -63 -142 -140 0
-79 -147 -226 -224 0
-79 -147 -226 -56 0
-79 -147 -226 -140 0
-79 -147 -58 -224 0
-79 -147 -58 -56 0
-79 -147 -58 -140 0
-79 -147 -142 -224 0
-79 -147 -142 -56 0
-163 -231 -226 -56 0
-163 -231 -226 -140 0
-163 -231 -58 -224 0
-163 -231 -58 -56 0
-163 -231 -58 -140 0
-163 -231 -142 -224 0
-163 -231 -142 -56 0
-163 -231 -142 -140 0
-163 -63 -226 -56 0
-163 -63 -226 -140 0
-163 -63 -58 -224 0
-163 -63 -58 -56 0
-163 -63 -58 -140 0
-163 -63 -142 -224 0
-163 -63 -142 -56 0
-163 -63 -142 -140 0
-163 -147 -226 -56 0
-163 -147 -226 -140 0
-163 -147 -58 -56 0
-163 -147 -58 -140 0
-248 -232 -58 -225 0
-248 -232 -58 -57 0
-248 -232 -142 -225 0
-248 -232 -142 -57 0
-248 -64 -226 -225 0
-248 -64 -226 -57 0
-248 -64 -226 -141 0
-248 -64 -58 -225 0
-248 -64 -58 -57 0
-248 -64 -58 -141 0
-248 -64 -142 -225 0
-248 -64 -142 -57 0
-248 -148 -226 -225 0
-248 -148 -226 -57 0
-248 -148 -226 -141 0
-248 -148 -58 -225 0
-248 -148 -58 -57 0
-248 -148 -58 -141 0
-248 -148 -142 -225 0
-248 -148 -142 -57 0
-80 -232 -226 -57 0
-80 -232 -226 -141 0
-80 -232 -58 -225 0
-80 -232 -58 -57 0
-80 -232 -58 -141 0
-80 -232 -142 -225 0
-80 -232 -142 -57 0
-80 -232 -142 -141 0
-80 -64 -226 -225 0
-80 -64 -226 -57 0
-80 -64 -226 -141 0
-80 -64 -58 -225 0
-80 -64 -58 -57 0
-80 -64 -58 -141 0
-80 -64 -142 -225 0
-80 -64 -142 -57 0
-80 -64 -142 -141 0
-80 -148 -226 -225 0
-80 -148 -226 -57 0
-80 -148 -226 -141 0
-80 -148 -58 -225 0
-80 -148 -58 -57 0
-80 -148 -58 -141 0
-80 -148 -142 -225 0
-80 -148 -142 -57 0
-164 -232 -226 -57 0
-164 -232 -226 -141 0
-164 -232 -58 -225 0
-164 -232 -58 -57 0
-164 -232 -58 -141 0
-164 -232 -142 -225 0
-164 -232 -142 -57 0
-164 -232 -142 -141 0
-164 -64 -226 -57 0
-164 -64 -226 -141 0
-164 -64 -58 -225 0
-164 -64 -58 -57 0
-164 -64 -58 -141 0
-164 -64 -142 -225 0
-164 -64 -142 -57 0
-164 -64 -142 -141 0
-164 -148 -226 -57 0
-164 -148 -226 -141 0
-164 -148 -58 -57 0
-164 -148 -58 -141 0
-249 -230 -60 -227 0
-249 -230 -60 -59 0
-249 -230 -144 -227 0
-249 -230 -144 -59 0
-249 -62 -228 -227 0
-249 -62 -228 -59 0
-249 -62 -228 -143 0
-249 -62 -60 -227 0
-249 -62 -60 -59 0
-249 -62 -60 -143 0
-249 -62 -144 -227 0
-249 -62 -144 -59 0
-249 -146 -228 -227 0
-249 -146 -228 -59 0
-249 -146 -228 -143 0
-249 -146 -60 -227 0
-249 -146 -60 -59 0
-249 -146 -60 -143 0
-249 -146 -144 -227 0
-249 -146 -144 -59 0
-81 -230 -228 -59 0
-81 -230 -228 -143 0
-81 -230 -60 -227 0
-81 -230 -60 -59 0
-81 -230 -60 -143 0
-81 -230 -144 -227 0
-81 -230 -144 -59 0
-81 -230 -144 -143 0
-81 -62 -228 -227 0
-81 -62 -228 -59 0
-81 -62 -228 -143 0
-81 -62 -60 -227 0
-81 -62 -60 -59 0
-81 -62 -60 -143 0
-81 -62 -144 -227 0
-81 -62 -144 -59 0
-81 -62 -144 -143 0
-81 -146 -228 -227 0
-81 -146 -228 -59 0
-81 -146 -228 -143 0
-81 -146 -60 -227 0
-81 -146 -60 -59 0
-81 -146 -60 -143 0
-81 -146 -144 -227 0
-81 -146 -144 -59 0
-165 -230 -228 -59 0
-165 -230 -228 -143 0
-165 -230 -60 -227 0
-165 -230 -60 -59 0
-165 -230 -60 -143 0
-165 -230 -144 -227 0
-165 -230 -144 -59 0
-165 -230 -144 -143 0
-165 -62 -228 -59 0
-165 -62 -228 -143 0
-165 -62 -60 -227 0
-165 -62 -60 -59 0
-165 -62 -60 -143 0
-165 -62 -144 -227 0
-165 -62 -144 -59 0
-165 -62 -144 -143 0
-165 -146 -228 -59 0
-165 -146 -228 -143 0
-165 -146 -60 -59 0
-165 -146 -60 -143 0
-250 -231 -61 -227 0
-250 -231 -61 -59 0
-250 -231 -145 -227 0
-250 -231 -145 -59 0
-250 -63 -229 -227 0
-250 -63 -229 -59 0
-250 -63 -229 -143 0
-250 -63 -61 -227 0
-250 -63 -61 -59 0
-250 -63 -61 -143 0
-250 -63 -145 -227 0
-250 -63 -145 -59 0
-250 -147 -229 -227 0
-250 -147 -229 -59 0
-250 -147 -229 -143 0
-250 -147 -61 -227 0
-250 -147 -61 -59 0
-250 -147 -61 -143 0
-250 -147 -145 -227 0
-250 -147 -145 -59 0
-82 -231 -229 -59 0
-82 -231 -229 -143 0
-82 -231 -61 -227 0
-82 -231 -61 -59 0
-82 -231 -61 -143 0
-82 -231 -145 -227 0
-82 -231 -145 -59 0
-82 -231 -145 -143 0
-82 -63 -229 -227 0
-82 -63 -229 -59 0
-82 -63 -229 -143 0
-82 -63 -61 -227 0
-82 -63 -61 -59 0
-82 -63 -61 -143 0
-82 -63 -145 -227 0
-82 -63 -145 -59 0
-82 -63 -145 -143 0
-82 -147 -229 -227 0
-82 -147 -229 -59 0
-82 -147 -229 -143 0
-82 -147 -61 -227 0
-82 -147 -61 -59 0
-82 -147 -61 -143 0
-82 -147 -145 -227 0
-82 -147 -145 -59 0
-166 -231 -229 -59 0
-166 -231 -229 -143 0
-166 -231 -61 -227 0
-166 -231 -61 -59 0
-166 -231 -61 -143 0
-166 -231 -145 -227 0
-166 -231 -145 -59 0
-166 -231 -145 -143 0
-166 -63 -229 -59 0
-166 -63 -229 -143 0
-166 -63 -61 -227 0
-166 -63 -61 -59 0
-166 -63 -61 -143 0
-166 -63 -145 -227 0
-166 -63 -145 -59 0
-166 -63 -145 -143 0
-166 -147 -229 -59 0
-166 -147 -229 -143 0
-166 -147 -61 -59 0
-166 -147 -61 -143 0
-251 -232 -61 -228 0
-251 -232 -61 -60 0
-251 -232 -145 -228 0
-251 -232 -145 -60 0
-251 -64 -229 -228 0
-251 -64 -229 -60 0
-251 -64 -229 -144 0
-251 -64 -61 -228 0
-251 -64 -61 -60 0
-251 -64 -61 -144 0
-251 -64 -145 -228 0
-251 -64 -145 -60 0
-251 -148 -229 -228 0
-251 -148 -229 -60 0
-251 -148 -229 -144 0
-251 -148 -61 -228 0
-251 -148 -61 -60 0
-251 -148 -61 -144 0
-251 -148 -145 -228 0
-251 -148 -145 -60 0
-83 -232 -229 -60 0
-83 -232 -229 -144 0
-83 -232 -61 -228 0
-83 -232 -61 -60 0
-83 -232 -61 -144 0
-83 -232 -145 -228 0
-83 -232 -145 -60 0
-83 -232 -145 -144 0
-83 -64 -229 -228 0
-83 -64 -229 -60 0
-83 -64 -229 -144 0
-83 -64 -61 -228 0
-83 -64 -61 -60 0
-83 -64 -61 -144 0
-83 -64 -145 -228 0
-83 -64 -145 -60 0
-83 -64 -145 -144 0
-83 -148 -229 -228 0
-83 -148 -229 -60 0
-83 -148 -229 -144 0
-83 -148 -61 -228 0
-83 -148 -61 -60 0
-83 -148 -61 -144 0
-83 -148 -145 -228 0
-83 -148 -145 -60 0
-167 -232 -229 -60 0
-167 -232 -229 -144 0
-167 -232 -61 -228 0
-167 -232 -61 -60 0
-167 -232 -61 -144 0
-167 -232 -145 -228 0
-167 -232 -145 -60 0
-167 -232 -145 -144 0
-167 -64 -229 -60 0
-167 -64 -229 -144 0
-167 -64 -61 -228 0
-167 -64 -61 -60 0
-167 -64 -61 -144 0
-167 -64 -145 -228 0
-167 -64 -145 -60 0
-167 -64 -145 -144 0
-167 -148 -229 -60 0
-167 -148 -229 -144 0
-167 -148 -61 -60 0
-167 -148 -61 -144 0
-252 -232 -63 -230 0
-252 -232 -63 -62 0
-252 -232 -147 -230 0
-252 -232 -147 -62 0
-252 -64 -231 -230 0
-252 -64 -231 -62 0
-252 -64 -231 -146 0
-252 -64 -63 -230 0
-252 -64 -63 -62 0
-252 -64 -63 -146 0
-252 -64 -147 -230 0
-252 -64 -147 -62 0
-252 -148 -231 -230 0
-252 -148 -231 -62 0
-252 -148 -231 -146 0
-252 -148 -63 -230 0
-252 -148 -63 -62 0
-252 -148 -63 -146 0
-252 -148 -147 -230 0
-252 -148 -147 -62 0
-84 -232 -231 -62 0
-84 -232 -231 -146 0
-84 -232 -63 -230 0
-84 -232 -63 -62 0
-84 -232 -63 -146 0
-84 -232 -147 -230 0
-84 -232 -147 -62 0
-84 -232 -147 -146 0
-84 -64 -231 -230 0
-84 -64 -231 -62 0
-84 -64 -231 -146 0
-84 -64 -63 -230 0
-84 -64 -63 -62 0
-84 -64 -63 -146 0
-84 -64 -147 -230 0
-84 -64 -147 -62 0
-84 -64 -147 -146 0
-84 -148 -231 -230 0
-84 -148 -231 -62 0
-84 -148 -231 -146 0
-84 -148 -63 -230 0
-84 -148 -63 -62 0
-84 -148 -63 -146 0
-84 -148 -147 -230 0
-84 -148 -147 -62 0
-168 -232 -231 -62 0
-168 -232 -231 -146 0
-168 -232 -63 -230 0
-168 -232 -63 -62 0
-168 -232 -63 -146 0
-168 -232 -147 -230 0
-168 -232 -147 -62 0
-168 -232 -147 -146 0
-168 -64 -231 -62 0
-168 -64 -231 -146 0
-168 -64 -63 -230 0
-168 -64 -63 -62 0
-168 -64 -63 -146 0
-168 -64 -147 -230 0
-168 -64 -147 -62 0
-168 -64 -147 -146 0
-168 -148 -231 -62 0
-168 -148 -231 -146 0
-168 -148 -63 -62 0
-168 -148 -63 -146 0
-243 -237 -66 -233 0
-243 -237 -66 -65 0
-243 -237 -150 -233 0
-243 -237 -150 -65 0
-243 -69 -234 -233 0
-243 -69 -234 -65 0
-243 -69 -234 -149 0
-243 -69 -66 -233 0
-243 -69 -66 -65 0
-243 -69 -66 -149 0
-243 -69 -150 -233 0
-243 -69 -150 -65 0
-243 -153 -234 -233 0
-243 -153 -234 -65 0
-243 -153 -234 -149 0
-243 -153 -66 -233 0
-243 -153 -66 -65 0
-243 -153 -66 -149 0
-243 -153 -150 -233 0
-243 -153 -150 -65 0
-75 -237 -234 -65 0
-75 -237 -234 -149 0
-75 -237 -66 -233 0
-75 -237 -66 -65 0
-75 -237 -66 -149 0
-75 -237 -150 -233 0
-75 -237 -150 -65 0
-75 -237 -150 -149 0
-75 -69 -234 -233 0
-75 -69 -234 -65 0
-75 -69 -234 -149 0
-75 -69 -66 -233 0
-75 -69 -66 -65 0
-75 -69 -66 -149 0
-75 -69 -150 -233 0
-75 -69 -150 -65 0
-75 -69 -150 -149 0
-75 -153 -234 -233 0
-75 -153 -234 -65 0
-75 -153 -234 -149 0
-75 -153 -66 -233 0
-75 -153 -66 -65 0
-75 -153 -66 -149 0
-75 -153 -150 -233 0
-75 -153 -150 -65 0
-159 -237 -234 -65 0
-159 -237 -234 -149 0
-159 -237 -66 -233 0
-159 -237 -66 -65 0
-159 -237 -66 -149 0
-159 -237 -150 -233 0
-159 -237 -150 -65 0
-159 -237 -150 -149 0
-159 -69 -234 -65 0
-159 -69 -234 -149 0
-159 -69 -66 -233 0
-159 -69 -66 -65 0
-159 -69 -66 -149 0
-159 -69 -150 -233 0
-159 -69 -150 -65 0
-159 -69 -150 -149 0
-159 -153 -234 -65 0
-159 -153 -234 -149 0
-159 -153 -66 -65 0
-159 -153 -66 -149 0
-244 -238 -67 -233 0
-244 -238 -67 -65 0
-244 -238 -151 -233 0
-244 -238 -151 -65 0
-244 -70 -235 -233 0
-244 -70 -235 -65 0
-244 -70 -235 -149 0
-244 -70 -67 -233 0
-244 -70 -67 -65 0
-244 -70 -67 -149 0
-244 -70 -151 -233 0
-244 -70 -151 -65 0
-244 -154 -235 -233 0
-244 -154 -235 -65 0
-244 -154 -235 -149 0
-244 -154 -67 -233 0
-244 -154 -67 -65 0
-244 -154 -67 -149 0
-244 -154 -151 -233 0
-244 -154 -151 -65 0
-76 -238 -235 -65 0
-76 -238 -235 -149 0
-76 -238 -67 -233 0
-76 -238 -67 -65 0
-76 -238 -67 -149 0
-76 -238 -151 -233 0
-76 -238 -151 -65 0
-76 -238 -151 -149 0
-76 -70 -235 -233 0
-76 -70 -235 -65 0
-76 -70 -235 -149 0
-76 -70 -67 -233 0
-76 -70 -67 -65 0
-76 -70 -67 -149 0
-76 -70 -151 -233 0
-76 -70 -151 -65 0
-76 -70 -151 -149 0
-76 -154 -235 -233 0
-76 -154 -235 -65 0
-76 -154 -235 -149 0
-76 -154 -67 -233 0
-76 -154 -67 -65 0
-76 -154 -67 -149 0
-76 -154 -151 -233 0
-76 -154 -151 -65 0
-160 -238 -235 -65 0
-160 -238 -235 -149 0
-160 -238 -67 -233 0
-160 -238 -67 -65 0
-160 -238 -67 -149 0
-160 -238 -151 -233 0
-160 -238 -151 -65 0
-160 -238 -151 -149 0
-160 -70 -235 -65 0
-160 -70 -235 -149 0
-160 -70 -67 -233 0
-160 -70 -67 -65 0
-160 -70 -67 -149 0
-160 -70 -151 -233 0
-160 -70 -151 -65 0
-160 -70 -151 -149 0
-160 -154 -235 -65 0
-160 -154 -235 -149 0
-160 -154 -67 -65 0
-160 -154 -67 -149 0
-245 -239 -68 -233 0
-245 -239 -68 -65 0
-245 -239 -152 -233 0
-245 -239 -152 -65 0
-245 -71 -236 -233 0
-245 -71 -236 -65 0
-245 -71 -236 -149 0
-245 -71 -68 -233 0
-245 -71 -68 -65 0
-245 -71 -68 -149 0
-245 -71 -152 -233 0
-245 -71 -152 -65 0
-245 -155 -236 -233 0
-245 -155 -236 -65 0
-245 -155 -236 -149 0
-245 -155 -68 -233 0
-245 -155 -68 -65 0
-245 -155 -68 -149 0
-245 -155 -152 -233 0
-245 -155 -152 -65 0
-77 -239 -236 -65 0
-77 -239 -236 -149 0
-77 -239 -68 -233 0
-77 -239 -68 -65 0
-77 -239 -68 -149 0
-77 -239 -152 -233 0
-77 -239 -152 -65 0
-77 -239 -152 -149 0
-77 -71 -236 -233 0
-77 -71 -236 -65 0
-77 -71 -236 -149 0
-77 -71 -68 -233 0
-77 -71 -68 -65 0
-77 -71 -68 -149 0
-77 -71 -152 -233 0
-77 -71 -152 -65 0
-77 -71 -152 -149 0
-77 -155 -236 -233 0
-77 -155 -236 -65 0
-77 -155 -236 -149 0
-77 -155 -68 -233 0
-77 -155 -68 -65 0
-77 -155 -68 -149 0
-77 -155 -152 -233 0
-77 -155 -152 -65 0
-161 -239 -236 -65 0
-161 -239 -236 -149 0
-161 -239 -68 -233 0
-161 -239 -68 -65 0
-161 -239 -68 -149 0
-161 -239 -152 -233 0
-161 -239 -152 -65 0
-161 -239 -152 -149 0
-161 -71 -236 -65 0
-161 -71 -236 -149 0
-161 -71 -68 -233 0
-161 -71 -68 -65 0
-161 -71 -68 -149 0
-161 -71 -152 -233 0
-161 -71 -152 -65 0
-161 -71 -152 -149 0
-161 -155 -236 -65 0
-161 -155 -236 -149 0
-161 -155 -68 -65 0
-161 -155 -68 -149 0
-246 -240 -67 -234 0
-246 -240 -67 -66 0
-246 -240 -151 -234 0
-246 -240 -151 -66 0
-246 -72 -235 -234 0
-246 -72 -235 -66 0
-246 -72 -235 -150 0
-246 -72 -67 -234 0
-246 -72 -67 -66 0
-246 -72 -67 -150 0
-246 -72 -151 -234 0
-246 -72 -151 -66 0
-246 -156 -235 -234 0
-246 -156 -235 -66 0
-246 -156 -235 -150 0
-246 -156 -67 -234 0
-246 -156 -67 -66 0
-246 -156 -67 -150 0
-246 -156 -151 -234 0
-246 -156 -151 -66 0
-78 -240 -235 -66 0
-78 -240 -235 -150 0
-78 -240 -67 -234 0
-78 -240 -67 -66 0
-78 -240 -67 -150 0
-78 -240 -151 -234 0
-78 -240 -151 -66 0
-78 -240 -151 -150 0
-78 -72 -235 -234 0
-78 -72 -235 -66 0
-78 -72 -235 -150 0
-78 -72 -67 -234 0
-78 -72 -67 -66 0
-78 -72 -67 -150 0
-78 -72 -151 -234 0
-78 -72 -151 -66 0
-78 -72 -151 -150 0
-78 -156 -235 -234 0
-78 -156 -235 -66 0
-78 -156 -235 -150 0
-78 -156 -67 -234 0
-78 -156 -67 -66 0
-78 -156 -67 -150 0
-78 -156 -151 -234 0
-78 -156 -151 -66 0
-162 -240 -235 -66 0
-162 -240 -235 -150 0
-162 -240 -67 -234 0
-162 -240 -67 -66 0
-162 -240 -67 -150 0
-162 -240 -151 -234 0
-162 -240 -151 -66 0
-162 -240 -151 -150 0
-162 -72 -235 -66 0
-162 -72 -235 -150 0
-162 -72 -67 -234 0
-162 -72 -67 -66 0
-162 -72 -67 -150 0
-162 -72 -151 -234 0
-162 -72 -151 -66 0
-162 -72 -151 -150 0
-162 -156 -235 -66 0
-162 -156 -235 -150 0
-162 -156 -67 -66 0
-162 -156 -67 -150 0
-247 -241 -68 -234 0
-247 -241 -68 -66 0
-247 -241 -152 -234 0
-247 -241 -152 -66 0
-247 -73 -236 -234 0
-247 -73 -236 -66 0
-247 -73 -236 -150 0
-247 -73 -68 -234 0
-247 -73 -68 -66 0
-247 -73 -68 -150 0
-247 -73 -152 -234 0
-247 -73 -152 -66 0
-247 -157 -236 -234 0
-247 -157 -236 -66 0
-247 -157 -236 -150 0
-247 -157 -68 -234 0
-247 -157 -68 -66 0
-247 -157 -68 -150 0
-247 -157 -152 -234 0
-247 -157 -152 -66 0
-79 -241 -236 -66 0
-79 -241 -236 -150 0
-79 -241 -68 -234 0
-79 -241 -68 -66 0
-79 -241 -68 -150 0
-79 -241 -152 -234 0
-79 -241 -152 -66 0
-79 -241 -152 -150 0
-79 -73 -236 -234 0
-79 -73 -236 -66 0
-79 -73 -236 -150 0
-79 -73 -68 -234 0
-79 -73 -68 -66 0
-79 -73 -68 -150 0
-79 -73 -152 -234 0
-79 -73 -152 -66 0
-79 -73 -152 -150 0
-79 -157 -236 -234 0
-79 -157 -236 -66 0
-79 -157 -236 -150 0
-79 -157 -68 -234 0
-79 -157 -68 -66 0
-79 -157 -68 -150 0
-79 -157 -152 -234 0
-79 -157 -152 -66 0
-163 -241 -236 -66 0
-163 -241 -236 -150 0
-163 -241 -68 -234 0
-163 -241 -68 -66 0
-163 -241 -68 -150 0
-163 -241 -152 -234 0
-163 -241 -152 -66 0
-163 -241 -152 -150 0
-163 -73 -236 -66 0
-163 -73 -236 -150 0
-163 -73 -68 -234 0
-163 -73 -68 -66 0
-163 -73 -68 -150 0
-163 -73 -152 -234 0
-163 -73 -152 -66 0
-163 -73 -152 -150 0
-163 -157 -236 -66 0
-163 -157 -236 -150 0
-163 -157 -68 -66 0
-163 -157 -68 -150 0
-248 -242 -68 -235 0
-248 -242 -68 -67 0
-248 -242 -152 -235 0
-248 -242 -152 -67 0
-248 -74 -236 -235 0
-248 -74 -236 -67 0
-248 -74 -236 -151 0
-248 -74 -68 -235 0
-248 -74 -68 -67 0
-248 -74 -68 -151 0
-248 -74 -152 -235 0
-248 -74 -152 -67 0
-248 -158 -236 -235 0
-248 -158 -236 -67 0
-248 -158 -236 -151 0
-248 -158 -68 -235 0
-248 -158 -68 -67 0
-248 -158 -68 -151 0
-248 -158 -152 -235 0
-248 -158 -152 -67 0
-80 -242 -236 -67 0
-80 -242 -236 -151 0
-80 -242 -68 -235 0
-80 -242 -68 -67 0
-80 -242 -68 -151 0
-80 -242 -152 -235 0
-80 -242 -152 -67 0
-80 -242 -152 -151 0
-80 -74 -236 -235 0
-80 -74 -236 -67 0
-80 -74 -236 -151 0
-80 -74 -68 -235 0
-80 -74 -68 -67 0
-80 -74 -68 -151 0
-80 -74 -152 -235 0
-80 -74 -152 -67 0
-80 -74 -152 -151 0
-80 -158 -236 -235 0
-80 -158 -236 -67 0
-80 -158 -236 -151 0
-80 -158 -68 -235 0
-80 -158 -68 -67 0
-80 -158 -68 -151 0
-80 -158 -152 -235 0
-80 -158 -152 -67 0
-164 -242 -236 -67 0
-164 -242 -236 -151 0
-164 -242 -68 -235 0
-164 -242 -68 -67 0
-164 -242 -68 -151 0
-164 -242 -152 -235 0
-164 -242 -152 -67 0
-164 -242 -152 -151 0
-164 -74 -236 -67 0
-164 -74 -236 -151 0
-164 -74 -68 -235 0
-164 -74 -68 -67 0
-164 -74 -68 -151 0
-164 -74 -152 -235 0
-164 -74 -152 -67 0
-164 -74 -152 -151 0
-164 -158 -236 -67 0
-164 -158 -236 -151 0
-164 -158 -68 -67 0
-164 -158 -68 -151 0
-249 -240 -70 -237 0
-249 -240 -70 -69 0
-249 -240 -154 -237 0
-249 -240 -154 -69 0
-249 -72 -238 -237 0
-249 -72 -238 -69 0
-249 -72 -238 -153 0
-249 -72 -70 -237 0
-249 -72 -70 -69 0
-249 -72 -70 -153 0
-249 -72 -154 -237 0
-249 -72 -154 -69 0
-249 -156 -238 -237 0
-249 -156 -238 -69 0
-249 -156 -238 -153 0
-249 -156 -70 -237 0
-249 -156 -70 -69 0
-249 -156 -70 -153 0
-249 -156 -154 -237 0
-249 -156 -154 -69 0
-81 -240 -238 -69 0
-81 -240 -238 -153 0
-81 -240 -70 -237 0
-81 -240 -70 -69 0
-81 -240 -70 -153 0
-81 -240 -154 -237 0
-81 -240 -154 -69 0
-81 -240 -154 -153 0
-81 -72 -238 -237 0
-81 -72 -238 -69 0
-81 -72 -238 -153 0
-81 -72 -70 -237 0
-81 -72 -70 -69 0
-81 -72 -70 -153 0
-81 -72 -154 -237 0
-81 -72 -154 -69 0
-81 -72 -154 -153 0
-81 -156 -238 -237 0
-81 -156 -238 -69 0
-81 -156 -238 -153 0
-81 -156 -70 -237 0
-81 -156 -70 -69 0
-81 -156 -70 -153 0
-81 -156 -154 -237 0
-81 -156 -154 -69 0
-165 -240 -238 -69 0
-165 -240 -238 -153 0
-165 -240 -70 -237 0
-165 -240 -70 -69 0
-165 -240 -70 -153 0
-165 -240 -154 -237 0
-165 -240 -154 -69 0
-165 -240 -154 -153 0
-165 -72 -238 -69 0
-165 -72 -238 -153 0
-165 -72 -70 -237 0
-165 -72 -70 -69 0
-165 -72 -70 -153 0
-165 -72 -154 -237 0
-165 -72 -154 -69 0
-165 -72 -154 -153 0
-165 -156 -238 -69 0
-165 -156 -238 -153 0
-165 -156 -70 -69 0
-165 -156 -70 -153 0
-250 -241 -71 -237 0
-250 -241 -71 -69 0
-250 -241 -155 -237 0
-250 -241 -155 -69 0
-250 -73 -239 -237 0
-250 -73 -239 -69 0
-250 -73 -239 -153 0
-250 -73 -71 -237 0
-250 -73 -71 -69 0
-250 -73 -71 -153 0
-250 -73 -155 -237 0
-250 -73 -155 -69 0
-250 -157 -239 -237 0
-250 -157 -239 -69 0
-250 -157 -239 -153 0
-250 -157 -71 -237 0
-250 -157 -71 -69 0
-250 -157 -71 -153 0
-250 -157 -155 -237 0
-250 -157 -155 -69 0
-82 -241 -239 -69 0
-82 -241 -239 -153 0
-82 -241 -71 -237 0
-82 -241 -71 -69 0
-82 -241 -71 -153 0
-82 -241 -155 -237 0
-82 -241 -155 -69 0
-82 -241 -155 -153 0
-82 -73 -239 -237 0
-82 -73 -239 -69 0
-82 -73 -239 -153 0
-82 -73 -71 -237 0
-82 -73 -71 -69 0
-82 -73 -71 -153 0
-82 -73 -155 -237 0
-82 -73 -155 -69 0
-82 -73 -155 -153 0
-82 -157 -239 -237 0
-82 -157 -239 -69 0
-82 -157 -239 -153 0
-82 -157 -71 -237 0
-82 -157 -71 -69 0
-82 -157 -71 -153 0
-82 -157 -155 -237 0
-82 -157 -155 -69 0
-166 -241 -239 -69 0
-166 -241 -239 -153 0
-166 -241 -71 -237 0
-166 -241 -71 -69 0
-166 -241 -71 -153 0
-166 -241 -155 -237 0
-166 -241 -155 -69 0
-166 -241 -155 -153 0
-166 -73 -239 -69 0
-166 -73 -239 -153 0
-166 -73 -71 -237 0
-166 -73 -71 -69 0
-166 -73 -71 -153 0
-166 -73 -155 -237 0
-166 -73 -155 -69 0
-166 -73 -155 -153 0
-166 -157 -239 -69 0
-166 -157 -239 -153 0
-166 -157 -71 -69 0
-166 -157 -71 -153 0
-251 -242 -71 -238 0
-251 -242 -71 -70 0
-251 -242 -155 -238 0
-251 -242 -155 -70 0
-251 -74 -239 -238 0
-251 -74 -239 -70 0
-251 -74 -239 -154 0
-251 -74 -71 -238 0
-251 -74 -71 -70 0
-251 -74 -71 -154 0
-251 -74 -155 -238 0
-251 -74 -155 -70 0
-251 -158 -239 -238 0
-251 -158 -239 -70 0
-251 -158 -239 -154 0
-251 -158 -71 -238 0
-251 -158 -71 -70 0
-251 -158 -71 -154 0
-251 -158 -155 -238 0
-251 -158 -155 -70 0
-83 -242 -239 -70 0
-83 -242 -239 -154 0
-83 -242 -71 -238 0
-83 -242 -71 -70 0
-83 -242 -71 -154 0
-83 -242 -155 -238 0
-83 -242 -155 -70 0
-83 -242 -155 -154 0
-83 -74 -239 -238 0
-83 -74 -239 -70 0
-83 -74 -239 -154 0
-83 -74 -71 -238 0
-83 -74 -71 -70 0
-83 -74 -71 -154 0
-83 -74 -155 -238 0
-83 -74 -155 -70 0
-83 -74 -155 -154 0
-83 -158 -239 -238 0
-83 -158 -239 -70 0
-83 -158 -239 -154 0
-83 -158 -71 -238 0
-83 -158 -71 -70 0
-83 -158 -71 -154 0
-83 -158 -155 -238 0
-83 -158 -155 -70 0
-167 -242 -239 -70 0
-167 -242 -239 -154 0
-167 -242 -71 -238 0
-167 -242 -71 -70 0
-167 -242 -71 -154 0
-167 -242 -155 -238 0
-167 -242 -155 -70 0
-167 -242 -155 -154 0
-167 -74 -239 -70 0
-167 -74 -239 -154 0
-167 -74 -71 -238 0
-167 -74 -71 -70 0
-167 -74 -71 -154 0
-167 -74 -155 -238 0
-167 -74 -155 -70 0
-167 -74 -155 -154 0
-167 -158 -239 -70 0
-167 -158 -239 -154 0
-167 -158 -71 -70 0
-167 -158 -71 -154 0
-252 -242 -73 -240 0
-252 -242 -73 -72 0
-252 -242 -157 -240 0
-252 -242 -157 -72 0
-252 -74 -241 -240 0
-252 -74 -241 -72 0
-252 -74 -241 -156 0
-252 -74 -73 -240 0
-252 -74 -73 -72 0
-252 -74 -73 -156 0
-252 -74 -157 -240 0
-252 -74 -157 -72 0
-252 -158 -241 -240 0
-252 -158 -241 -72 0
-252 -158 -241 -156 0
-252 -158 -73 -240 0
-252 -158 -73 -72 0
-252 -158 -73 -156 0
-252 -158 -157 -240 0
-252 -158 -157 -72 0
-84 -242 -241 -72 0
-84 -242 -241 -156 0
-84 -242 -73 -240 0
-84 -242 -73 -72 0
-84 -242 -73 -156 0
-84 -242 -157 -240 0
-84 -242 -157 -72 0
-84 -242 -157 -156 0
-84 -74 -241 -240 0
-84 -74 -241 -72 0
-84 -74 -241 -156 0
-84 -74 -73 -240 0
-84 -74 -73 -72 0
-84 -74 -73 -156 0
-84 -74 -157 -240 0
-84 -74 -157 -72 0
-84 -74 -157 -156 0
-84 -158 -241 -240 0
-84 -158 -241 -72 0
-84 -158 -241 -156 0
-84 -158 -73 -240 0
-84 -158 -73 -72 0
-84 -158 -73 -156 0
-84 -158 -157 -240 0
-84 -158 -157 -72 0
-168 -242 -241 -72 0
-168 -242 -241 -156 0
-168 -242 -73 -240 0
-168 -242 -73 -72 0
-168 -242 -73 -156 0
-168 -242 -157 -240 0
-168 -242 -157 -72 0
-168 -242 -157 -156 0
-168 -74 -241 -72 0
-168 -74 -241 -156 0
-168 -74 -73 -240 0
-168 -74 -73 -72 0
-168 -74 -73 -156 0
-168 -74 -157 -240 0
-168 -74 -157 -72 0
-168 -74 -157 -156 0
-168 -158 -241 -72 0
-168 -158 -241 -156 0
-168 -158 -73 -72 0
-168 -158 -73 -156 0
-249 -246 -76 -243 0
-249 -246 -76 -75 0
-249 -246 -160 -243 0
-249 -246 -160 -75 0
-249 -78 -244 -243 0
-249 -78 -244 -75 0
-249 -78 -244 -159 0
-249 -78 -76 -243 0
-249 -78 -76 -75 0
-249 -78 -76 -159 0
-249 -78 -160 -243 0
-249 -78 -160 -75 0
-249 -162 -244 -243 0
-249 -162 -244 -75 0
-249 -162 -244 -159 0
-249 -162 -76 -243 0
-249 -162 -76 -75 0
-249 -162 -76 -159 0
-249 -162 -160 -243 0
-249 -162 -160 -75 0
-81 -246 -244 -75 0
-81 -246 -244 -159 0
-81 -246 -76 -243 0
-81 -246 -76 -75 0
-81 -246 -76 -159 0
-81 -246 -160 -243 0
-81 -246 -160 -75 0
-81 -246 -160 -159 0
-81 -78 -244 -243 0
-81 -78 -244 -75 0
-81 -78 -244 -159 0
-81 -78 -76 -243 0
-81 -78 -76 -75 0
-81 -78 -76 -159 0
-81 -78 -160 -243 0
-81 -78 -160 -75 0
-81 -78 -160 -159 0
-81 -162 -244 -243 0
-81 -162 -244 -75 0
-81 -162 -244 -159 0
-81 -162 -76 -243 0
-81 -162 -76 -75 0
-81 -162 -76 -159 0
-81 -162 -160 -243 0
-81 -162 -160 -75 0
-165 -246 -244 -75 0
-165 -246 -244 -159 0
-165 -246 -76 -243 0
-165 -246 -76 -75 0
-165 -246 -76 -159 0
-165 -246 -160 -243 0
-165 -246 -160 -75 0
-165 -246 -160 -159 0
-165 -78 -244 -75 0
-165 -78 -244 -159 0
-165 -78 -76 -243 0
-165 -78 -76 -75 0
-165 -78 -76 -159 0
-165 -78 -160 -243 0
-165 -78 -160 -75 0
-165 -78 -160 -159 0
-165 -162 -244 -75 0
-165 -162 -244 -159 0
-165 -162 -76 -75 0
-165 -162 -76 -159 0
-250 -247 -77 -243 0
-250 -247 -77 -75 0
-250 -247 -161 -243 0
-250 -247 -161 -75 0
-250 -79 -245 -243 0
-250 -79 -245 -75 0
-250 -79 -245 -159 0
-250 -79 -77 -243 0
-250 -79 -77 -75 0
-250 -79 -77 -159 0
-250 -79 -161 -243 0
-250 -79 -161 -75 0
-250 -163 -245 -243 0
-250 -163 -245 -75 0
-250 -163 -245 -159 0
-250 -163 -77 -243 0
-250 -163 -77 -75 0
-250 -163 -77 -159 0
-250 -163 -161 -243 0
-250 -163 -161 -75 0
-82 -247 -245 -75 0
-82 -247 -245 -159 0
-82 -247 -77 -243 0
-82 -247 -77 -75 0
-82 -247 -77 -159 0
-82 -247 -161 -243 0
-82 -247 -161 -75 0
-82 -247 -161 -159 0
-82 -79 -245 -243 0
-82 -79 -245 -75 0
-82 -79 -245 -159 0
-82 -79 -77 -243 0
-82 -79 -77 -75 0
-82 -79 -77 -159 0
-82 -79 -161 -243 0
-82 -79 -161 -75 0
-82 -79 -161 -159 0
-82 -163 -245 -243 0
-82 -163 -245 -75 0
-82 -163 -245 -159 0
-82 -163 -77 -243 0
-82 -163 -77 -75 0
-82 -163 -77 -159 0
-82 -163 -161 -243 0
-82 -163 -161 -75 0
-166 -247 -245 -75 0
-166 -247 -245 -159 0
-166 -247 -77 -243 0
-166 -247 -77 -75 0
-166 -247 -77 -159 0
-166 -247 -161 -243 0
-166 -247 -161 -75 0
-166 -247 -161 -159 0
-166 -79 -245 -75 0
-166 -79 -245 -159 0
-166 -79 -77 -243 0
-166 -79 -77 -75 0
-166 -79 -77 -159 0
-166 -79 -161 -243 0
-166 -79 -161 -75 0
-166 -79 -161 -159 0
-166 -163 -245 -75 0
-166 -163 -245 -159 0
-166 -163 -77 -75 0
-166 -163 -77 -159 0
-251 -248 -77 -244 0
-251 -248 -77 -76 0
-251 -248 -161 -244 0
-251 -248 -161 -76 0
-251 -80 -245 -244 0
-251 -80 -245 -76 0
-251 -80 -245 -160 0
-251 -80 -77 -244 0
-251 -80 -77 -76 0
-251 -80 -77 -160 0
-251 -80 -161 -244 0
-251 -80 -161 -76 0
-251 -164 -245 -244 0
-251 -164 -245 -76 0
-251 -164 -245 -160 0
-251 -164 -77 -244 0
-251 -164 -77 -76 0
-251 -164 -77 -160 0
-251 -164 -161 -244 0
-251 -164 -161 -76 0
-83 -248 -245 -76 0
-83 -248 -245 -160 0
-83 -248 -77 -244 0
-83 -248 -77 -76 0
-83 -248 -77 -160 0
-83 -248 -161 -244 0
-83 -248 -161 -76 0
-83 -248 -161 -160 0
-83 -80 -245 -244 0
-83 -80 -245 -76 0
-83 -80 -245 -160 0
-83 -80 -77 -244 0
-83 -80 -77 -76 0
-83 -80 -77 -160 0
-83 -80 -161 -244 0
-83 -80 -161 -76 0
-83 -80 -161 -160 0
-83 -164 -245 -244 0
-83 -164 -245 -76 0
-83 -164 -245 -160 0
-83 -164 -77 -244 0
-83 -164 -77 -76 0
-83 -164 -77 -160 0
-83 -164 -161 -244 0
-83 -164 -161 -76 0
-167 -248 -245 -76 0
-167 -248 -245 -160 0
-167 -248 -77 -244 0
-167 -248 -77 -76 0
-167 -248 -77 -160 0
-167 -248 -161 -244 0
-167 -248 -161 -76 0
-167 -248 -161 -160 0
-167 -80 -245 -76 0
-167 -80 -245 -160 0
-167 -80 -77 -244 0
-167 -80 -77 -76 0
-167 -80 -77 -160 0
-167 -80 -161 -244 0
-167 -80 -161 -76 0
-167 -80 -161 -160 0
-167 -164 -245 -76 0
-167 -164 -245 -160 0
-167 -164 -77 -76 0
-167 -164 -77 -160 0
-252 -248 -79 -246 0
-252 -248 -79 -78 0
-252 -248 -163 -246 0
-252 -248 -163 -78 0
-252 -80 -247 -246 0
-252 -80 -247 -78 0
-252 -80 -247 -162 0
-252 -80 -79 -246 0
-252 -80 -79 -78 0
-252 -80 -79 -162 0
-252 -80 -163 -246 0
-252 -80 -163 -78 0
-252 -164 -247 -246 0
-252 -164 -247 -78 0
-252 -164 -247 -162 0
-252 -164 -79 -246 0
-252 -164 -79 -78 0
-252 -164 -79 -162 0
-252 -164 -163 -246 0
-252 -164 -163 -78 0
-84 -248 -247 -78 0
-84 -248 -247 -162 0
-84 -248 -79 -246 0
-84 -248 -79 -78 0
-84 -248 -79 -162 0
-84 -248 -163 -246 0
-84 -248 -163 -78 0
-84 -248 -163 -162 0
-84 -80 -247 -246 0
-84 -80 -247 -78 0
-84 -80 -247 -162 0
-84 -80 -79 -246 0
-84 -80 -79 -78 0
-84 -80 -79 -162 0
-84 -80 -163 -246 0
-84 -80 -163 -78 0
-84 -80 -163 -162 0
-84 -164 -247 -246 0
-84 -164 -247 -78 0
-84 -164 -247 -162 0
-84 -164 -79 -246 0
-84 -164 -79 -78 0
-84 -164 -79 -162 0
-84 -164 -163 -246 0
-84 -164 -163 -78 0
-168 -248 -247 -78 0
-168 -248 -247 -162 0
-168 -248 -79 -246 0
-168 -248 -79 -78 0
-168 -248 -79 -162 0
-168 -248 -163 -246 0
-168 -248 -163 -78 0
-168 -248 -163 -162 0
-168 -80 -247 -78 0
-168 -80 -247 -162 0
-168 -80 -79 -246 0
-168 -80 -79 -78 0
-168 -80 -79 -162 0
-168 -80 -163 -246 0
-168 -80 -163 -78 0
-168 -80 -163 -162 0
-168 -164 -247 -78 0
-168 -164 -247 -162 0
-168 -164 -79 -78 0
-168 -164 -79 -162 0
-252 -251 -82 -249 0
-252 -251 -82 -81 0
-252 -251 -166 -249 0
-252 -251 -166 -81 0
-252 -83 -250 -249 0
-252 -83 -250 -81 0
-252 -83 -250 -165 0
-252 -83 -82 -249 0
-252 -83 -82 -81 0
-252 -83 -82 -165 0
-252 -83 -166 -249 0
-252 -83 -166 -81 0
-252 -167 -250 -249 0
-252 -167 -250 -81 0
-252 -167 -250 -165 0
-252 -167 -82 -249 0
-252 -167 -82 -81 0
-252 -167 -82 -165 0
-252 -167 -166 -249 0
-252 -167 -166 -81 0
-84 -251 -250 -81 0
-84 -251 -250 -165 0
-84 -251 -82 -249 0
-84 -251 -82 -81 0
-84 -251 -82 -165 0
-84 -251 -166 -249 0
-84 -251 -166 -81 0
-84 -251 -166 -165 0
-84 -83 -250 -249 0
-84 -83 -250 -81 0
-84 -83 -250 -165 0
-84 -83 -82 -249 0
-84 -83 -82 -81 0
-84 -83 -82 -165 0
-84 -83 -166 -249 0
-84 -83 -166 -81 0
-84 -83 -166 -165 0
-84 -167 -250 -249 0
-84 -167 -250 -81 0
-84 -167 -250 -165 0
-84 -167 -82 -249 0
-84 -167 -82 -81 0
-84 -167 -82 -165 0
-84 -167 -166 -249 0
-84 -167 -166 -81 0
-168 -251 -250 -81 0
-168 -251 -250 -165 0
-168 -251 -82 -249 0
-168 -251 -82 -81 0
-168 -251 -82 -165 0
-168 -251 -166 -249 0
-168 -251 -166 -81 0
-168 -251 -166 -165 0
-168 -83 -250 -81 0
-168 -83 -250 -165 0
-168 -83 -82 -249 0
-168 -83 -82 -81 0
-168 -83 -82 -165 0
-168 -83 -166 -249 0
-168 -83 -166 -81 0
-168 -83 -166 -165 0
-168 -167 -250 -81 0
-168 -167 -250 -165 0
-168 -167 -82 -81 0
-168 -167 -82 -165 0
-253 -1 0
-253 -170 -92 0
-253 -170 -113 0
-253 -176 -86 0
-253 -176 -113 0
-253 -197 -86 0
-253 -197 -92 0
-253 -171 -93 0
-253 -171 -114 0
-253 -177 -87 0
-253 -177 -114 0
-253 -198 -87 0
-253 -198 -93 0
-253 -172 -94 0
-253 -172 -115 0
-253 -178 -88 0
-253 -178 -115 0
-253 -199 -88 0
-253 -199 -94 0
-253 -173 -95 0
-253 -173 -116 0
-253 -179 -89 0
-253 -179 -116 0
-253 -200 -89 0
-253 -200 -95 0
-253 -174 -96 0
-253 -174 -117 0
-253 -180 -90 0
-253 -180 -117 0
-253 -201 -90 0
-253 -201 -96 0
-253 -175 -97 0
-253 -175 -118 0
-253 -181 -91 0
-253 -181 -118 0
-253 -202 -91 0
-253 -202 -97 0
-254 -2 0
-254 -169 -176 0
-254 -169 -197 0
-254 -92 -85 0
-254 -92 -197 0
-254 -113 -85 0
-254 -113 -176 0
-254 -171 -98 0
-254 -171 -119 0
-254 -182 -87 0
-254 -182 -119 0
-254 -203 -87 0
-254 -203 -98 0
-254 -172 -99 0
-254 -172 -120 0
-254 -183 -88 0
-254 -183 -120 0
-254 -204 -88 0
-254 -204 -99 0
-254 -173 -100 0
-254 -173 -121 0
-254 -184 -89 0
-254 -184 -121 0
-254 -205 -89 0
-254 -205 -100 0
-254 -174 -101 0
-254 -174 -122 0
-254 -185 -90 0
-254 -185 -122 0
-254 -206 -90 0
-254 -206 -101 0
-254 -175 -102 0
-254 -175 -123 0
-254 -186 -91 0
-254 -186 -123 0
-254 -207 -91 0
-254 -207 -102 0
-255 -3 0
-255 -169 -177 0
-255 -169 -198 0
-255 -93 -85 0
-255 -93 -198 0
-255 -114 -85 0
-255 -114 -177 0
-255 -170 -182 0
-255 -170 -203 0
-255 -98 -86 0
-255 -98 -203 0
-255 -119 -86 0
-255 -119 -182 0
-255 -172 -103 0
-255 -172 -124 0
-255 -187 -88 0
-255 -187 -124 0
-255 -208 -88 0
-255 -208 -103 0
-255 -173 -104 0
-255 -173 -125 0
-255 -188 -89 0
-255 -188 -125 0
-255 -209 -89 0
-255 -209 -104 0
-255 -174 -105 0
-255 -174 -126 0
-255 -189 -90 0
-255 -189 -126 0
-255 -210 -90 0
-255 -210 -105 0
-255 -175 -106 0
-255 -175 -127 0
-255 -190 -91 0
-255 -190 -127 0
-255 -211 -91 0
-255 -211 -106 0
-256 -4 0
-256 -169 -178 0
-256 -169 -199 0
-256 -94 -85 0
-256 -94 -199 0
-256 -115 -85 0
-256 -115 -178 0
-256 -170 -183 0
-256 -170 -204 0
-256 -99 -86 0
-256 -99 -204 0
-256 -120 -86 0
-256 -120 -183 0
-256 -171 -187 0
-256 -171 -208 0
-256 -103 -87 0
-256 -103 -208 0
-256 -124 -87 0
-256 -124 -187 0
-256 -173 -107 0
-256 -173 -128 0
-256 -191 -89 0
-256 -191 -128 0
-256 -212 -89 0
-256 -212 -107 0
-256 -174 -108 0
-256 -174 -129 0
-256 -192 -90 0
-256 -192 -129 0
-256 -213 -90 0
-256 -213 -108 0
-256 -175 -109 0
-256 -175 -130 0
-256 -193 -91 0
-256 -193 -130 0
-256 -214 -91 0
-256 -214 -109 0
-257 -5 0
-257 -169 -179 0
-257 -169 -200 0
-257 -95 -85 0
-257 -95 -200 0
-257 -116 -85 0
-257 -116 -179 0
-257 -170 -184 0
-257 -170 -205 0
-257 -100 -86 0
-257 -100 -205 0
-257 -121 -86 0
-257 -121 -184 0
-257 -171 -188 0
-257 -171 -209 0
-257 -104 -87 0
-257 -104 -209 0
-257 -125 -87 0
-257 -125 -188 0
-257 -172 -191 0
-257 -172 -212 0
-257 -107 -88 0
-257 -107 -212 0
-257 -128 -88 0
-257 -128 -191 0
-257 -174 -110 0
-257 -174 -131 0
-257 -194 -90 0
-257 -194 -131 0
-257 -215 -90 0
-257 -215 -110 0
-257 -175 -111 0
-257 -175 -132 0
-257 -195 -91 0
-257 -195 -132 0
-257 -216 -91 0
-257 -216 -111 0
-258 -6 0
-258 -169 -180 0
-258 -169 -201 0
-258 -96 -85 0
-258 -96 -201 0
-258 -117 -85 0
-258 -117 -180 0
-258 -170 -185 0
-258 -170 -206 0
-258 -101 -86 0
-258 -101 -206 0
-258 -122 -86 0
-258 -122 -185 0
-258 -171 -189 0
-258 -171 -210 0
-258 -105 -87 0
-258 -105 -210 0
-258 -126 -87 0
-258 -126 -189 0
-258 -172 -192 0
-258 -172 -213 0
-258 -108 -88 0
-258 -108 -213 0
-258 -129 -88 0
-258 -129 -192 0
-258 -173 -194 0
-258 -173 -215 0
-258 -110 -89 0
-258 -110 -215 0
-258 -131 -89 0
-258 -131 -194 0
-258 -175 -112 0
-258 -175 -133 0
-258 -196 -91 0
-258 -196 -133 0
-258 -217 -91 0
-258 -217 -112 0
-259 -7 0
-259 -169 -181 0
-259 -169 -202 0
-259 -97 -85 0
-259 -97 -202 0
-259 -118 -85 0
-259 -118 -181 0
-259 -170 -186 0
-259 -170 -207 0
-259 -102 -86 0
-259 -102 -207 0
-259 -123 -86 0
-259 -123 -186 0
-259 -171 -190 0
-259 -171 -211 0
-259 -106 -87 0
-259 -106 -211 0
-259 -127 -87 0
-259 -127 -190 0
-259 -172 -193 0
-259 -172 -214 0
-259 -109 -88 0
-259 -109 -214 0
-259 -130 -88 0
-259 -130 -193 0
-259 -173 -195 0
-259 -173 -216 0
-259 -111 -89 0
-259 -111 -216 0
-259 -132 -89 0
-259 -132 -195 0
-259 -174 -196 0
-259 -174 -217 0
-259 -112 -90 0
-259 -112 -217 0
-259 -133 -90 0
-259 -133 -196 0
-260 -8 0
-260 -85 -170 0
-260 -85 -113 0
-260 -86 -169 0
-260 -86 -113 0
-260 -197 -169 0
-260 -197 -170 0
-260 -177 -98 0
-260 -177 -134 0
-260 -182 -93 0
-260 -182 -134 0
-260 -218 -93 0
-260 -218 -98 0
-260 -178 -99 0
-260 -178 -135 0
-260 -183 -94 0
-260 -183 -135 0
-260 -219 -94 0
-260 -219 -99 0
-260 -179 -100 0
-260 -179 -136 0
-260 -184 -95 0
-260 -184 -136 0
-260 -220 -95 0
-260 -220 -100 0
-260 -180 -101 0
-260 -180 -137 0
-260 -185 -96 0
-260 -185 -137 0
-260 -221 -96 0
-260 -221 -101 0
-260 -181 -102 0
-260 -181 -138 0
-260 -186 -97 0
-260 -186 -138 0
-260 -222 -97 0
-260 -222 -102 0
-261 -9 0
-261 -85 -171 0
-261 -85 -114 0
-261 -87 -169 0
-261 -87 -114 0
-261 -198 -169 0
-261 -198 -171 0
-261 -176 -182 0
-261 -176 -218 0
-261 -98 -92 0
-261 -98 -218 0
-261 -134 -92 0
-261 -134 -182 0
-261 -178 -103 0
-261 -178 -139 0
-261 -187 -94 0
-261 -187 -139 0
-261 -223 -94 0
-261 -223 -103 0
-261 -179 -104 0
-261 -179 -140 0
-261 -188 -95 0
-261 -188 -140 0
-261 -224 -95 0
-261 -224 -104 0
-261 -180 -105 0
-261 -180 -141 0
-261 -189 -96 0
-261 -189 -141 0
-261 -225 -96 0
-261 -225 -105 0
-261 -181 -106 0
-261 -181 -142 0
-261 -190 -97 0
-261 -190 -142 0
-261 -226 -97 0
-261 -226 -106 0
-262 -10 0
-262 -85 -172 0
-262 -85 -115 0
-262 -88 -169 0
-262 -88 -115 0
-262 -199 -169 0
-262 -199 -172 0
-262 -176 -183 0
-262 -176 -219 0
-262 -99 -92 0
-262 -99 -219 0
-262 -135 -92 0
-262 -135 -183 0
-262 -177 -187 0
-262 -177 -223 0
-262 -103 -93 0
-262 -103 -223 0
-262 -139 -93 0
-262 -139 -187 0
-262 -179 -107 0
-262 -179 -143 0
-262 -191 -95 0
-262 -191 -143 0
-262 -227 -95 0
-262 -227 -107 0
-262 -180 -108 0
-262 -180 -144 0
-262 -192 -96 0
-262 -192 -144 0
-262 -228 -96 0
-262 -228 -108 0
-262 -181 -109 0
-262 -181 -145 0
-262 -193 -97 0
-262 -193 -145 0
-262 -229 -97 0
-262 -229 -109 0
-263 -11 0
-263 -85 -173 0
-263 -85 -116 0
-263 -89 -169 0
-263 -89 -116 0
-263 -200 -169 0
-263 -200 -173 0
-263 -176 -184 0
-263 -176 -220 0
-263 -100 -92 0
-263 -100 -220 0
-263 -136 -92 0
-263 -136 -184 0
-263 -177 -188 0
-263 -177 -224 0
-263 -104 -93 0
-263 -104 -224 0
-263 -140 -93 0
-263 -140 -188 0
-263 -178 -191 0
-263 -178 -227 0
-263 -107 -94 0
-263 -107 -227 0
-263 -143 -94 0
-263 -143 -191 0
-263 -180 -110 0
-263 -180 -146 0
-263 -194 -96 0
-263 -194 -146 0
-263 -230 -96 0
-263 -230 -110 0
-263 -181 -111 0
-263 -181 -147 0
-263 -195 -97 0
-263 -195 -147 0
-263 -231 -97 0
-263 -231 -111 0
-264 -12 0
-264 -85 -174 0
-264 -85 -117 0
-264 -90 -169 0
-264 -90 -117 0
-264 -201 -169 0
-264 -201 -174 0
-264 -176 -185 0
-264 -176 -221 0
-264 -101 -92 0
-264 -101 -221 0
-264 -137 -92 0
-264 -137 -185 0
-264 -177 -189 0
-264 -177 -225 0
-264 -105 -93 0
-264 -105 -225 0
-264 -141 -93 0
-264 -141 -189 0
-264 -178 -192 0
-264 -178 -228 0
-264 -108 -94 0
-264 -108 -228 0
-264 -144 -94 0
-264 -144 -192 0
-264 -179 -194 0
-264 -179 -230 0
-264 -110 -95 0
-264 -110 -230 0
-264 -146 -95 0
-264 -146 -194 0
-264 -181 -112 0
-264 -181 -148 0
-264 -196 -97 0
-264 -196 -148 0
-264 -232 -97 0
-264 -232 -112 0
-265 -13 0
-265 -85 -175 0
-265 -85 -118 0
-265 -91 -169 0
-265 -91 -118 0
-265 -202 -169 0
-265 -202 -175 0
-265 -176 -186 0
-265 -176 -222 0
-265 -102 -92 0
-265 -102 -222 0
-265 -138 -92 0
-265 -138 -186 0
-265 -177 -190 0
-265 -177 -226 0
-265 -106 -93 0
-265 -106 -226 0
-265 -142 -93 0
-265 -142 -190 0
-265 -178 -193 0
-265 -178 -229 0
-265 -109 -94 0
-265 -109 -229 0
-265 -145 -94 0
-265 -145 -193 0
-265 -179 -195 0
-265 -179 -231 0
-265 -111 -95 0
-265 -111 -231 0
-265 -147 -95 0
-265 -147 -195 0
-265 -180 -196 0
-265 -180 -232 0
-265 -112 -96 0
-265 -112 -232 0
-265 -148 -96 0
-265 -148 -196 0
-266 -14 0
-266 -86 -171 0
-266 -86 -119 0
-266 -87 -170 0
-266 -87 -119 0
-266 -203 -170 0
-266 -203 -171 0
-266 -92 -177 0
-266 -92 -134 0
-266 -93 -176 0
-266 -93 -134 0
-266 -218 -176 0
-266 -218 -177 0
-266 -183 -103 0
-266 -183 -149 0
-266 -187 -99 0
-266 -187 -149 0
-266 -233 -99 0
-266 -233 -103 0
-266 -184 -104 0
-266 -184 -150 0
-266 -188 -100 0
-266 -188 -150 0
-266 -234 -100 0
-266 -234 -104 0
-266 -185 -105 0
-266 -185 -151 0
-266 -189 -101 0
-266 -189 -151 0
-266 -235 -101 0
-266 -235 -105 0
-266 -186 -106 0
-266 -186 -152 0
-266 -190 -102 0
-266 -190 -152 0
-266 -236 -102 0
-266 -236 -106 0
-267 -15 0
-267 -86 -172 0
-267 -86 -120 0
-267 -88 -170 0
-267 -88 -120 0
-267 -204 -170 0
-267 -204 -172 0
-267 -92 -178 0
-267 -92 -135 0
-267 -94 -176 0
-267 -94 -135 0
-267 -219 -176 0
-267 -219 -178 0
-267 -182 -187 0
-267 -182 -233 0
-267 -103 -98 0
-267 -103 -233 0
-267 -149 -98 0
-267 -149 -187 0
-267 -184 -107 0
-267 -184 -153 0
-267 -191 -100 0
-267 -191 -153 0
-267 -237 -100 0
-267 -237 -107 0
-267 -185 -108 0
-267 -185 -154 0
-267 -192 -101 0
-267 -192 -154 0
-267 -238 -101 0
-267 -238 -108 0
-267 -186 -109 0
-267 -186 -155 0
-267 -193 -102 0
-267 -193 -155 0
-267 -239 -102 0
-267 -239 -109 0
-268 -16 0
-268 -86 -173 0
-268 -86 -121 0
-268 -89 -170 0
-268 -89 -121 0
-268 -205 -170 0
-268 -205 -173 0
-268 -92 -179 0
-268 -92 -136 0
-268 -95 -176 0
-268 -95 -136 0
-268 -220 -176 0
-268 -220 -179 0
-268 -182 -188 0
-268 -182 -234 0
-268 -104 -98 0
-268 -104 -234 0
-268 -150 -98 0
-268 -150 -188 0
-268 -183 -191 0
-268 -183 -237 0
-268 -107 -99 0
-268 -107 -237 0
-268 -153 -99 0
-268 -153 -191 0
-268 -185 -110 0
-268 -185 -156 0
-268 -194 -101 0
-268 -194 -156 0
-268 -240 -101 0
-268 -240 -110 0
-268 -186 -111 0
-268 -186 -157 0
-268 -195 -102 0
-268 -195 -157 0
-268 -241 -102 0
-268 -241 -111 0
-269 -17 0
-269 -86 -174 0
-269 -86 -122 0
-269 -90 -170 0
-269 -90 -122 0
-269 -206 -170 0
-269 -206 -174 0
-269 -92 -180 0
-269 -92 -137 0
-269 -96 -176 0
-269 -96 -137 0
-269 -221 -176 0
-269 -221 -180 0
-269 -182 -189 0
-269 -182 -235 0
-269 -105 -98 0
-269 -105 -235 0
-269 -151 -98 0
-269 -151 -189 0
-269 -183 -192 0
-269 -183 -238 0
-269 -108 -99 0
-269 -108 -238 0
-269 -154 -99 0
-269 -154 -192 0
-269 -184 -194 0
-269 -184 -240 0
-269 -110 -100 0
-269 -110 -240 0
-269 -156 -100 0
-269 -156 -194 0
-269 -186 -112 0
-269 -186 -158 0
-269 -196 -102 0
-269 -196 -158 0
-269 -242 -102 0
-269 -242 -112 0
-270 -18 0
-270 -86 -175 0
-270 -86 -123 0
-270 -91 -170 0
-270 -91 -123 0
-270 -207 -170 0
-270 -207 -175 0
-270 -92 -181 0
-270 -92 -138 0
-270 -97 -176 0
-270 -97 -138 0
-270 -222 -176 0
-270 -222 -181 0
-270 -182 -190 0
-270 -182 -236 0
-270 -106 -98 0
-270 -106 -236 0
-270 -152 -98 0
-270 -152 -190 0
-270 -183 -193 0
-270 -183 -239 0
-270 -109 -99 0
-270 -109 -239 0
-270 -155 -99 0
-270 -155 -193 0
-270 -184 -195 0
-270 -184 -241 0
-270 -111 -100 0
-270 -111 -241 0
-270 -157 -100 0
-270 -157 -195 0
-270 -185 -196 0
-270 -185 -242 0
-270 -112 -101 0
-270 -112 -242 0
-270 -158 -101 0
-270 -158 -196 0
-271 -19 0
-271 -87 -172 0
-271 -87 -124 0
-271 -88 -171 0
-271 -88 -124 0
-271 -208 -171 0
-271 -208 -172 0
-271 -93 -178 0
-271 -93 -139 0
-271 -94 -177 0
-271 -94 -139 0
-271 -223 -177 0
-271 -223 -178 0
-271 -98 -183 0
-271 -98 -149 0
-271 -99 -182 0
-271 -99 -149 0
-271 -233 -182 0
-271 -233 -183 0
-271 -188 -107 0
-271 -188 -159 0
-271 -191 -104 0
-271 -191 -159 0
-271 -243 -104 0
-271 -243 -107 0
-271 -189 -108 0
-271 -189 -160 0
-271 -192 -105 0
-271 -192 -160 0
-271 -244 -105 0
-271 -244 -108 0
-271 -190 -109 0
-271 -190 -161 0
-271 -193 -106 0
-271 -193 -161 0
-271 -245 -106 0
-271 -245 -109 0
-272 -20 0
-272 -87 -173 0
-272 -87 -125 0
-272 -89 -171 0
-272 -89 -125 0
-272 -209 -171 0
-272 -209 -173 0
-272 -93 -179 0
-272 -93 -140 0
-272 -95 -177 0
-272 -95 -140 0
-272 -224 -177 0
-272 -224 -179 0
-272 -98 -184 0
-272 -98 -150 0
-272 -100 -182 0
-272 -100 -150 0
-272 -234 -182 0
-272 -234 -184 0
-272 -187 -191 0
-272 -187 -243 0
-272 -107 -103 0
-272 -107 -243 0
-272 -159 -103 0
-272 -159 -191 0
-272 -189 -110 0
-272 -189 -162 0
-272 -194 -105 0
-272 -194 -162 0
-272 -246 -105 0
-272 -246 -110 0
-272 -190 -111 0
-272 -190 -163 0
-272 -195 -106 0
-272 -195 -163 0
-272 -247 -106 0
-272 -247 -111 0
-273 -21 0
-273 -87 -174 0
-273 -87 -126 0
-273 -90 -171 0
-273 -90 -126 0
-273 -210 -171 0
-273 -210 -174 0
-273 -93 -180 0
-273 -93 -141 0
-273 -96 -177 0
-273 -96 -141 0
-273 -225 -177 0
-273 -225 -180 0
-273 -98 -185 0
-273 -98 -151 0
-273 -101 -182 0
-273 -101 -151 0
-273 -235 -182 0
-273 -235 -185 0
-273 -187 -192 0
-273 -187 -244 0
-273 -108 -103 0
-273 -108 -244 0
-273 -160 -103 0
-273 -160 -192 0
-273 -188 -194 0
-273 -188 -246 0
-273 -110 -104 0
-273 -110 -246 0
-273 -162 -104 0
-273 -162 -194 0
-273 -190 -112 0
-273 -190 -164 0
-273 -196 -106 0
-273 -196 -164 0
-273 -248 -106 0
-273 -248 -112 0
-274 -22 0
-274 -87 -175 0
-274 -87 -127 0
-274 -91 -171 0
-274 -91 -127 0
-274 -211 -171 0
-274 -211 -175 0
-274 -93 -181 0
-274 -93 -142 0
-274 -97 -177 0
-274 -97 -142 0
-274 -226 -177 0
-274 -226 -181 0
-274 -98 -186 0
-274 -98 -152 0
-274 -102 -182 0
-274 -102 -152 0
-274 -236 -182 0
-274 -236 -186 0
-274 -187 -193 0
-274 -187 -245 0
-274 -109 -103 0
-274 -109 -245 0
-274 -161 -103 0
-274 -161 -193 0
-274 -188 -195 0
-274 -188 -247 0
-274 -111 -104 0
-274 -111 -247 0
-274 -163 -104 0
-274 -163 -195 0
-274 -189 -196 0
-274 -189 -248 0
-274 -112 -105 0
-274 -112 -248 0
-274 -164 -105 0
-274 -164 -196 0
-275 -23 0
-275 -88 -173 0
-275 -88 -128 0
-275 -89 -172 0
-275 -89 -128 0
-275 -212 -172 0
-275 -212 -173 0
-275 -94 -179 0
-275 -94 -143 0
-275 -95 -178 0
-275 -95 -143 0
-275 -227 -178 0
-275 -227 -179 0
-275 -99 -184 0
-275 -99 -153 0
-275 -100 -183 0
-275 -100 -153 0
-275 -237 -183 0
-275 -237 -184 0
-275 -103 -188 0
-275 -103 -159 0
-275 -104 -187 0
-275 -104 -159 0
-275 -243 -187 0
-275 -243 -188 0
-275 -192 -110 0
-275 -192 -165 0
-275 -194 -108 0
-275 -194 -165 0
-275 -249 -108 0
-275 -249 -110 0
-275 -193 -111 0
-275 -193 -166 0
-275 -195 -109 0
-275 -195 -166 0
-275 -250 -109 0
-275 -250 -111 0
-276 -24 0
-276 -88 -174 0
-276 -88 -129 0
-276 -90 -172 0
-276 -90 -129 0
-276 -213 -172 0
-276 -213 -174 0
-276 -94 -180 0
-276 -94 -144 0
-276 -96 -178 0
-276 -96 -144 0
-276 -228 -178 0
-276 -228 -180 0
-276 -99 -185 0
-276 -99 -154 0
-276 -101 -183 0
-276 -101 -154 0
-276 -238 -183 0
-276 -238 -185 0
-276 -103 -189 0
-276 -103 -160 0
-276 -105 -187 0
-276 -105 -160 0
-276 -244 -187 0
-276 -244 -189 0
-276 -191 -194 0
-276 -191 -249 0
-276 -110 -107 0
-276 -110 -249 0
-276 -165 -107 0
-276 -165 -194 0
-276 -193 -112 0
-276 -193 -167 0
-276 -196 -109 0
-276 -196 -167 0
-276 -251 -109 0
-276 -251 -112 0
-277 -25 0
-277 -88 -175 0
-277 -88 -130 0
-277 -91 -172 0
-277 -91 -130 0
-277 -214 -172 0
-277 -214 -175 0
-277 -94 -181 0
-277 -94 -145 0
-277 -97 -178 0
-277 -97 -145 0
-277 -229 -178 0
-277 -229 -181 0
-277 -99 -186 0
-277 -99 -155 0
-277 -102 -183 0
-277 -102 -155 0
-277 -239 -183 0
-277 -239 -186 0
-277 -103 -190 0
-277 -103 -161 0
-277 -106 -187 0
-277 -106 -161 0
-277 -245 -187 0
-277 -245 -190 0
-277 -191 -195 0
-277 -191 -250 0
-277 -111 -107 0
-277 -111 -250 0
-277 -166 -107 0
-277 -166 -195 0
-277 -192 -196 0
-277 -192 -251 0
-277 -112 -108 0
-277 -112 -251 0
-277 -167 -108 0
-277 -167 -196 0
-278 -26 0
-278 -89 -174 0
-278 -89 -131 0
-278 -90 -173 0
-278 -90 -131 0
-278 -215 -173 0
-278 -215 -174 0
-278 -95 -180 0
-278 -95 -146 0
-278 -96 -179 0
-278 -96 -146 0
-278 -230 -179 0
-278 -230 -180 0
-278 -100 -185 0
-278 -100 -156 0
-278 -101 -184 0
-278 -101 -156 0
-278 -240 -184 0
-278 -240 -185 0
-278 -104 -189 0
-278 -104 -162 0
-278 -105 -188 0
-278 -105 -162 0
-278 -246 -188 0
-278 -246 -189 0
-278 -107 -192 0
-278 -107 -165 0
-278 -108 -191 0
-278 -108 -165 0
-278 -249 -191 0
-278 -249 -192 0
-278 -195 -112 0
-278 -195 -168 0
-278 -196 -111 0
-278 -196 -168 0
-278 -252 -111 0
-278 -252 -112 0
-279 -27 0
-279 -89 -175 0
-279 -89 -132 0
-279 -91 -173 0
-279 -91 -132 0
-279 -216 -173 0
-279 -216 -175 0
-279 -95 -181 0
-279 -95 -147 0
-279 -97 -179 0
-279 -97 -147 0
-279 -231 -179 0
-279 -231 -181 0
-279 -100 -186 0
-279 -100 -157 0
-279 -102 -184 0
-279 -102 -157 0
-279 -241 -184 0
-279 -241 -186 0
-279 -104 -190 0
-279 -104 -163 0
-279 -106 -188 0
-279 -106 -163 0
-279 -247 -188 0
-279 -247 -190 0
-279 -107 -193 0
-279 -107 -166 0
-279 -109 -191 0
-279 -109 -166 0
-279 -250 -191 0
-279 -250 -193 0
-279 -194 -196 0
-279 -194 -252 0
-279 -112 -110 0
-279 -112 -252 0
-279 -168 -110 0
-279 -168 -196 0
-280 -28 0
-280 -90 -175 0
-280 -90 -133 0
-280 -91 -174 0
-280 -91 -133 0
-280 -217 -174 0
-280 -217 -175 0
-280 -96 -181 0
-280 -96 -148 0
-280 -97 -180 0
-280 -97 -148 0
-280 -232 -180 0
-280 -232 -181 0
-280 -101 -186 0
-280 -101 -158 0
-280 -102 -185 0
-280 -102 -158 0
-280 -242 -185 0
-280 -242 -186 0
-280 -105 -190 0
-280 -105 -164 0
-280 -106 -189 0
-280 -106 -164 0
-280 -248 -189 0
-280 -248 -190 0
-280 -108 -193 0
-280 -108 -167 0
-280 -109 -192 0
-280 -109 -167 0
-280 -251 -192 0
-280 -251 -193 0
-280 -110 -195 0
-280 -110 -168 0
-280 -111 -194 0
-280 -111 -168 0
-280 -252 -194 0
-280 -252 -195 0
-281 -29 0
-281 -169 -86 0
-281 -169 -92 0
-281 -170 -85 0
-281 -170 -92 0
-281 -176 -85 0
-281 -176 -86 0
-281 -198 -119 0
-281 -198 -134 0
-281 -203 -114 0
-281 -203 -134 0
-281 -218 -114 0
-281 -218 -119 0
-281 -199 -120 0
-281 -199 -135 0
-281 -204 -115 0
-281 -204 -135 0
-281 -219 -115 0
-281 -219 -120 0
-281 -200 -121 0
-281 -200 -136 0
-281 -205 -116 0
-281 -205 -136 0
-281 -220 -116 0
-281 -220 -121 0
-281 -201 -122 0
-281 -201 -137 0
-281 -206 -117 0
-281 -206 -137 0
-281 -221 -117 0
-281 -221 -122 0
-281 -202 -123 0
-281 -202 -138 0
-281 -207 -118 0
-281 -207 -138 0
-281 -222 -118 0
-281 -222 -123 0
-282 -30 0
-282 -169 -87 0
-282 -169 -93 0
-282 -171 -85 0
-282 -171 -93 0
-282 -177 -85 0
-282 -177 -87 0
-282 -197 -203 0
-282 -197 -218 0
-282 -119 -113 0
-282 -119 -218 0
-282 -134 -113 0
-282 -134 -203 0
-282 -199 -124 0
-282 -199 -139 0
-282 -208 -115 0
-282 -208 -139 0
-282 -223 -115 0
-282 -223 -124 0
-282 -200 -125 0
-282 -200 -140 0
-282 -209 -116 0
-282 -209 -140 0
-282 -224 -116 0
-282 -224 -125 0
-282 -201 -126 0
-282 -201 -141 0
-282 -210 -117 0
-282 -210 -141 0
-282 -225 -117 0
-282 -225 -126 0
-282 -202 -127 0
-282 -202 -142 0
-282 -211 -118 0
-282 -211 -142 0
-282 -226 -118 0
-282 -226 -127 0
-283 -31 0
-283 -169 -88 0
-283 -169 -94 0
-283 -172 -85 0
-283 -172 -94 0
-283 -178 -85 0
-283 -178 -88 0
-283 -197 -204 0
-283 -197 -219 0
-283 -120 -113 0
-283 -120 -219 0
-283 -135 -113 0
-283 -135 -204 0
-283 -198 -208 0
-283 -198 -223 0
-283 -124 -114 0
-283 -124 -223 0
-283 -139 -114 0
-283 -139 -208 0
-283 -200 -128 0
-283 -200 -143 0
-283 -212 -116 0
-283 -212 -143 0
-283 -227 -116 0
-283 -227 -128 0
-283 -201 -129 0
-283 -201 -144 0
-283 -213 -117 0
-283 -213 -144 0
-283 -228 -117 0
-283 -228 -129 0
-283 -202 -130 0
-283 -202 -145 0
-283 -214 -118 0
-283 -214 -145 0
-283 -229 -118 0
-283 -229 -130 0
-284 -32 0
-284 -169 -89 0
-284 -169 -95 0
-284 -173 -85 0
-284 -173 -95 0
-284 -179 -85 0
-284 -179 -89 0
-284 -197 -205 0
-284 -197 -220 0
-284 -121 -113 0
-284 -121 -220 0
-284 -136 -113 0
-284 -136 -205 0
-284 -198 -209 0
-284 -198 -224 0
-284 -125 -114 0
-284 -125 -224 0
-284 -140 -114 0
-284 -140 -209 0
-284 -199 -212 0
-284 -199 -227 0
-284 -128 -115 0
-284 -128 -227 0
-284 -143 -115 0
-284 -143 -212 0
-284 -201 -131 0
-284 -201 -146 0
-284 -215 -117 0
-284 -215 -146 0
-284 -230 -117 0
-284 -230 -131 0
-284 -202 -132 0
-284 -202 -147 0
-284 -216 -118 0
-284 -216 -147 0
-284 -231 -118 0
-284 -231 -132 0
-285 -33 0
-285 -169 -90 0
-285 -169 -96 0
-285 -174 -85 0
-285 -174 -96 0
-285 -180 -85 0
-285 -180 -90 0
-285 -197 -206 0
-285 -197 -221 0
-285 -122 -113 0
-285 -122 -221 0
-285 -137 -113 0
-285 -137 -206 0
-285 -198 -210 0
-285 -198 -225 0
-285 -126 -114 0
-285 -126 -225 0
-285 -141 -114 0
-285 -141 -210 0
-285 -199 -213 0
-285 -199 -228 0
-285 -129 -115 0
-285 -129 -228 0
-285 -144 -115 0
-285 -144 -213 0
-285 -200 -215 0
-285 -200 -230 0
-285 -131 -116 0
-285 -131 -230 0
-285 -146 -116 0
-285 -146 -215 0
-285 -202 -133 0
-285 -202 -148 0
-285 -217 -118 0
-285 -217 -148 0
-285 -232 -118 0
-285 -232 -133 0
-286 -34 0
-286 -169 -91 0
-286 -169 -97 0
-286 -175 -85 0
-286 -175 -97 0
-286 -181 -85 0
-286 -181 -91 0
-286 -197 -207 0
-286 -197 -222 0
-286 -123 -113 0
-286 -123 -222 0
-286 -138 -113 0
-286 -138 -207 0
-286 -198 -211 0
-286 -198 -226 0
-286 -127 -114 0
-286 -127 -226 0
-286 -142 -114 0
-286 -142 -211 0
-286 -199 -214 0
-286 -199 -229 0
-286 -130 -115 0
-286 -130 -229 0
-286 -145 -115 0
-286 -145 -214 0
-286 -200 -216 0
-286 -200 -231 0
-286 -132 -116 0
-286 -132 -231 0
-286 -147 -116 0
-286 -147 -216 0
-286 -201 -217 0
-286 -201 -232 0
-286 -133 -117 0
-286 -133 -232 0
-286 -148 -117 0
-286 -148 -217 0
-287 -35 0
-287 -170 -87 0
-287 -170 -98 0
-287 -171 -86 0
-287 -171 -98 0
-287 -182 -86 0
-287 -182 -87 0
-287 -113 -198 0
-287 -113 -134 0
-287 -114 -197 0
-287 -114 -134 0
-287 -218 -197 0
-287 -218 -198 0
-287 -204 -124 0
-287 -204 -149 0
-287 -208 -120 0
-287 -208 -149 0
-287 -233 -120 0
-287 -233 -124 0
-287 -205 -125 0
-287 -205 -150 0
-287 -209 -121 0
-287 -209 -150 0
-287 -234 -121 0
-287 -234 -125 0
-287 -206 -126 0
-287 -206 -151 0
-287 -210 -122 0
-287 -210 -151 0
-287 -235 -122 0
-287 -235 -126 0
-287 -207 -127 0
-287 -207 -152 0
-287 -211 -123 0
-287 -211 -152 0
-287 -236 -123 0
-287 -236 -127 0
-288 -36 0
-288 -170 -88 0
-288 -170 -99 0
-288 -172 -86 0
-288 -172 -99 0
-288 -183 -86 0
-288 -183 -88 0
-288 -113 -199 0
-288 -113 -135 0
-288 -115 -197 0
-288 -115 -135 0
-288 -219 -197 0
-288 -219 -199 0
-288 -203 -208 0
-288 -203 -233 0
-288 -124 -119 0
-288 -124 -233 0
-288 -149 -119 0
-288 -149 -208 0
-288 -205 -128 0
-288 -205 -153 0
-288 -212 -121 0
-288 -212 -153 0
-288 -237 -121 0
-288 -237 -128 0
-288 -206 -129 0
-288 -206 -154 0
-288 -213 -122 0
-288 -213 -154 0
-288 -238 -122 0
-288 -238 -129 0
-288 -207 -130 0
-288 -207 -155 0
-288 -214 -123 0
-288 -214 -155 0
-288 -239 -123 0
-288 -239 -130 0
-289 -37 0
-289 -170 -89 0
-289 -170 -100 0
-289 -173 -86 0
-289 -173 -100 0
-289 -184 -86 0
-289 -184 -89 0
-289 -113 -200 0
-289 -113 -136 0
-289 -116 -197 0
-289 -116 -136 0
-289 -220 -197 0
-289 -220 -200 0
-289 -203 -209 0
-289 -203 -234 0
-289 -125 -119 0
-289 -125 -234 0
-289 -150 -119 0
-289 -150 -209 0
-289 -204 -212 0
-289 -204 -237 0
-289 -128 -120 0
-289 -128 -237 0
-289 -153 -120 0
-289 -153 -212 0
-289 -206 -131 0
-289 -206 -156 0
-289 -215 -122 0
-289 -215 -156 0
-289 -240 -122 0
-289 -240 -131 0
-289 -207 -132 0
-289 -207 -157 0
-289 -216 -123 0
-289 -216 -157 0
-289 -241 -123 0
-289 -241 -132 0
-290 -38 0
-290 -170 -90 0
-290 -170 -101 0
-290 -174 -86 0
-290 -174 -101 0
-290 -185 -86 0
-290 -185 -90 0
-290 -113 -201 0
-290 -113 -137 0
-290 -117 -197 0
-290 -117 -137 0
-290 -221 -197 0
-290 -221 -201 0
-290 -203 -210 0
-290 -203 -235 0
-290 -126 -119 0
-290 -126 -235 0
-290 -151 -119 0
-290 -151 -210 0
-290 -204 -213 0
-290 -204 -238 0
-290 -129 -120 0
-290 -129 -238 0
-290 -154 -120 0
-290 -154 -213 0
-290 -205 -215 0
-290 -205 -240 0
-290 -131 -121 0
-290 -131 -240 0
-290 -156 -121 0
-290 -156 -215 0
-290 -207 -133 0
-290 -207 -158 0
-290 -217 -123 0
-290 -217 -158 0
-290 -242 -123 0
-290 -242 -133 0
-291 -39 0
-291 -170 -91 0
-291 -170 -102 0
-291 -175 -86 0
-291 -175 -102 0
-291 -186 -86 0
-291 -186 -91 0
-291 -113 -202 0
-291 -113 -138 0
-291 -118 -197 0
-291 -118 -138 0
-291 -222 -197 0
-291 -222 -202 0
-291 -203 -211 0
-291 -203 -236 0
-291 -127 -119 0
-291 -127 -236 0
-291 -152 -119 0
-291 -152 -211 0
-291 -204 -214 0
-291 -204 -239 0
-291 -130 -120 0
-291 -130 -239 0
-291 -155 -120 0
-291 -155 -214 0
-291 -205 -216 0
-291 -205 -241 0
-291 -132 -121 0
-291 -132 -241 0
-291 -157 -121 0
-291 -157 -216 0
-291 -206 -217 0
-291 -206 -242 0
-291 -133 -122 0
-291 -133 -242 0
-291 -158 -122 0
-291 -158 -217 0
-292 -40 0
-292 -171 -88 0
-292 -171 -103 0
-292 -172 -87 0
-292 -172 -103 0
-292 -187 -87 0
-292 -187 -88 0
-292 -114 -199 0
-292 -114 -139 0
-292 -115 -198 0
-292 -115 -139 0
-292 -223 -198 0
-292 -223 -199 0
-292 -119 -204 0
-292 -119 -149 0
-292 -120 -203 0
-292 -120 -149 0
-292 -233 -203 0
-292 -233 -204 0
-292 -209 -128 0
-292 -209 -159 0
-292 -212 -125 0
-292 -212 -159 0
-292 -243 -125 0
-292 -243 -128 0
-292 -210 -129 0
-292 -210 -160 0
-292 -213 -126 0
-292 -213 -160 0
-292 -244 -126 0
-292 -244 -129 0
-292 -211 -130 0
-292 -211 -161 0
-292 -214 -127 0
-292 -214 -161 0
-292 -245 -127 0
-292 -245 -130 0
-293 -41 0
-293 -171 -89 0
-293 -171 -104 0
-293 -173 -87 0
-293 -173 -104 0
-293 -188 -87 0
-293 -188 -89 0
-293 -114 -200 0
-293 -114 -140 0
-293 -116 -198 0
-293 -116 -140 0
-293 -224 -198 0
-293 -224 -200 0
-293 -119 -205 0
-293 -119 -150 0
-293 -121 -203 0
-293 -121 -150 0
-293 -234 -203 0
-293 -234 -205 0
-293 -208 -212 0
-293 -208 -243 0
-293 -128 -124 0
-293 -128 -243 0
-293 -159 -124 0
-293 -159 -212 0
-293 -210 -131 0
-293 -210 -162 0
-293 -215 -126 0
-293 -215 -162 0
-293 -246 -126 0
-293 -246 -131 0
-293 -211 -132 0
-293 -211 -163 0
-293 -216 -127 0
-293 -216 -163 0
-293 -247 -127 0
-293 -247 -132 0
-294 -42 0
-294 -171 -90 0
-294 -171 -105 0
-294 -174 -87 0
-294 -174 -105 0
-294 -189 -87 0
-294 -189 -90 0
-294 -114 -201 0
-294 -114 -141 0
-294 -117 -198 0
-294 -117 -141 0
-294 -225 -198 0
-294 -225 -201 0
-294 -119 -206 0
-294 -119 -151 0
-294 -122 -203 0
-294 -122 -151 0
-294 -235 -203 0
-294 -235 -206 0
-294 -208 -213 0
-294 -208 -244 0
-294 -129 -124 0
-294 -129 -244 0
-294 -160 -124 0
-294 -160 -213 0
-294 -209 -215 0
-294 -209 -246 0
-294 -131 -125 0
-294 -131 -246 0
-294 -162 -125 0
-294 -162 -215 0
-294 -211 -133 0
-294 -211 -164 0
-294 -217 -127 0
-294 -217 -164 0
-294 -248 -127 0
-294 -248 -133 0
-295 -43 0
-295 -171 -91 0
-295 -171 -106 0
-295 -175 -87 0
-295 -175 -106 0
-295 -190 -87 0
-295 -190 -91 0
-295 -114 -202 0
-295 -114 -142 0
-295 -118 -198 0
-295 -118 -142 0
-295 -226 -198 0
-295 -226 -202 0
-295 -119 -207 0
-295 -119 -152 0
-295 -123 -203 0
-295 -123 -152 0
-295 -236 -203 0
-295 -236 -207 0
-295 -208 -214 0
-295 -208 -245 0
-295 -130 -124 0
-295 -130 -245 0
-295 -161 -124 0
-295 -161 -214 0
-295 -209 -216 0
-295 -209 -247 0
-295 -132 -125 0
-295 -132 -247 0
-295 -163 -125 0
-295 -163 -216 0
-295 -210 -217 0
-295 -210 -248 0
-295 -133 -126 0
-295 -133 -248 0
-295 -164 -126 0
-295 -164 -217 0
-296 -44 0
-296 -172 -89 0
-296 -172 -107 0
-296 -173 -88 0
-296 -173 -107 0
-296 -191 -88 0
-296 -191 -89 0
-296 -115 -200 0
-296 -115 -143 0
-296 -116 -199 0
-296 -116 -143 0
-296 -227 -199 0
-296 -227 -200 0
-296 -120 -205 0
-296 -120 -153 0
-296 -121 -204 0
-296 -121 -153 0
-296 -237 -204 0
-296 -237 -205 0
-296 -124 -209 0
-296 -124 -159 0
-296 -125 -208 0
-296 -125 -159 0
-296 -243 -208 0
-296 -243 -209 0
-296 -213 -131 0
-296 -213 -165 0
-296 -215 -129 0
-296 -215 -165 0
-296 -249 -129 0
-296 -249 -131 0
-296 -214 -132 0
-296 -214 -166 0
-296 -216 -130 0
-296 -216 -166 0
-296 -250 -130 0
-296 -250 -132 0
-297 -45 0
-297 -172 -90 0
-297 -172 -108 0
-297 -174 -88 0
-297 -174 -108 0
-297 -192 -88 0
-297 -192 -90 0
-297 -115 -201 0
-297 -115 -144 0
-297 -117 -199 0
-297 -117 -144 0
-297 -228 -199 0
-297 -228 -201 0
-297 -120 -206 0
-297 -120 -154 0
-297 -122 -204 0
-297 -122 -154 0
-297 -238 -204 0
-297 -238 -206 0
-297 -124 -210 0
-297 -124 -160 0
-297 -126 -208 0
-297 -126 -160 0
-297 -244 -208 0
-297 -244 -210 0
-297 -212 -215 0
-297 -212 -249 0
-297 -131 -128 0
-297 -131 -249 0
-297 -165 -128 0
-297 -165 -215 0
-297 -214 -133 0
-297 -214 -167 0
-297 -217 -130 0
-297 -217 -167 0
-297 -251 -130 0
-297 -251 -133 0
-298 -46 0
-298 -172 -91 0
-298 -172 -109 0
-298 -175 -88 0
-298 -175 -109 0
-298 -193 -88 0
-298 -193 -91 0
-298 -115 -202 0
-298 -115 -145 0
-298 -118 -199 0
-298 -118 -145 0
-298 -229 -199 0
-298 -229 -202 0
-298 -120 -207 0
-298 -120 -155 0
-298 -123 -204 0
-298 -123 -155 0
-298 -239 -204 0
-298 -239 -207 0
-298 -124 -211 0
-298 -124 -161 0
-298 -127 -208 0
-298 -127 -161 0
-298 -245 -208 0
-298 -245 -211 0
-298 -212 -216 0
-298 -212 -250 0
-298 -132 -128 0
-298 -132 -250 0
-298 -166 -128 0
-298 -166 -216 0
-298 -213 -217 0
-298 -213 -251 0
-298 -133 -129 0
-298 -133 -251 0
-298 -167 -129 0
-298 -167 -217 0
-299 -47 0
-299 -173 -90 0
-299 -173 -110 0
-299 -174 -89 0
-299 -174 -110 0
-299 -194 -89 0
-299 -194 -90 0
-299 -116 -201 0
-299 -116 -146 0
-299 -117 -200 0
-299 -117 -146 0
-299 -230 -200 0
-299 -230 -201 0
-299 -121 -206 0
-299 -121 -156 0
-299 -122 -205 0
-299 -122 -156 0
-299 -240 -205 0
-299 -240 -206 0
-299 -125 -210 0
-299 -125 -162 0
-299 -126 -209 0
-299 -126 -162 0
-299 -246 -209 0
-299 -246 -210 0
-299 -128 -213 0
-299 -128 -165 0
-299 -129 -212 0
-299 -129 -165 0
-299 -249 -212 0
-299 -249 -213 0
-299 -216 -133 0
-299 -216 -168 0
-299 -217 -132 0
-299 -217 -168 0
-299 -252 -132 0
-299 -252 -133 0
-300 -48 0
-300 -173 -91 0
-300 -173 -111 0
-300 -175 -89 0
-300 -175 -111 0
-300 -195 -89 0
-300 -195 -91 0
-300 -116 -202 0
-300 -116 -147 0
-300 -118 -200 0
-300 -118 -147 0
-300 -231 -200 0
-300 -231 -202 0
-300 -121 -207 0
-300 -121 -157 0
-300 -123 -205 0
-300 -123 -157 0
-300 -241 -205 0
-300 -241 -207 0
-300 -125 -211 0
-300 -125 -163 0
-300 -127 -209 0
-300 -127 -163 0
-300 -247 -209 0
-300 -247 -211 0
-300 -128 -214 0
-300 -128 -166 0
-300 -130 -212 0
-300 -130 -166 0
-300 -250 -212 0
-300 -250 -214 0
-300 -215 -217 0
-300 -215 -252 0
-300 -133 -131 0
-300 -133 -252 0
-300 -168 -131 0
-300 -168 -217 0
-301 -49 0
-301 -174 -91 0
-301 -174 -112 0
-301 -175 -90 0
-301 -175 -112 0
-301 -196 -90 0
-301 -196 -91 0
-301 -117 -202 0
-301 -117 -148 0
-301 -118 -201 0
-301 -118 -148 0
-301 -232 -201 0
-301 -232 -202 0
-301 -122 -207 0
-301 -122 -158 0
-301 -123 -206 0
-301 -123 -158 0
-301 -242 -206 0
-301 -242 -207 0
-301 -126 -211 0
-301 -126 -164 0
-301 -127 -210 0
-301 -127 -164 0
-301 -248 -210 0
-301 -248 -211 0
-301 -129 -214 0
-301 -129 -167 0
-301 -130 -213 0
-301 -130 -167 0
-301 -251 -213 0
-301 -251 -214 0
-301 -131 -216 0
-301 -131 -168 0
-301 -132 -215 0
-301 -132 -168 0
-301 -252 -215 0
-301 -252 -216 0
-302 -50 0
-302 -176 -93 0
-302 -176 -98 0
-302 -177 -92 0
-302 -177 -98 0
-302 -182 -92 0
-302 -182 -93 0
-302 -197 -114 0
-302 -197 -119 0
-302 -198 -113 0
-302 -198 -119 0
-302 -203 -113 0
-302 -203 -114 0
-302 -219 -139 0
-302 -219 -149 0
-302 -223 -135 0
-302 -223 -149 0
-302 -233 -135 0
-302 -233 -139 0
-302 -220 -140 0
-302 -220 -150 0
-302 -224 -136 0
-302 -224 -150 0
-302 -234 -136 0
-302 -234 -140 0
-302 -221 -141 0
-302 -221 -151 0
-302 -225 -137 0
-302 -225 -151 0
-302 -235 -137 0
-302 -235 -141 0
-302 -222 -142 0
-302 -222 -152 0
-302 -226 -138 0
-302 -226 -152 0
-302 -236 -138 0
-302 -236 -142 0
-303 -51 0
-303 -176 -94 0
-303 -176 -99 0
-303 -178 -92 0
-303 -178 -99 0
-303 -183 -92 0
-303 -183 -94 0
-303 -197 -115 0
-303 -197 -120 0
-303 -199 -113 0
-303 -199 -120 0
-303 -204 -113 0
-303 -204 -115 0
-303 -218 -223 0
-303 -218 -233 0
-303 -139 -134 0
-303 -139 -233 0
-303 -149 -134 0
-303 -149 -223 0
-303 -220 -143 0
-303 -220 -153 0
-303 -227 -136 0
-303 -227 -153 0
-303 -237 -136 0
-303 -237 -143 0
-303 -221 -144 0
-303 -221 -154 0
-303 -228 -137 0
-303 -228 -154 0
-303 -238 -137 0
-303 -238 -144 0
-303 -222 -145 0
-303 -222 -155 0
-303 -229 -138 0
-303 -229 -155 0
-303 -239 -138 0
-303 -239 -145 0
-304 -52 0
-304 -176 -95 0
-304 -176 -100 0
-304 -179 -92 0
-304 -179 -100 0
-304 -184 -92 0
-304 -184 -95 0
-304 -197 -116 0
-304 -197 -121 0
-304 -200 -113 0
-304 -200 -121 0
-304 -205 -113 0
-304 -205 -116 0
-304 -218 -224 0
-304 -218 -234 0
-304 -140 -134 0
-304 -140 -234 0
-304 -150 -134 0
-304 -150 -224 0
-304 -219 -227 0
-304 -219 -237 0
-304 -143 -135 0
-304 -143 -237 0
-304 -153 -135 0
-304 -153 -227 0
-304 -221 -146 0
-304 -221 -156 0
-304 -230 -137 0
-304 -230 -156 0
-304 -240 -137 0
-304 -240 -146 0
-304 -222 -147 0
-304 -222 -157 0
-304 -231 -138 0
-304 -231 -157 0
-304 -241 -138 0
-304 -241 -147 0
-305 -53 0
-305 -176 -96 0
-305 -176 -101 0
-305 -180 -92 0
-305 -180 -101 0
-305 -185 -92 0
-305 -185 -96 0
-305 -197 -117 0
-305 -197 -122 0
-305 -201 -113 0
-305 -201 -122 0
-305 -206 -113 0
-305 -206 -117 0
-305 -218 -225 0
-305 -218 -235 0
-305 -141 -134 0
-305 -141 -235 0
-305 -151 -134 0
-305 -151 -225 0
-305 -219 -228 0
-305 -219 -238 0
-305 -144 -135 0
-305 -144 -238 0
-305 -154 -135 0
-305 -154 -228 0
-305 -220 -230 0
-305 -220 -240 0
-305 -146 -136 0
-305 -146 -240 0
-305 -156 -136 0
-305 -156 -230 0
-305 -222 -148 0
-305 -222 -158 0
-305 -232 -138 0
-305 -232 -158 0
-305 -242 -138 0
-305 -242 -148 0
-306 -54 0
-306 -176 -97 0
-306 -176 -102 0
-306 -181 -92 0
-306 -181 -102 0
-306 -186 -92 0
-306 -186 -97 0
-306 -197 -118 0
-306 -197 -123 0
-306 -202 -113 0
-306 -202 -123 0
-306 -207 -113 0
-306 -207 -118 0
-306 -218 -226 0
-306 -218 -236 0
-306 -142 -134 0
-306 -142 -236 0
-306 -152 -134 0
-306 -152 -226 0
-306 -219 -229 0
-306 -219 -239 0
-306 -145 -135 0
-306 -145 -239 0
-306 -155 -135 0
-306 -155 -229 0
-306 -220 -231 0
-306 -220 -241 0
-306 -147 -136 0
-306 -147 -241 0
-306 -157 -136 0
-306 -157 -231 0
-306 -221 -232 0
-306 -221 -242 0
-306 -148 -137 0
-306 -148 -242 0
-306 -158 -137 0
-306 -158 -232 0
-307 -55 0
-307 -177 -94 0
-307 -177 -103 0
-307 -178 -93 0
-307 -178 -103 0
-307 -187 -93 0
-307 -187 -94 0
-307 -198 -115 0
-307 -198 -124 0
-307 -199 -114 0
-307 -199 -124 0
-307 -208 -114 0
-307 -208 -115 0
-307 -134 -219 0
-307 -134 -149 0
-307 -135 -218 0
-307 -135 -149 0
-307 -233 -218 0
-307 -233 -219 0
-307 -224 -143 0
-307 -224 -159 0
-307 -227 -140 0
-307 -227 -159 0
-307 -243 -140 0
-307 -243 -143 0
-307 -225 -144 0
-307 -225 -160 0
-307 -228 -141 0
-307 -228 -160 0
-307 -244 -141 0
-307 -244 -144 0
-307 -226 -145 0
-307 -226 -161 0
-307 -229 -142 0
-307 -229 -161 0
-307 -245 -142 0
-307 -245 -145 0
-308 -56 0
-308 -177 -95 0
-308 -177 -104 0
-308 -179 -93 0
-308 -179 -104 0
-308 -188 -93 0
-308 -188 -95 0
-308 -198 -116 0
-308 -198 -125 0
-308 -200 -114 0
-308 -200 -125 0
-308 -209 -114 0
-308 -209 -116 0
-308 -134 -220 0
-308 -134 -150 0
-308 -136 -218 0
-308 -136 -150 0
-308 -234 -218 0
-308 -234 -220 0
-308 -223 -227 0
-308 -223 -243 0
-308 -143 -139 0
-308 -143 -243 0
-308 -159 -139 0
-308 -159 -227 0
-308 -225 -146 0
-308 -225 -162 0
-308 -230 -141 0
-308 -230 -162 0
-308 -246 -141 0
-308 -246 -146 0
-308 -226 -147 0
-308 -226 -163 0
-308 -231 -142 0
-308 -231 -163 0
-308 -247 -142 0
-308 -247 -147 0
-309 -57 0
-309 -177 -96 0
-309 -177 -105 0
-309 -180 -93 0
-309 -180 -105 0
-309 -189 -93 0
-309 -189 -96 0
-309 -198 -117 0
-309 -198 -126 0
-309 -201 -114 0
-309 -201 -126 0
-309 -210 -114 0
-309 -210 -117 0
-309 -134 -221 0
-309 -134 -151 0
-309 -137 -218 0
-309 -137 -151 0
-309 -235 -218 0
-309 -235 -221 0
-309 -223 -228 0
-309 -223 -244 0
-309 -144 -139 0
-309 -144 -244 0
-309 -160 -139 0
-309 -160 -228 0
-309 -224 -230 0
-309 -224 -246 0
-309 -146 -140 0
-309 -146 -246 0
-309 -162 -140 0
-309 -162 -230 0
-309 -226 -148 0
-309 -226 -164 0
-309 -232 -142 0
-309 -232 -164 0
-309 -248 -142 0
-309 -248 -148 0
-310 -58 0
-310 -177 -97 0
-310 -177 -106 0
-310 -181 -93 0
-310 -181 -106 0
-310 -190 -93 0
-310 -190 -97 0
-310 -198 -118 0
-310 -198 -127 0
-310 -202 -114 0
-310 -202 -127 0
-310 -211 -114 0
-310 -211 -118 0
-310 -134 -222 0
-310 -134 -152 0
-310 -138 -218 0
-310 -138 -152 0
-310 -236 -218 0
-310 -236 -222 0
-310 -223 -229 0
-310 -223 -245 0
-310 -145 -139 0
-310 -145 -245 0
-310 -161 -139 0
-310 -161 -229 0
-310 -224 -231 0
-310 -224 -247 0
-310 -147 -140 0
-310 -147 -247 0
-310 -163 -140 0
-310 -163 -231 0
-310 -225 -232 0
-310 -225 -248 0
-310 -148 -141 0
-310 -148 -248 0
-310 -164 -141 0
-310 -164 -232 0
-311 -59 0
-311 -178 -95 0
-311 -178 -107 0
-311 -179 -94 0
-311 -179 -107 0
-311 -191 -94 0
-311 -191 -95 0
-311 -199 -116 0
-311 -199 -128 0
-311 -200 -115 0
-311 -200 -128 0
-311 -212 -115 0
-311 -212 -116 0
-311 -135 -220 0
-311 -135 -153 0
-311 -136 -219 0
-311 -136 -153 0
-311 -237 -219 0
-311 -237 -220 0
-311 -139 -224 0
-311 -139 -159 0
-311 -140 -223 0
-311 -140 -159 0
-311 -243 -223 0
-311 -243 -224 0
-311 -228 -146 0
-311 -228 -165 0
-311 -230 -144 0
-311 -230 -165 0
-311 -249 -144 0
-311 -249 -146 0
-311 -229 -147 0
-311 -229 -166 0
-311 -231 -145 0
-311 -231 -166 0
-311 -250 -145 0
-311 -250 -147 0
-312 -60 0
-312 -178 -96 0
-312 -178 -108 0
-312 -180 -94 0
-312 -180 -108 0
-312 -192 -94 0
-312 -192 -96 0
-312 -199 -117 0
-312 -199 -129 0
-312 -201 -115 0
-312 -201 -129 0
-312 -213 -115 0
-312 -213 -117 0
-312 -135 -221 0
-312 -135 -154 0
-312 -137 -219 0
-312 -137 -154 0
-312 -238 -219 0
-312 -238 -221 0
-312 -139 -225 0
-312 -139 -160 0
-312 -141 -223 0
-312 -141 -160 0
-312 -244 -223 0
-312 -244 -225 0
-312 -227 -230 0
-312 -227 -249 0
-312 -146 -143 0
-312 -146 -249 0
-312 -165 -143 0
-312 -165 -230 0
-312 -229 -148 0
-312 -229 -167 0
-312 -232 -145 0
-312 -232 -167 0
-312 -251 -145 0
-312 -251 -148 0
-313 -61 0
-313 -178 -97 0
-313 -178 -109 0
-313 -181 -94 0
-313 -181 -109 0
-313 -193 -94 0
-313 -193 -97 0
-313 -199 -118 0
-313 -199 -130 0
-313 -202 -115 0
-313 -202 -130 0
-313 -214 -115 0
-313 -214 -118 0
-313 -135 -222 0
-313 -135 -155 0
-313 -138 -219 0
-313 -138 -155 0
-313 -239 -219 0
-313 -239 -222 0
-313 -139 -226 0
-313 -139 -161 0
-313 -142 -223 0
-313 -142 -161 0
-313 -245 -223 0
-313 -245 -226 0
-313 -227 -231 0
-313 -227 -250 0
-313 -147 -143 0
-313 -147 -250 0
-313 -166 -143 0
-313 -166 -231 0
-313 -228 -232 0
-313 -228 -251 0
-313 -148 -144 0
-313 -148 -251 0
-313 -167 -144 0
-313 -167 -232 0
-314 -62 0
-314 -179 -96 0
-314 -179 -110 0
-314 -180 -95 0
-314 -180 -110 0
-314 -194 -95 0
-314 -194 -96 0
-314 -200 -117 0
-314 -200 -131 0
-314 -201 -116 0
-314 -201 -131 0
-314 -215 -116 0
-314 -215 -117 0
-314 -136 -221 0
-314 -136 -156 0
-314 -137 -220 0
-314 -137 -156 0
-314 -240 -220 0
-314 -240 -221 0
-314 -140 -225 0
-314 -140 -162 0
-314 -141 -224 0
-314 -141 -162 0
-314 -246 -224 0
-314 -246 -225 0
-314 -143 -228 0
-314 -143 -165 0
-314 -144 -227 0
-314 -144 -165 0
-314 -249 -227 0
-314 -249 -228 0
-314 -231 -148 0
-314 -231 -168 0
-314 -232 -147 0
-314 -232 -168 0
-314 -252 -147 0
-314 -252 -148 0
-315 -63 0
-315 -179 -97 0
-315 -179 -111 0
-315 -181 -95 0
-315 -181 -111 0
-315 -195 -95 0
-315 -195 -97 0
-315 -200 -118 0
-315 -200 -132 0
-315 -202 -116 0
-315 -202 -132 0
-315 -216 -116 0
-315 -216 -118 0
-315 -136 -222 0
-315 -136 -157 0
-315 -138 -220 0
-315 -138 -157 0
-315 -241 -220 0
-315 -241 -222 0
-315 -140 -226 0
-315 -140 -163 0
-315 -142 -224 0
-315 -142 -163 0
-315 -247 -224 0
-315 -247 -226 0
-315 -143 -229 0
-315 -143 -166 0
-315 -145 -227 0
-315 -145 -166 0
-315 -250 -227 0
-315 -250 -229 0
-315 -230 -232 0
-315 -230 -252 0
-315 -148 -146 0
-315 -148 -252 0
-315 -168 -146 0
-315 -168 -232 0
-316 -64 0
-316 -180 -97 0
-316 -180 -112 0
-316 -181 -96 0
-316 -181 -112 0
-316 -196 -96 0
-316 -196 -97 0
-316 -201 -118 0
-316 -201 -133 0
-316 -202 -117 0
-316 -202 -133 0
-316 -217 -117 0
-316 -217 -118 0
-316 -137 -222 0
-316 -137 -158 0
-316 -138 -221 0
-316 -138 -158 0
-316 -242 -221 0
-316 -242 -222 0
-316 -141 -226 0
-316 -141 -164 0
-316 -142 -225 0
-316 -142 -164 0
-316 -248 -225 0
-316 -248 -226 0
-316 -144 -229 0
-316 -144 -167 0
-316 -145 -228 0
-316 -145 -167 0
-316 -251 -228 0
-316 -251 -229 0
-316 -146 -231 0
-316 -146 -168 0
-316 -147 -230 0
-316 -147 -168 0
-316 -252 -230 0
-316 -252 -231 0
-317 -65 0
-317 -182 -99 0
-317 -182 -103 0
-317 -183 -98 0
-317 -183 -103 0
-317 -187 -98 0
-317 -187 -99 0
-317 -203 -120 0
-317 -203 -124 0
-317 -204 -119 0
-317 -204 -124 0
-317 -208 -119 0
-317 -208 -120 0
-317 -218 -135 0
-317 -218 -139 0
-317 -219 -134 0
-317 -219 -139 0
-317 -223 -134 0
-317 -223 -135 0
-317 -234 -153 0
-317 -234 -159 0
-317 -237 -150 0
-317 -237 -159 0
-317 -243 -150 0
-317 -243 -153 0
-317 -235 -154 0
-317 -235 -160 0
-317 -238 -151 0
-317 -238 -160 0
-317 -244 -151 0
-317 -244 -154 0
-317 -236 -155 0
-317 -236 -161 0
-317 -239 -152 0
-317 -239 -161 0
-317 -245 -152 0
-317 -245 -155 0
-318 -66 0
-318 -182 -100 0
-318 -182 -104 0
-318 -184 -98 0
-318 -184 -104 0
-318 -188 -98 0
-318 -188 -100 0
-318 -203 -121 0
-318 -203 -125 0
-318 -205 -119 0
-318 -205 -125 0
-318 -209 -119 0
-318 -209 -121 0
-318 -218 -136 0
-318 -218 -140 0
-318 -220 -134 0
-318 -220 -140 0
-318 -224 -134 0
-318 -224 -136 0
-318 -233 -237 0
-318 -233 -243 0
-318 -153 -149 0
-318 -153 -243 0
-318 -159 -149 0
-318 -159 -237 0
-318 -235 -156 0
-318 -235 -162 0
-318 -240 -151 0
-318 -240 -162 0
-318 -246 -151 0
-318 -246 -156 0
-318 -236 -157 0
-318 -236 -163 0
-318 -241 -152 0
-318 -241 -163 0
-318 -247 -152 0
-318 -247 -157 0
-319 -67 0
-319 -182 -101 0
-319 -182 -105 0
-319 -185 -98 0
-319 -185 -105 0
-319 -189 -98 0
-319 -189 -101 0
-319 -203 -122 0
-319 -203 -126 0
-319 -206 -119 0
-319 -206 -126 0
-319 -210 -119 0
-319 -210 -122 0
-319 -218 -137 0
-319 -218 -141 0
-319 -221 -134 0
-319 -221 -141 0
-319 -225 -134 0
-319 -225 -137 0
-319 -233 -238 0
-319 -233 -244 0
-319 -154 -149 0
-319 -154 -244 0
-319 -160 -149 0
-319 -160 -238 0
-319 -234 -240 0
-319 -234 -246 0
-319 -156 -150 0
-319 -156 -246 0
-319 -162 -150 0
-319 -162 -240 0
-319 -236 -158 0
-319 -236 -164 0
-319 -242 -152 0
-319 -242 -164 0
-319 -248 -152 0
-319 -248 -158 0
-320 -68 0
-320 -182 -102 0
-320 -182 -106 0
-320 -186 -98 0
-320 -186 -106 0
-320 -190 -98 0
-320 -190 -102 0
-320 -203 -123 0
-320 -203 -127 0
-320 -207 -119 0
-320 -207 -127 0
-320 -211 -119 0
-320 -211 -123 0
-320 -218 -138 0
-320 -218 -142 0
-320 -222 -134 0
-320 -222 -142 0
-320 -226 -134 0
-320 -226 -138 0
-320 -233 -239 0
-320 -233 -245 0
-320 -155 -149 0
-320 -155 -245 0
-320 -161 -149 0
-320 -161 -239 0
-320 -234 -241 0
-320 -234 -247 0
-320 -157 -150 0
-320 -157 -247 0
-320 -163 -150 0
-320 -163 -241 0
-320 -235 -242 0
-320 -235 -248 0
-320 -158 -151 0
-320 -158 -248 0
-320 -164 -151 0
-320 -164 -242 0
-321 -69 0
-321 -183 -100 0
-321 -183 -107 0
-321 -184 -99 0
-321 -184 -107 0
-321 -191 -99 0
-321 -191 -100 0
-321 -204 -121 0
-321 -204 -128 0
-321 -205 -120 0
-321 -205 -128 0
-321 -212 -120 0
-321 -212 -121 0
-321 -219 -136 0
-321 -219 -143 0
-321 -220 -135 0
-321 -220 -143 0
-321 -227 -135 0
-321 -227 -136 0
-321 -149 -234 0
-321 -149 -159 0
-321 -150 -233 0
-321 -150 -159 0
-321 -243 -233 0
-321 -243 -234 0
-321 -238 -156 0
-321 -238 -165 0
-321 -240 -154 0
-321 -240 -165 0
-321 -249 -154 0
-321 -249 -156 0
-321 -239 -157 0
-321 -239 -166 0
-321 -241 -155 0
-321 -241 -166 0
-321 -250 -155 0
-321 -250 -157 0
-322 -70 0
-322 -183 -101 0
-322 -183 -108 0
-322 -185 -99 0
-322 -185 -108 0
-322 -192 -99 0
-322 -192 -101 0
-322 -204 -122 0
-322 -204 -129 0
-322 -206 -120 0
-322 -206 -129 0
-322 -213 -120 0
-322 -213 -122 0
-322 -219 -137 0
-322 -219 -144 0
-322 -221 -135 0
-322 -221 -144 0
-322 -228 -135 0
-322 -228 -137 0
-322 -149 -235 0
-322 -149 -160 0
-322 -151 -233 0
-322 -151 -160 0
-322 -244 -233 0
-322 -244 -235 0
-322 -237 -240 0
-322 -237 -249 0
-322 -156 -153 0
-322 -156 -249 0
-322 -165 -153 0
-322 -165 -240 0
-322 -239 -158 0
-322 -239 -167 0
-322 -242 -155 0
-322 -242 -167 0
-322 -251 -155 0
-322 -251 -158 0
-323 -71 0
-323 -183 -102 0
-323 -183 -109 0
-323 -186 -99 0
-323 -186 -109 0
-323 -193 -99 0
-323 -193 -102 0
-323 -204 -123 0
-323 -204 -130 0
-323 -207 -120 0
-323 -207 -130 0
-323 -214 -120 0
-323 -214 -123 0
-323 -219 -138 0
-323 -219 -145 0
-323 -222 -135 0
-323 -222 -145 0
-323 -229 -135 0
-323 -229 -138 0
-323 -149 -236 0
-323 -149 -161 0
-323 -152 -233 0
-323 -152 -161 0
-323 -245 -233 0
-323 -245 -236 0
-323 -237 -241 0
-323 -237 -250 0
-323 -157 -153 0
-323 -157 -250 0
-323 -166 -153 0
-323 -166 -241 0
-323 -238 -242 0
-323 -238 -251 0
-323 -158 -154 0
-323 -158 -251 0
-323 -167 -154 0
-323 -167 -242 0
-324 -72 0
-324 -184 -101 0
-324 -184 -110 0
-324 -185 -100 0
-324 -185 -110 0
-324 -194 -100 0
-324 -194 -101 0
-324 -205 -122 0
-324 -205 -131 0
-324 -206 -121 0
-324 -206 -131 0
-324 -215 -121 0
-324 -215 -122 0
-324 -220 -137 0
-324 -220 -146 0
-324 -221 -136 0
-324 -221 -146 0
-324 -230 -136 0
-324 -230 -137 0
-324 -150 -235 0
-324 -150 -162 0
-324 -151 -234 0
-324 -151 -162 0
-324 -246 -234 0
-324 -246 -235 0
-324 -153 -238 0
-324 -153 -165 0
-324 -154 -237 0
-324 -154 -165 0
-324 -249 -237 0
-324 -249 -238 0
-324 -241 -158 0
-324 -241 -168 0
-324 -242 -157 0
-324 -242 -168 0
-324 -252 -157 0
-324 -252 -158 0
-325 -73 0
-325 -184 -102 0
-325 -184 -111 0
-325 -186 -100 0
-325 -186 -111 0
-325 -195 -100 0
-325 -195 -102 0
-325 -205 -123 0
-325 -205 -132 0
-325 -207 -121 0
-325 -207 -132 0
-325 -216 -121 0
-325 -216 -123 0
-325 -220 -138 0
-325 -220 -147 0
-325 -222 -136 0
-325 -222 -147 0
-325 -231 -136 0
-325 -231 -138 0
-325 -150 -236 0
-325 -150 -163 0
-325 -152 -234 0
-325 -152 -163 0
-325 -247 -234 0
-325 -247 -236 0
-325 -153 -239 0
-325 -153 -166 0
-325 -155 -237 0
-325 -155 -166 0
-325 -250 -237 0
-325 -250 -239 0
-325 -240 -242 0
-325 -240 -252 0
-325 -158 -156 0
-325 -158 -252 0
-325 -168 -156 0
-325 -168 -242 0
-326 -74 0
-326 -185 -102 0
-326 -185 -112 0
-326 -186 -101 0
-326 -186 -112 0
-326 -196 -101 0
-326 -196 -102 0
-326 -206 -123 0
-326 -206 -133 0
-326 -207 -122 0
-326 -207 -133 0
-326 -217 -122 0
-326 -217 -123 0
-326 -221 -138 0
-326 -221 -148 0
-326 -222 -137 0
-326 -222 -148 0
-326 -232 -137 0
-326 -232 -138 0
-326 -151 -236 0
-326 -151 -164 0
-326 -152 -235 0
-326 -152 -164 0
-326 -248 -235 0
-326 -248 -236 0
-326 -154 -239 0
-326 -154 -167 0
-326 -155 -238 0
-326 -155 -167 0
-326 -251 -238 0
-326 -251 -239 0
-326 -156 -241 0
-326 -156 -168 0
-326 -157 -240 0
-326 -157 -168 0
-326 -252 -240 0
-326 -252 -241 0
-327 -75 0
-327 -187 -104 0
-327 -187 -107 0
-327 -188 -103 0
-327 -188 -107 0
-327 -191 -103 0
-327 -191 -104 0
-327 -208 -125 0
-327 -208 -128 0
-327 -209 -124 0
-327 -209 -128 0
-327 -212 -124 0
-327 -212 -125 0
-327 -223 -140 0
-327 -223 -143 0
-327 -224 -139 0
-327 -224 -143 0
-327 -227 -139 0
-327 -227 -140 0
-327 -233 -150 0
-327 -233 -153 0
-327 -234 -149 0
-327 -234 -153 0
-327 -237 -149 0
-327 -237 -150 0
-327 -244 -162 0
-327 -244 -165 0
-327 -246 -160 0
-327 -246 -165 0
-327 -249 -160 0
-327 -249 -162 0
-327 -245 -163 0
-327 -245 -166 0
-327 -247 -161 0
-327 -247 -166 0
-327 -250 -161 0
-327 -250 -163 0
-328 -76 0
-328 -187 -105 0
-328 -187 -108 0
-328 -189 -103 0
-328 -189 -108 0
-328 -192 -103 0
-328 -192 -105 0
-328 -208 -126 0
-328 -208 -129 0
-328 -210 -124 0
-328 -210 -129 0
-328 -213 -124 0
-328 -213 -126 0
-328 -223 -141 0
-328 -223 -144 0
-328 -225 -139 0
-328 -225 -144 0
-328 -228 -139 0
-328 -228 -141 0
-328 -233 -151 0
-328 -233 -154 0
-328 -235 -149 0
-328 -235 -154 0
-328 -238 -149 0
-328 -238 -151 0
-328 -243 -246 0
-328 -243 -249 0
-328 -162 -159 0
-328 -162 -249 0
-328 -165 -159 0
-328 -165 -246 0
-328 -245 -164 0
-328 -245 -167 0
-328 -248 -161 0
-328 -248 -167 0
-328 -251 -161 0
-328 -251 -164 0
-329 -77 0
-329 -187 -106 0
-329 -187 -109 0
-329 -190 -103 0
-329 -190 -109 0
-329 -193 -103 0
-329 -193 -106 0
-329 -208 -127 0
-329 -208 -130 0
-329 -211 -124 0
-329 -211 -130 0
-329 -214 -124 0
-329 -214 -127 0
-329 -223 -142 0
-329 -223 -145 0
-329 -226 -139 0
-329 -226 -145 0
-329 -229 -139 0
-329 -229 -142 0
-329 -233 -152 0
-329 -233 -155 0
-329 -236 -149 0
-329 -236 -155 0
-329 -239 -149 0
-329 -239 -152 0
-329 -243 -247 0
-329 -243 -250 0
-329 -163 -159 0
-329 -163 -250 0
-329 -166 -159 0
-329 -166 -247 0
-329 -244 -248 0
-329 -244 -251 0
-329 -164 -160 0
-329 -164 -251 0
-329 -167 -160 0
-329 -167 -248 0
-330 -78 0
-330 -188 -105 0
-330 -188 -110 0
-330 -189 -104 0
-330 -189 -110 0
-330 -194 -104 0
-330 -194 -105 0
-330 -209 -126 0
-330 -209 -131 0
-330 -210 -125 0
-330 -210 -131 0
-330 -215 -125 0
-330 -215 -126 0
-330 -224 -141 0
-330 -224 -146 0
-330 -225 -140 0
-330 -225 -146 0
-330 -230 -140 0
-330 -230 -141 0
-330 -234 -151 0
-330 -234 -156 0
-330 -235 -150 0
-330 -235 -156 0
-330 -240 -150 0
-330 -240 -151 0
-330 -159 -244 0
-330 -159 -165 0
-330 -160 -243 0
-330 -160 -165 0
-330 -249 -243 0
-330 -249 -244 0
-330 -247 -164 0
-330 -247 -168 0
-330 -248 -163 0
-330 -248 -168 0
-330 -252 -163 0
-330 -252 -164 0
-331 -79 0
-331 -188 -106 0
-331 -188 -111 0
-331 -190 -104 0
-331 -190 -111 0
-331 -195 -104 0
-331 -195 -106 0
-331 -209 -127 0
-331 -209 -132 0
-331 -211 -125 0
-331 -211 -132 0
-331 -216 -125 0
-331 -216 -127 0
-331 -224 -142 0
-331 -224 -147 0
-331 -226 -140 0
-331 -226 -147 0
-331 -231 -140 0
-331 -231 -142 0
-331 -234 -152 0
-331 -234 -157 0
-331 -236 -150 0
-331 -236 -157 0
-331 -241 -150 0
-331 -241 -152 0
-331 -159 -245 0
-331 -159 -166 0
-331 -161 -243 0
-331 -161 -166 0
-331 -250 -243 0
-331 -250 -245 0
-331 -246 -248 0
-331 -246 -252 0
-331 -164 -162 0
-331 -164 -252 0
-331 -168 -162 0
-331 -168 -248 0
-332 -80 0
-332 -189 -106 0
-332 -189 -112 0
-332 -190 -105 0
-332 -190 -112 0
-332 -196 -105 0
-332 -196 -106 0
-332 -210 -127 0
-332 -210 -133 0
-332 -211 -126 0
-332 -211 -133 0
-332 -217 -126 0
-332 -217 -127 0
-332 -225 -142 0
-332 -225 -148 0
-332 -226 -141 0
-332 -226 -148 0
-332 -232 -141 0
-332 -232 -142 0
-332 -235 -152 0
-332 -235 -158 0
-332 -236 -151 0
-332 -236 -158 0
-332 -242 -151 0
-332 -242 -152 0
-332 -160 -245 0
-332 -160 -167 0
-332 -161 -244 0
-332 -161 -167 0
-332 -251 -244 0
-332 -251 -245 0
-332 -162 -247 0
-332 -162 -168 0
-332 -163 -246 0
-332 -163 -168 0
-332 -252 -246 0
-332 -252 -247 0
-333 -81 0
-333 -191 -108 0
-333 -191 -110 0
-333 -192 -107 0
-333 -192 -110 0
-333 -194 -107 0
-333 -194 -108 0
-333 -212 -129 0
-333 -212 -131 0
-333 -213 -128 0
-333 -213 -131 0
-333 -215 -128 0
-333 -215 -129 0
-333 -227 -144 0
-333 -227 -146 0
-333 -228 -143 0
-333 -228 -146 0
-333 -230 -143 0
-333 -230 -144 0
-333 -237 -154 0
-333 -237 -156 0
-333 -238 -153 0
-333 -238 -156 0
-333 -240 -153 0
-333 -240 -154 0
-333 -243 -160 0
-333 -243 -162 0
-333 -244 -159 0
-333 -244 -162 0
-333 -246 -159 0
-333 -246 -160 0
-333 -250 -167 0
-333 -250 -168 0
-333 -251 -166 0
-333 -251 -168 0
-333 -252 -166 0
-333 -252 -167 0
-334 -82 0
-334 -191 -109 0
-334 -191 -111 0
-334 -193 -107 0
-334 -193 -111 0
-334 -195 -107 0
-334 -195 -109 0
-334 -212 -130 0
-334 -212 -132 0
-334 -214 -128 0
-334 -214 -132 0
-334 -216 -128 0
-334 -216 -130 0
-334 -227 -145 0
-334 -227 -147 0
-334 -229 -143 0
-334 -229 -147 0
-334 -231 -143 0
-334 -231 -145 0
-334 -237 -155 0
-334 -237 -157 0
-334 -239 -153 0
-334 -239 -157 0
-334 -241 -153 0
-334 -241 -155 0
-334 -243 -161 0
-334 -243 -163 0
-334 -245 -159 0
-334 -245 -163 0
-334 -247 -159 0
-334 -247 -161 0
-334 -249 -251 0
-334 -249 -252 0
-334 -167 -165 0
-334 -167 -252 0
-334 -168 -165 0
-334 -168 -251 0
-335 -83 0
-335 -192 -109 0
-335 -192 -112 0
-335 -193 -108 0
-335 -193 -112 0
-335 -196 -108 0
-335 -196 -109 0
-335 -213 -130 0
-335 -213 -133 0
-335 -214 -129 0
-335 -214 -133 0
-335 -217 -129 0
-335 -217 -130 0
-335 -228 -145 0
-335 -228 -148 0
-335 -229 -144 0
-335 -229 -148 0
-335 -232 -144 0
-335 -232 -145 0
-335 -238 -155 0
-335 -238 -158 0
-335 -239 -154 0
-335 -239 -158 0
-335 -242 -154 0
-335 -242 -155 0
-335 -244 -161 0
-335 -244 -164 0
-335 -245 -160 0
-335 -245 -164 0
-335 -248 -160 0
-335 -248 -161 0
-335 -165 -250 0
-335 -165 -168 0
-335 -166 -249 0
-335 -166 -168 0
-335 -252 -249 0
-335 -252 -250 0
-336 -84 0
-336 -194 -111 0
-336 -194 -112 0
-336 -195 -110 0
-336 -195 -112 0
-336 -196 -110 0
-336 -196 -111 0
-336 -215 -132 0
-336 -215 -133 0
-336 -216 -131 0
-336 -216 -133 0
-336 -217 -131 0
-336 -217 -132 0
-336 -230 -147 0
-336 -230 -148 0
-336 -231 -146 0
-336 -231 -148 0
-336 -232 -146 0
-336 -232 -147 0
-336 -240 -157 0
-336 -240 -158 0
-336 -241 -156 0
-336 -241 -158 0
-336 -242 -156 0
-336 -242 -157 0
-336 -246 -163 0
-336 -246 -164 0
-336 -247 -162 0
-336 -247 -164 0
-336 -248 -162 0
-336 -248 -163 0
-336 -249 -166 0
-336 -249 -167 0
-336 -250 -165 0
-336 -250 -167 0
-336 -251 -165 0
-336 -251 -166 0
-169 0
337 338 339 340 341 342 343 344 345 0
-337 -338 0
-337 -339 0
-337 -340 0
-337 -341 0
-337 -342 0
-337 -343 0
-337 -344 0
-337 -345 0
-338 -339 0
-338 -340 0
-338 -341 0
-338 -342 0
-338 -343 0
-338 -344 0
-338 -345 0
-339 -340 0
-339 -341 0
-339 -342 0
-339 -343 0
-339 -344 0
-339 -345 0
-340 -341 0
-340 -342 0
-340 -343 0
-340 -344 0
-340 -345 0
-341 -342 0
-341 -343 0
-341 -344 0
-341 -345 0
-342 -343 0
-342 -344 0
-342 -345 0
-343 -344 0
-343 -345 0
-344 -345 0
346 347 348 349 350 351 352 353 354 0
-346 -347 0
-346 -348 0
-346 -349 0
-346 -350 0
-346 -351 0
-346 -352 0
-346 -353 0
-346 -354 0
-347 -348 0
-347 -349 0
-347 -350 0
-347 -351 0
-347 -352 0
-347 -353 0
-347 -354 0
-348 -349 0
-348 -350 0
-348 -351 0
-348 -352 0
-348 -353 0
-348 -354 0
-349 -350 0
-349 -351 0
-349 -352 0
-349 -353 0
-349 -354 0
-350 -351 0
-350 -352 0
-350 -353 0
-350 -354 0
-351 -352 0
-351 -353 0
-351 -354 0
-352 -353 0
-352 -354 0
-353 -354 0
355 356 357 358 359 360 361 362 363 0
-355 -356 0
-355 -357 0
-355 -358 0
-355 -359 0
-355 -360 0
-355 -361 0
-355 -362 0
-355 -363 0
-356 -357 0
-356 -358 0
-356 -359 0
-356 -360 0
-356 -361 0
-356 -362 0
-356 -363 0
-357 -358 0
-357 -359 0
-357 -360 0
-357 -361 0
-357 -362 0
-357 -363 0
-358 -359 0
-358 -360 0
-358 -361 0
-358 -362 0
-358 -363 0
-359 -360 0
-359 -361 0
-359 -362 0
-359 -363 0
-360 -361 0
-360 -362 0
-360 -363 0
-361 -362 0
-361 -363 0
-362 -363 0
364 365 366 367 368 369 370 371 372 0
-364 -365 0
-364 -366 0
-364 -367 0
-364 -368 0
-364 -369 0
-364 -370 0
-364 -371 0
-364 -372 0
-365 -366 0
-365 -367 0
-365 -368 0
-365 -369 0
-365 -370 0
-365 -371 0
-365 -372 0
-366 -367 0
-366 -368 0
-366 -369 0
-366 -370 0
-366 -371 0
-366 -372 0
-367 -368 0
-367 -369 0
-367 -370 0
-367 -371 0
-367 -372 0
-368 -369 0
-368 -370 0
-368 -371 0
-368 -372 0
-369 -370 0
-369 -371 0
-369 -372 0
-370 -371 0
-370 -372 0
-371 -372 0
373 374 375 376 377 378 379 380 381 0
-373 -374 0
-373 -375 0
-373 -376 0
-373 -377 0
-373 -378 0
-373 -379 0
-373 -380 0
-373 -381 0
-374 -375 0
-374 -376 0
-374 -377 0
-374 -378 0
-374 -379 0
-374 -380 0
-374 -381 0
-375 -376 0
-375 -377 0
-375 -378 0
-375 -379 0
-375 -380 0
-375 -381 0
-376 -377 0
-376 -378 0
-376 -379 0
-376 -380 0
-376 -381 0
-377 -378 0
-377 -379 0
-377 -380 0
-377 -381 0
-378 -379 0
-378 -380 0
-378 -381 0
-379 -380 0
-379 -381 0
-380 -381 0
382 383 384 385 386 387 388 389 390 0
-382 -383 0
-382 -384 0
-382 -385 0
-382 -386 0
-382 -387 0
-382 -388 0
-382 -389 0
-382 -390 0
-383 -384 0
-383 -385 0
-383 -386 0
-383 -387 0
-383 -388 0
-383 -389 0
-383 -390 0
-384 -385 0
-384 -386 0
-384 -387 0
-384 -388 0
-384 -389 0
-384 -390 0
-385 -386 0
-385 -387 0
-385 -388 0
-385 -389 0
-385 -390 0
-386 -387 0
-386 -388 0
-386 -389 0
-386 -390 0
-387 -388 0
-387 -389 0
-387 -390 0
-388 -389 0
-388 -390 0
-389 -390 0
391 392 393 394 395 396 397 398 399 0
-391 -392 0
-391 -393 0
-391 -394 0
-391 -395 0
-391 -396 0
-391 -397 0
-391 -398 0
-391 -399 0
-392 -393 0
-392 -394 0
-392 -395 0
-392 -396 0
-392 -397 0
-392 -398 0
-392 -399 0
-393 -394 0
-393 -395 0
-393 -396 0
-393 -397 0
-393 -398 0
-393 -399 0
-394 -395 0
-394 -396 0
-394 -397 0
-394 -398 0
-394 -399 0
-395 -396 0
-395 -397 0
-395 -398 0
-395 -399 0
-396 -397 0
-396 -398 0
-396 -399 0
-397 -398 0
-397 -399 0
-398 -399 0
400 401 402 403 404 405 406 407 408 0
-400 -401 0
-400 -402 0
-400 -403 0
-400 -404 0
-400 -405 0
-400 -406 0
-400 -407 0
-400 -408 0
-401 -402 0
-401 -403 0
-401 -404 0
-401 -405 0
-401 -406 0
-401 -407 0
-401 -408 0
-402 -403 0
-402 -404 0
-402 -405 0
-402 -406 0
-402 -407 0
-402 -408 0
-403 -404 0
-403 -405 0
-403 -406 0
-403 -407 0
-403 -408 0
-404 -405 0
-404 -406 0
-404 -407 0
-404 -408 0
-405 -406 0
-405 -407 0
-405 -408 0
-406 -407 0
-406 -408 0
-407 -408 0
409 410 411 412 413 414 415 416 417 0
-409 -410 0
-409 -411 0
-409 -412 0
-409 -413 0
-409 -414 0
-409 -415 0
-409 -416 0
-409 -417 0
-410 -411 0
-410 -412 0
-410 -413 0
-410 -414 0
-410 -415 0
-410 -416 0
-410 -417 0
-411 -412 0
-411 -413 0
-411 -414 0
-411 -415 0
-411 -416 0
-411 -417 0
-412 -413 0
-412 -414 0
-412 -415 0
-412 -416 0
-412 -417 0
-413 -414 0
-413 -415 0
-413 -416 0
-413 -417 0
-414 -415 0
-414 -416 0
-414 -417 0
-415 -416 0
-415 -417 0
-416 -417 0
337 346 355 364 373 382 391 400 409 0
-337 -346 0
-337 -355 0
-337 -364 0
-337 -373 0
-337 -382 0
-337 -391 0
-337 -400 0
-337 -409 0
-346 -355 0
-346 -364 0
-346 -373 0
-346 -382 0
-346 -391 0
-346 -400 0
-346 -409 0
-355 -364 0
-355 -373 0
-355 -382 0
-355 -391 0
-355 -400 0
-355 -409 0
-364 -373 0
-364 -382 0
-364 -391 0
-364 -400 0
-364 -409 0
-373 -382 0
-373 -391 0
-373 -400 0
-373 -409 0
-382 -391 0
-382 -400 0
-382 -409 0
-391 -400 0
-391 -409 0
-400 -409 0
338 347 356 365 374 383 392 401 410 0
-338 -347 0
-338 -356 0
-338 -365 0
-338 -374 0
-338 -383 0
-338 -392 0
-338 -401 0
-338 -410 0
-347 -356 0
-347 -365 0
-347 -374 0
-347 -383 0
-347 -392 0
-347 -401 0
-347 -410 0
-356 -365 0
-356 -374 0
-356 -383 0
-356 -392 0
-356 -401 0
-356 -410 0
-365 -374 0
-365 -383 0
-365 -392 0
-365 -401 0
-365 -410 0
-374 -383 0
-374 -392 0
-374 -401 0
-374 -410 0
-383 -392 0
-383 -401 0
-383 -410 0
-392 -401 0
-392 -410 0
-401 -410 0
339 348 357 366 375 384 393 402 411 0
-339 -348 0
-339 -357 0
-339 -366 0
-339 -375 0
-339 -384 0
-339 -393 0
-339 -402 0
-339 -411 0
-348 -357 0
-348 -366 0
-348 -375 0
-348 -384 0
-348 -393 0
-348 -402 0
-348 -411 0
-357 -366 0
-357 -375 0
-357 -384 0
-357 -393 0
-357 -402 0
-357 -411 0
-366 -375 0
-366 -384 0
-366 -393 0
-366 -402 0
-366 -411 0
-375 -384 0
-375 -393 0
-375 -402 0
-375 -411 0
-384 -393 0
-384 -402 0
-384 -411 0
-393 -402 0
-393 -411 0
-402 -411 0
340 349 358 367 376 385 394 403 412 0
-340 -349 0
-340 -358 0
-340 -367 0
-340 -376 0
-340 -385 0
-340 -394 0
-340 -403 0
-340 -412 0
-349 -358 0
-349 -367 0
-349 -376 0
-349 -385 0
-349 -394 0
-349 -403 0
-349 -412 0
-358 -367 0
-358 -376 0
-358 -385 0
-358 -394 0
-358 -403 0
-358 -412 0
-367 -376 0
-367 -385 0
-367 -394 0
-367 -403 0
-367 -412 0
-376 -385 0
-376 -394 0
-376 -403 0
-376 -412 0
-385 -394 0
-385 -403 0
-385 -412 0
-394 -403 0
-394 -412 0
-403 -412 0
341 350 359 368 377 386 395 404 413 0
-341 -350 0
-341 -359 0
-341 -368 0
-341 -377 0
-341 -386 0
-341 -395 0
-341 -404 0
-341 -413 0
-350 -359 0
-350 -368 0
-350 -377 0
-350 -386 0
-350 -395 0
-350 -404 0
-350 -413 0
-359 -368 0
-359 -377 0
-359 -386 0
-359 -395 0
-359 -404 0
-359 -413 0
-368 -377 0
-368 -386 0
-368 -395 0
-368 -404 0
-368 -413 0
-377 -386 0
-377 -395 0
-377 -404 0
-377 -413 0
-386 -395 0
-386 -404 0
-386 -413 0
-395 -404 0
-395 -413 0
-404 -413 0
342 351 360 369 378 387 396 405 414 0
-342 -351 0
-342 -360 0
-342 -369 0
-342 -378 0
-342 -387 0
-342 -396 0
-342 -405 0
-342 -414 0
-351 -360 0
-351 -369 0
-351 -378 0
-351 -387 0
-351 -396 0
-351 -405 0
-351 -414 0
-360 -369 0
-360 -378 0
-360 -387 0
-360 -396 0
-360 -405 0
-360 -414 0
-369 -378 0
-369 -387 0
-369 -396 0
-369 -405 0
-369 -414 0
-378 -387 0
-378 -396 0
-378 -405 0
-378 -414 0
-387 -396 0
-387 -405 0
-387 -414 0
-396 -405 0
-396 -414 0
-405 -414 0
343 352 361 370 379 388 397 406 415 0
-343 -352 0
-343 -361 0
-343 -370 0
-343 -379 0
-343 -388 0
-343 -397 0
-343 -406 0
-343 -415 0
-352 -361 0
-352 -370 0
-352 -379 0
-352 -388 0
-352 -397 0
-352 -406 0
-352 -415 0
-361 -370 0
-361 -379 0
-361 -388 0
-361 -397 0
-361 -406 0
-361 -415 0
-370 -379 0
-370 -388 0
-370 -397 0
-370 -406 0
-370 -415 0
-379 -388 0
-379 -397 0
-379 -406 0
-379 -415 0
-388 -397 0
-388 -406 0
-388 -415 0
-397 -406 0
-397 -415 0
-406 -415 0
344 353 362 371 380 389 398 407 416 0
-344 -353 0
-344 -362 0
-344 -371 0
-344 -380 0
-344 -389 0
-344 -398 0
-344 -407 0
-344 -416 0
-353 -362 0
-353 -371 0
-353 -380 0
-353 -389 0
-353 -398 0
-353 -407 0
-353 -416 0
-362 -371 0
-362 -380 0
-362 -389 0
-362 -398 0
-362 -407 0
-362 -416 0
-371 -380 0
-371 -389 0
-371 -398 0
-371 -407 0
-371 -416 0
-380 -389 0
-380 -398 0
-380 -407 0
-380 -416 0
-389 -398 0
-389 -407 0
-389 -416 0
-398 -407 0
-398 -416 0
-407 -416 0
345 354 363 372 381 390 399 408 417 0
-345 -354 0
-345 -363 0
-345 -372 0
-345 -381 0
-345 -390 0
-345 -399 0
-345 -408 0
-345 -417 0
-354 -363 0
-354 -372 0
-354 -381 0
-354 -390 0
-354 -399 0
-354 -408 0
-354 -417 0
-363 -372 0
-363 -381 0
-363 -390 0
-363 -399 0
-363 -408 0
-363 -417 0
-372 -381 0
-372 -390 0
-372 -399 0
-372 -408 0
-372 -417 0
-381 -390 0
-381 -399 0
-381 -408 0
-381 -417 0
-390 -399 0
-390 -408 0
-390 -417 0
-399 -408 0
-399 -417 0
-408 -417 0
-337 -347 -357 418 0
-337 -347 -358 419 0
-337 -347 -359 420 0
-337 -347 -360 421 0
-337 -347 -361 422 0
-337 -347 -362 423 0
-337 -347 -363 424 0
-337 -348 -356 418 0
-337 -348 -358 425 0
-337 -348 -359 426 0
-337 -348 -360 427 0
-337 -348 -361 428 0
-337 -348 -362 429 0
-337 -348 -363 430 0
-337 -349 -356 419 0
-337 -349 -357 425 0
-337 -349 -359 431 0
-337 -349 -360 432 0
-337 -349 -361 433 0
-337 -349 -362 434 0
-337 -349 -363 435 0
-337 -350 -356 420 0
-337 -350 -357 426 0
-337 -350 -358 431 0
-337 -350 -360 436 0
-337 -350 -361 437 0
-337 -350 -362 438 0
-337 -350 -363 439 0
-337 -351 -356 421 0
-337 -351 -357 427 0
-337 -351 -358 432 0
-337 -351 -359 436 0
-337 -351 -361 440 0
-337 -351 -362 441 0
-337 -351 -363 442 0
-337 -352 -356 422 0
-337 -352 -357 428 0
-337 -352 -358 433 0
-337 -352 -359 437 0
-337 -352 -360 440 0
-337 -352 -362 443 0
-337 -352 -363 444 0
-337 -353 -356 423 0
-337 -353 -357 429 0
-337 -353 -358 434 0
-337 -353 -359 438 0
-337 -353 -360 441 0
-337 -353 -361 443 0
-337 -353 -363 445 0
-337 -354 -356 424 0
-337 -354 -357 430 0
-337 -354 -358 435 0
-337 -354 -359 439 0
-337 -354 -360 442 0
-337 -354 -361 444 0
-337 -354 -362 445 0
-338 -346 -357 418 0
-338 -346 -358 419 0
-338 -346 -359 420 0
-338 -346 -360 421 0
-338 -346 -361 422 0
-338 -346 -362 423 0
-338 -346 -363 424 0
-338 -348 -355 418 0
-338 -348 -358 446 0
-338 -348 -359 447 0
-338 -348 -360 448 0
-338 -348 -361 449 0
-338 -348 -362 450 0
-338 -348 -363 451 0
-338 -349 -355 419 0
-338 -349 -357 446 0
-338 -349 -359 452 0
-338 -349 -360 453 0
-338 -349 -361 454 0
-338 -349 -362 455 0
-338 -349 -363 456 0
-338 -350 -355 420 0
-338 -350 -357 447 0
-338 -350 -358 452 0
-338 -350 -360 457 0
-338 -350 -361 458 0
-338 -350 -362 459 0
-338 -350 -363 460 0
-338 -351 -355 421 0
-338 -351 -357 448 0
-338 -351 -358 453 0
-338 -351 -359 457 0
-338 -351 -361 461 0
-338 -351 -362 462 0
-338 -351 -363 463 0
-338 -352 -355 422 0
-338 -352 -357 449 0
-338 -352 -358 454 0
-338 -352 -359 458 0
-338 -352 -360 461 0
-338 -352 -362 464 0
-338 -352 -363 465 0
-338 -353 -355 423 0
-338 -353 -357 450 0
-338 -353 -358 455 0
-338 -353 -359 459 0
-338 -353 -360 462 0
-338 -353 -361 464 0
-338 -353 -363 466 0
-338 -354 -355 424 0
-338 -354 -357 451 0
-338 -354 -358 456 0
-338 -354 -359 460 0
-338 -354 -360 463 0
-338 -354 -361 465 0
-338 -354 -362 466 0
-339 -346 -356 418 0
-339 -346 -358 425 0
-339 -346 -359 426 0
-339 -346 -360 427 0
-339 -346 -361 428 0
-339 -346 -362 429 0
-339 -346 -363 430 0
-339 -347 -355 418 0
-339 -347 -358 446 0
-339 -347 -359 447 0
-339 -347 -360 448 0
-339 -347 -361 449 0
-339 -347 -362 450 0
-339 -347 -363 451 0
-339 -349 -355 425 0
-339 -349 -356 446 0
-339 -349 -359 467 0
-339 -349 -360 468 0
-339 -349 -361 469 0
-339 -349 -362 470 0
-339 -349 -363 471 0
-339 -350 -355 426 0
-339 -350 -356 447 0
-339 -350 -358 467 0
-339 -350 -360 472 0
-339 -350 -361 473 0
-339 -350 -362 474 0
-339 -350 -363 475 0
-339 -351 -355 427 0
-339 -351 -356 448 0
-339 -351 -358 468 0
-339 -351 -359 472 0
-339 -351 -361 476 0
-339 -351 -362 477 0
-339 -351 -363 478 0
-339 -352 -355 428 0
-339 -352 -356 449 0
-339 -352 -358 469 0
-339 -352 -359 473 0
-339 -352 -360 476 0
-339 -352 -362 479 0
-339 -352 -363 480 0
-339 -353 -355 429 0
-339 -353 -356 450 0
-339 -353 -358 470 0
-339 -353 -359 474 0
-339 -353 -360 477 0
-339 -353 -361 479 0
-339 -353 -363 481 0
-339 -354 -355 430 0
-339 -354 -356 451 0
-339 -354 -358 471 0
-339 -354 -359 475 0
-339 -354 -360 478 0
-339 -354 -361 480 0
-339 -354 -362 481 0
-340 -346 -356 419 0
-340 -346 -357 425 0
-340 -346 -359 431 0
-340 -346 -360 432 0
-340 -346 -361 433 0
-340 -346 -362 434 0
-340 -346 -363 435 0
-340 -347 -355 419 0
-340 -347 -357 446 0
-340 -347 -359 452 0
-340 -347 -360 453 0
-340 -347 -361 454 0
-340 -347 -362 455 0
-340 -347 -363 456 0
-340 -348 -355 425 0
-340 -348 -356 446 0
-340 -348 -359 467 0
-340 -348 -360 468 0
-340 -348 -361 469 0
-340 -348 -362 470 0
-340 -348 -363 471 0
-340 -350 -355 431 0
-340 -350 -356 452 0
-340 -350 -357 467 0
-340 -350 -360 482 0
-340 -350 -361 483 0
-340 -350 -362 484 0
-340 -350 -363 485 0
-340 -351 -355 432 0
-340 -351 -356 453 0
-340 -351 -357 468 0
-340 -351 -359 482 0
-340 -351 -361 486 0
-340 -351 -362 487 0
-340 -351 -363 488 0
-340 -352 -355 433 0
-340 -352 -356 454 0
-340 -352 -357 469 0
-340 -352 -359 483 0
-340 -352 -360 486 0
-340 -352 -362 489 0
-340 -352 -363 490 0
-340 -353 -355 434 0
-340 -353 -356 455 0
-340 -353 -357 470 0
-340 -353 -359 484 0
-340 -353 -360 487 0
-340 -353 -361 489 0
-340 -353 -363 491 0
-340 -354 -355 435 0
-340 -354 -356 456 0
-340 -354 -357 471 0
-340 -354 -359 485 0
-340 -354 -360 488 0
-340 -354 -361 490 0
-340 -354 -362 491 0
-341 -346 -356 420 0
-341 -346 -357 426 0
-341 -346 -358 431 0
-341 -346 -360 436 0
-341 -346 -361 437 0
-341 -346 -362 438 0
-341 -346 -363 439 0
-341 -347 -355 420 0
-341 -347 -357 447 0
-341 -347 -358 452 0
-341 -347 -360 457 0
-341 -347 -361 458 0
-341 -347 -362 459 0
-341 -347 -363 460 0
-341 -348 -355 426 0
-341 -348 -356 447 0
-341 -348 -358 467 0
-341 -348 -360 472 0
-341 -348 -361 473 0
-341 -348 -362 474 0
-341 -348 -363 475 0
-341 -349 -355 431 0
-341 -349 -356 452 0
-341 -349 -357 467 0
-341 -349 -360 482 0
-341 -349 -361 483 0
-341 -349 -362 484 0
-341 -349 -363 485 0
-341 -351 -355 436 0
-341 -351 -356 457 0
-341 -351 -357 472 0
-341 -351 -358 482 0
-341 -351 -361 492 0
-341 -351 -362 493 0
-341 -351 -363 494 0
-341 -352 -355 437 0
-341 -352 -356 458 0
-341 -352 -357 473 0
-341 -352 -358 483 0
-341 -352 -360 492 0
-341 -352 -362 495 0
-341 -352 -363 496 0
-341 -353 -355 438 0
-341 -353 -356 459 0
-341 -353 -357 474 0
-341 -353 -358 484 0
-341 -353 -360 493 0
-341 -353 -361 495 0
-341 -353 -363 497 0
-341 -354 -355 439 0
-341 -354 -356 460 0
-341 -354 -357 475 0
-341 -354 -358 485 0
-341 -354 -360 494 0
-341 -354 -361 496 0
-341 -354 -362 497 0
-342 -346 -356 421 0
-342 -346 -357 427 0
-342 -346 -358 432 0
-342 -346 -359 436 0
-342 -346 -361 440 0
-342 -346 -362 441 0
-342 -346 -363 442 0
-342 -347 -355 421 0
-342 -347 -357 448 0
-342 -347 -358 453 0
-342 -347 -359 457 0
-342 -347 -361 461 0
-342 -347 -362 462 0
-342 -347 -363 463 0
-342 -348 -355 427 0
-342 -348 -356 448 0
-342 -348 -358 468 0
-342 -348 -359 472 0
-342 -348 -361 476 0
-342 -348 -362 477 0
-342 -348 -363 478 0
-342 -349 -355 432 0
-342 -349 -356 453 0
-342 -349 -357 468 0
-342 -349 -359 482 0
-342 -349 -361 486 0
-342 -349 -362 487 0
-342 -349 -363 488 0
-342 -350 -355 436 0
-342 -350 -356 457 0
-342 -350 -357 472 0
-342 -350 -358 482 0
-342 -350 -361 492 0
-342 -350 -362 493 0
-342 -350 -363 494 0
-342 -352 -355 440 0
-342 -352 -356 461 0
-342 -352 -357 476 0
-342 -352 -358 486 0
-342 -352 -359 492 0
-342 -352 -362 498 0
-342 -352 -363 499 0
-342 -353 -355 441 0
-342 -353 -356 462 0
-342 -353 -357 477 0
-342 -353 -358 487 0
-342 -353 -359 493 0
-342 -353 -361 498 0
-342 -353 -363 500 0
-342 -354 -355 442 0
-342 -354 -356 463 0
-342 -354 -357 478 0
-342 -354 -358 488 0
-342 -354 -359 494 0
-342 -354 -361 499 0
-342 -354 -362 500 0
-343 -346 -356 422 0
-343 -346 -357 428 0
-343 -346 -358 433 0
-343 -346 -359 437 0
-343 -346 -360 440 0
-343 -346 -362 443 0
-343 -346 -363 444 0
-343 -347 -355 422 0
-343 -347 -357 449 0
-343 -347 -358 454 0
-343 -347 -359 458 0
-343 -347 -360 461 0
-343 -347 -362 464 0
-343 -347 -363 465 0
-343 -348 -355 428 0
-343 -348 -356 449 0
-343 -348 -358 469 0
-343 -348 -359 473 0
-343 -348 -360 476 0
-343 -348 -362 479 0
-343 -348 -363 480 0
-343 -349 -355 433 0
-343 -349 -356 454 0
-343 -349 -357 469 0
-343 -349 -359 483 0
-343 -349 -360 486 0
-343 -349 -362 489 0
-343 -349 -363 490 0
-343 -350 -355 437 0
-343 -350 -356 458 0
-343 -350 -357 473 0
-343 -350 -358 483 0
-343 -350 -360 492 0
-343 -350 -362 495 0
-343 -350 -363 496 0
-343 -351 -355 440 0
-343 -351 -356 461 0
-343 -351 -357 476 0
-343 -351 -358 486 0
-343 -351 -359 492 0
-343 -351 -362 498 0
-343 -351 -363 499 0
-343 -353 -355 443 0
-343 -353 -356 464 0
-343 -353 -357 479 0
-343 -353 -358 489 0
-343 -353 -359 495 0
-343 -353 -360 498 0
-343 -353 -363 501 0
-343 -354 -355 444 0
-343 -354 -356 465 0
-343 -354 -357 480 0
-343 -354 -358 490 0
-343 -354 -359 496 0
-343 -354 -360 499 0
-343 -354 -362 501 0
-344 -346 -356 423 0
-344 -346 -357 429 0
-344 -346 -358 434 0
-344 -346 -359 438 0
-344 -346 -360 441 0
-344 -346 -361 443 0
-344 -346 -363 445 0
-344 -347 -355 423 0
-344 -347 -357 450 0
-344 -347 -358 455 0
-344 -347 -359 459 0
-344 -347 -360 462 0
-344 -347 -361 464 0
-344 -347 -363 466 0
-344 -348 -355 429 0
-344 -348 -356 450 0
-344 -348 -358 470 0
-344 -348 -359 474 0
-344 -348 -360 477 0
-344 -348 -361 479 0
-344 -348 -363 481 0
-344 -349 -355 434 0
-344 -349 -356 455 0
-344 -349 -357 470 0
-344 -349 -359 484 0
-344 -349 -360 487 0
-344 -349 -361 489 0
-344 -349 -363 491 0
-344 -350 -355 438 0
-344 -350 -356 459 0
-344 -350 -357 474 0
-344 -350 -358 484 0
-344 -350 -360 493 0
-344 -350 -361 495 0
-344 -350 -363 497 0
-344 -351 -355 441 0
-344 -351 -356 462 0
-344 -351 -357 477 0
-344 -351 -358 487 0
-344 -351 -359 493 0
-344 -351 -361 498 0
-344 -351 -363 500 0
-344 -352 -355 443 0
-344 -352 -356 464 0
-344 -352 -357 479 0
-344 -352 -358 489 0
-344 -352 -359 495 0
-344 -352 -360 498 0
-344 -352 -363 501 0
-344 -354 -355 445 0
-344 -354 -356 466 0
-344 -354 -357 481 0
-344 -354 -358 491 0
-344 -354 -359 497 0
-344 -354 -360 500 0
-344 -354 -361 501 0
-345 -346 -356 424 0
-345 -346 -357 430 0
-345 -346 -358 435 0
-345 -346 -359 439 0
-345 -346 -360 442 0
-345 -346 -361 444 0
-345 -346 -362 445 0
-345 -347 -355 424 0
-345 -347 -357 451 0
-345 -347 -358 456 0
-345 -347 -359 460 0
-345 -347 -360 463 0
-345 -347 -361 465 0
-345 -347 -362 466 0
-345 -348 -355 430 0
-345 -348 -356 451 0
-345 -348 -358 471 0
-345 -348 -359 475 0
-345 -348 -360 478 0
-345 -348 -361 480 0
-345 -348 -362 481 0
-345 -349 -355 435 0
-345 -349 -356 456 0
-345 -349 -357 471 0
-345 -349 -359 485 0
-345 -349 -360 488 0
-345 -349 -361 490 0
-345 -349 -362 491 0
-345 -350 -355 439 0
-345 -350 -356 460 0
-345 -350 -357 475 0
-345 -350 -358 485 0
-345 -350 -360 494 0
-345 -350 -361 496 0
-345 -350 -362 497 0
-345 -351 -355 442 0
-345 -351 -356 463 0
-345 -351 -357 478 0
-345 -351 -358 488 0
-345 -351 -359 494 0
-345 -351 -361 499 0
-345 -351 -362 500 0
-345 -352 -355 444 0
-345 -352 -356 465 0
-345 -352 -357 480 0
-345 -352 -358 490 0
-345 -352 -359 496 0
-345 -352 -360 499 0
-345 -352 -362 501 0
-345 -353 -355 445 0
-345 -353 -356 466 0
-345 -353 -357 481 0
-345 -353 -358 491 0
-345 -353 -359 497 0
-345 -353 -360 500 0
-345 -353 -361 501 0
-418 1 0
-419 2 0
-420 3 0
-421 4 0
-422 5 0
-423 6 0
-424 7 0
-425 8 0
-426 9 0
-427 10 0
-428 11 0
-429 12 0
-430 13 0
-431 14 0
-432 15 0
-433 16 0
-434 17 0
-435 18 0
-436 19 0
-437 20 0
-438 21 0
-439 22 0
-440 23 0
-441 24 0
-442 25 0
-443 26 0
-444 27 0
-445 28 0
-446 29 0
-447 30 0
-448 31 0
-449 32 0
-450 33 0
-451 34 0
-452 35 0
-453 36 0
-454 37 0
-455 38 0
-456 39 0
-457 40 0
-458 41 0
-459 42 0
-460 43 0
-461 44 0
-462 45 0
-463 46 0
-464 47 0
-465 48 0
-466 49 0
-467 50 0
-468 51 0
-469 52 0
-470 53 0
-471 54 0
-472 55 0
-473 56 0
-474 57 0
-475 58 0
-476 59 0
-477 60 0
-478 61 0
-479 62 0
-480 63 0
-481 64 0
-482 65 0
-483 66 0
-484 67 0
-485 68 0
-486 69 0
-487 70 0
-488 71 0
-489 72 0
-490 73 0
-491 74 0
-492 75 0
-493 76 0
-494 77 0
-495 78 0
-496 79 0
-497 80 0
-498 81 0
-499 82 0
-500 83 0
-501 84 0
-337 -365 -411 502 0
-337 -365 -412 503 0
-337 -365 -413 504 0
-337 -365 -414 505 0
-337 -365 -415 506 0
-337 -365 -416 507 0
-337 -365 -417 508 0
-337 -366 -410 502 0
-337 -366 -412 509 0
-337 -366 -413 510 0
-337 -366 -414 511 0
-337 -366 -415 512 0
-337 -366 -416 513 0
-337 -366 -417 514 0
-337 -367 -410 503 0
-337 -367 -411 509 0
-337 -367 -413 515 0
-337 -367 -414 516 0
-337 -367 -415 517 0
-337 -367 -416 518 0
-337 -367 -417 519 0
-337 -368 -410 504 0
-337 -368 -411 510 0
-337 -368 -412 515 0
-337 -368 -414 520 0
-337 -368 -415 521 0
-337 -368 -416 522 0
-337 -368 -417 523 0
-337 -369 -410 505 0
-337 -369 -411 511 0
-337 -369 -412 516 0
-337 -369 -413 520 0
-337 -369 -415 524 0
-337 -369 -416 525 0
-337 -369 -417 526 0
-337 -370 -410 506 0
-337 -370 -411 512 0
-337 -370 -412 517 0
-337 -370 -413 521 0
-337 -370 -414 524 0
-337 -370 -416 527 0
-337 -370 -417 528 0
-337 -371 -410 507 0
-337 -371 -411 513 0
-337 -371 -412 518 0
-337 -371 -413 522 0
-337 -371 -414 525 0
-337 -371 -415 527 0
-337 -371 -417 529 0
-337 -372 -410 508 0
-337 -372 -411 514 0
-337 -372 -412 519 0
-337 -372 -413 523 0
-337 -372 -414 526 0
-337 -372 -415 528 0
-337 -372 -416 529 0
-338 -364 -411 502 0
-338 -364 -412 503 0
-338 -364 -413 504 0
-338 -364 -414 505 0
-338 -364 -415 506 0
-338 -364 -416 507 0
-338 -364 -417 508 0
-338 -366 -409 502 0
-338 -366 -412 530 0
-338 -366 -413 531 0
-338 -366 -414 532 0
-338 -366 -415 533 0
-338 -366 -416 534 0
-338 -366 -417 535 0
-338 -367 -409 503 0
-338 -367 -411 530 0
-338 -367 -413 536 0
-338 -367 -414 537 0
-338 -367 -415 538 0
-338 -367 -416 539 0
-338 -367 -417 540 0
-338 -368 -409 504 0
-338 -368 -411 531 0
-338 -368 -412 536 0
-338 -368 -414 541 0
-338 -368 -415 542 0
-338 -368 -416 543 0
-338 -368 -417 544 0
-338 -369 -409 505 0
-338 -369 -411 532 0
-338 -369 -412 537 0
-338 -369 -413 541 0
-338 -369 -415 545 0
-338 -369 -416 546 0
-338 -369 -417 547 0
-338 -370 -409 506 0
-338 -370 -411 533 0
-338 -370 -412 538 0
-338 -370 -413 542 0
-338 -370 -414 545 0
-338 -370 -416 548 0
-338 -370 -417 549 0
-338 -371 -409 507 0
-338 -371 -411 534 0
-338 -371 -412 539 0
-338 -371 -413 543 0
-338 -371 -414 546 0
-338 -371 -415 548 0
-338 -371 -417 550 0
-338 -372 -409 508 0
-338 -372 -411 535 0
-338 -372 -412 540 0
-338 -372 -413 544 0
-338 -372 -414 547 0
-338 -372 -415 549 0
-338 -372 -416 550 0
-339 -364 -410 502 0
-339 -364 -412 509 0
-339 -364 -413 510 0
-339 -364 -414 511 0
-339 -364 -415 512 0
-339 -364 -416 513 0
-339 -364 -417 514 0
-339 -365 -409 502 0
-339 -365 -412 530 0
-339 -365 -413 531 0
-339 -365 -414 532 0
-339 -365 -415 533 0
-339 -365 -416 534 0
-339 -365 -417 535 0
-339 -367 -409 509 0
-339 -367 -410 530 0
-339 -367 -413 551 0
-339 -367 -414 552 0
-339 -367 -415 553 0
-339 -367 -416 554 0
-339 -367 -417 555 0
-339 -368 -409 510 0
-339 -368 -410 531 0
-339 -368 -412 551 0
-339 -368 -414 556 0
-339 -368 -415 557 0
-339 -368 -416 558 0
-339 -368 -417 559 0
-339 -369 -409 511 0
-339 -369 -410 532 0
-339 -369 -412 552 0
-339 -369 -413 556 0
-339 -369 -415 560 0
-339 -369 -416 561 0
-339 -369 -417 562 0
-339 -370 -409 512 0
-339 -370 -410 533 0
-339 -370 -412 553 0
-339 -370 -413 557 0
-339 -370 -414 560 0
-339 -370 -416 563 0
-339 -370 -417 564 0
-339 -371 -409 513 0
-339 -371 -410 534 0
-339 -371 -412 554 0
-339 -371 -413 558 0
-339 -371 -414 561 0
-339 -371 -415 563 0
-339 -371 -417 565 0
-339 -372 -409 514 0
-339 -372 -410 535 0
-339 -372 -412 555 0
-339 -372 -413 559 0
-339 -372 -414 562 0
-339 -372 -415 564 0
-339 -372 -416 565 0
-340 -364 -410 503 0
-340 -364 -411 509 0
-340 -364 -413 515 0
-340 -364 -414 516 0
-340 -364 -415 517 0
-340 -364 -416 518 0
-340 -364 -417 519 0
-340 -365 -409 503 0
-340 -365 -411 530 0
-340 -365 -413 536 0
-340 -365 -414 537 0
-340 -365 -415 538 0
-340 -365 -416 539 0
-340 -365 -417 540 0
-340 -366 -409 509 0
-340 -366 -410 530 0
-340 -366 -413 551 0
-340 -366 -414 552 0
-340 -366 -415 553 0
-340 -366 -416 554 0
-340 -366 -417 555 0
-340 -368 -409 515 0
-340 -368 -410 536 0
-340 -368 -411 551 0
-340 -368 -414 566 0
-340 -368 -415 567 0
-340 -368 -416 568 0
-340 -368 -417 569 0
-340 -369 -409 516 0
-340 -369 -410 537 0
-340 -369 -411 552 0
-340 -369 -413 566 0
-340 -369 -415 570 0
-340 -369 -416 571 0
-340 -369 -417 572 0
-340 -370 -409 517 0
-340 -370 -410 538 0
-340 -370 -411 553 0
-340 -370 -413 567 0
-340 -370 -414 570 0
-340 -370 -416 573 0
-340 -370 -417 574 0
-340 -371 -409 518 0
-340 -371 -410 539 0
-340 -371 -411 554 0
-340 -371 -413 568 0
-340 -371 -414 571 0
-340 -371 -415 573 0
-340 -371 -417 575 0
-340 -372 -409 519 0
-340 -372 -410 540 0
-340 -372 -411 555 0
-340 -372 -413 569 0
-340 -372 -414 572 0
-340 -372 -415 574 0
-340 -372 -416 575 0
-341 -364 -410 504 0
-341 -364 -411 510 0
-341 -364 -412 515 0
-341 -364 -414 520 0
-341 -364 -415 521 0
-341 -364 -416 522 0
-341 -364 -417 523 0
-341 -365 -409 504 0
-341 -365 -411 531 0
-341 -365 -412 536 0
-341 -365 -414 541 0
-341 -365 -415 542 0
-341 -365 -416 543 0
-341 -365 -417 544 0
-341 -366 -409 510 0
-341 -366 -410 531 0
-341 -366 -412 551 0
-341 -366 -414 556 0
-341 -366 -415 557 0
-341 -366 -416 558 0
-341 -366 -417 559 0
-341 -367 -409 515 0
-341 -367 -410 536 0
-341 -367 -411 551 0
-341 -367 -414 566 0
-341 -367 -415 567 0
-341 -367 -416 568 0
-341 -367 -417 569 0
-341 -369 -409 520 0
-341 -369 -410 541 0
-341 -369 -411 556 0
-341 -369 -412 566 0
-341 -369 -415 576 0
-341 -369 -416 577 0
-341 -369 -417 578 0
-341 -370 -409 521 0
-341 -370 -410 542 0
-341 -370 -411 557 0
-341 -370 -412 567 0
-341 -370 -414 576 0
-341 -370 -416 579 0
-341 -370 -417 580 0
-341 -371 -409 522 0
-341 -371 -410 543 0
-341 -371 -411 558 0
-341 -371 -412 568 0
-341 -371 -414 577 0
-341 -371 -415 579 0
-341 -371 -417 581 0
-341 -372 -409 523 0
-341 -372 -410 544 0
-341 -372 -411 559 0
-341 -372 -412 569 0
-341 -372 -414 578 0
-341 -372 -415 580 0
-341 -372 -416 581 0
-342 -364 -410 505 0
-342 -364 -411 511 0
-342 -364 -412 516 0
-342 -364 -413 520 0
-342 -364 -415 524 0
-342 -364 -416 525 0
-342 -364 -417 526 0
-342 -365 -409 505 0
-342 -365 -411 532 0
-342 -365 -412 537 0
-342 -365 -413 541 0
-342 -365 -415 545 0
-342 -365 -416 546 0
-342 -365 -417 547 0
-342 -366 -409 511 0
-342 -366 -410 532 0
-342 -366 -412 552 0
-342 -366 -413 556 0
-342 -366 -415 560 0
-342 -366 -416 561 0
-342 -366 -417 562 0
-342 -367 -409 516 0
-342 -367 -410 537 0
-342 -367 -411 552 0
-342 -367 -413 566 0
-342 -367 -415 570 0
-342 -367 -416 571 0
-342 -367 -417 572 0
-342 -368 -409 520 0
-342 -368 -410 541 0
-342 -368 -411 556 0
-342 -368 -412 566 0
-342 -368 -415 576 0
-342 -368 -416 577 0
-342 -368 -417 578 0
-342 -370 -409 524 0
-342 -370 -410 545 0
-342 -370 -411 560 0
-342 -370 -412 570 0
-342 -370 -413 576 0
-342 -370 -416 582 0
-342 -370 -417 583 0
-342 -371 -409 525 0
-342 -371 -410 546 0
-342 -371 -411 561 0
-342 -371 -412 571 0
-342 -371 -413 577 0
-342 -371 -415 582 0
-342 -371 -417 584 0
-342 -372 -409 526 0
-342 -372 -410 547 0
-342 -372 -411 562 0
-342 -372 -412 572 0
-342 -372 -413 578 0
-342 -372 -415 583 0
-342 -372 -416 584 0
-343 -364 -410 506 0
-343 -364 -411 512 0
-343 -364 -412 517 0
-343 -364 -413 521 0
-343 -364 -414 524 0
-343 -364 -416 527 0
-343 -364 -417 528 0
-343 -365 -409 506 0
-343 -365 -411 533 0
-343 -365 -412 538 0
-343 -365 -413 542 0
-343 -365 -414 545 0
-343 -365 -416 548 0
-343 -365 -417 549 0
-343 -366 -409 512 0
-343 -366 -410 533 0
-343 -366 -412 553 0
-343 -366 -413 557 0
-343 -366 -414 560 0
-343 -366 -416 563 0
-343 -366 -417 564 0
-343 -367 -409 517 0
-343 -367 -410 538 0
-343 -367 -411 553 0
-343 -367 -413 567 0
-343 -367 -414 570 0
-343 -367 -416 573 0
-343 -367 -417 574 0
-343 -368 -409 521 0
-343 -368 -410 542 0
-343 -368 -411 557 0
-343 -368 -412 567 0
-343 -368 -414 576 0
-343 -368 -416 579 0
-343 -368 -417 580 0
-343 -369 -409 524 0
-343 -369 -410 545 0
-343 -369 -411 560 0
-343 -369 -412 570 0
-343 -369 -413 576 0
-343 -369 -416 582 0
-343 -369 -417 583 0
-343 -371 -409 527 0
-343 -371 -410 548 0
-343 -371 -411 563 0
-343 -371 -412 573 0
-343 -371 -413 579 0
-343 -371 -414 582 0
-343 -371 -417 585 0
-343 -372 -409 528 0
-343 -372 -410 549 0
-343 -372 -411 564 0
-343 -372 -412 574 0
-343 -372 -413 580 0
-343 -372 -414 583 0
-343 -372 -416 585 0
-344 -364 -410 507 0
-344 -364 -411 513 0
-344 -364 -412 518 0
-344 -364 -413 522 0
-344 -364 -414 525 0
-344 -364 -415 527 0
-344 -364 -417 529 0
-344 -365 -409 507 0
-344 -365 -411 534 0
-344 -365 -412 539 0
-344 -365 -413 543 0
-344 -365 -414 546 0
-344 -365 -415 548 0
-344 -365 -417 550 0
-344 -366 -409 513 0
-344 -366 -410 534 0
-344 -366 -412 554 0
-344 -366 -413 558 0
-344 -366 -414 561 0
-344 -366 -415 563 0
-344 -366 -417 565 0
-344 -367 -409 518 0
-344 -367 -410 539 0
-344 -367 -411 554 0
-344 -367 -413 568 0
-344 -367 -414 571 0
-344 -367 -415 573 0
-344 -367 -417 575 0
-344 -368 -409 522 0
-344 -368 -410 543 0
-344 -368 -411 558 0
-344 -368 -412 568 0
-344 -368 -414 577 0
-344 -368 -415 579 0
-344 -368 -417 581 0
-344 -369 -409 525 0
-344 -369 -410 546 0
-344 -369 -411 561 0
-344 -369 -412 571 0
-344 -369 -413 577 0
-344 -369 -415 582 0
-344 -369 -417 584 0
-344 -370 -409 527 0
-344 -370 -410 548 0
-344 -370 -411 563 0
-344 -370 -412 573 0
-344 -370 -413 579 0
-344 -370 -414 582 0
-344 -370 -417 585 0
-344 -372 -409 529 0
-344 -372 -410 550 0
-344 -372 -411 565 0
-344 -372 -412 575 0
-344 -372 -413 581 0
-344 -372 -414 584 0
-344 -372 -415 585 0
-345 -364 -410 508 0
-345 -364 -411 514 0
-345 -364 -412 519 0
-345 -364 -413 523 0
-345 -364 -414 526 0
-345 -364 -415 528 0
-345 -364 -416 529 0
-345 -365 -409 508 0
-345 -365 -411 535 0
-345 -365 -412 540 0
-345 -365 -413 544 0
-345 -365 -414 547 0
-345 -365 -415 549 0
-345 -365 -416 550 0
-345 -366 -409 514 0
-345 -366 -410 535 0
-345 -366 -412 555 0
-345 -366 -413 559 0
-345 -366 -414 562 0
-345 -366 -415 564 0
-345 -366 -416 565 0
-345 -367 -409 519 0
-345 -367 -410 540 0
-345 -367 -411 555 0
-345 -367 -413 569 0
-345 -367 -414 572 0
-345 -367 -415 574 0
-345 -367 -416 575 0
-345 -368 -409 523 0
-345 -368 -410 544 0
-345 -368 -411 559 0
-345 -368 -412 569 0
-345 -368 -414 578 0
-345 -368 -415 580 0
-345 -368 -416 581 0
-345 -369 -409 526 0
-345 -369 -410 547 0
-345 -369 -411 562 0
-345 -369 -412 572 0
-345 -369 -413 578 0
-345 -369 -415 583 0
-345 -369 -416 584 0
-345 -370 -409 528 0
-345 -370 -410 549 0
-345 -370 -411 564 0
-345 -370 -412 574 0
-345 -370 -413 580 0
-345 -370 -414 583 0
-345 -370 -416 585 0
-345 -371 -409 529 0
-345 -371 -410 550 0
-345 -371 -411 565 0
-345 -371 -412 575 0
-345 -371 -413 581 0
-345 -371 -414 584 0
-345 -371 -415 585 0
-502 1 0
-503 2 0
-504 3 0
-505 4 0
-506 5 0
-507 6 0
-508 7 0
-509 8 0
-510 9 0
-511 10 0
-512 11 0
-513 12 0
-514 13 0
-515 14 0
-516 15 0
-517 16 0
-518 17 0
-519 18 0
-520 19 0
-521 20 0
-522 21 0
-523 22 0
-524 23 0
-525 24 0
-526 25 0
-527 26 0
-528 27 0
-529 28 0
-530 29 0
-531 30 0
-532 31 0
-533 32 0
-534 33 0
-535 34 0
-536 35 0
-537 36 0
-538 37 0
-539 38 0
-540 39 0
-541 40 0
-542 41 0
-543 42 0
-544 43 0
-545 44 0
-546 45 0
-547 46 0
-548 47 0
-549 48 0
-550 49 0
-551 50 0
-552 51 0
-553 52 0
-554 53 0
-555 54 0
-556 55 0
-557 56 0
-558 57 0
-559 58 0
-560 59 0
-561 60 0
-562 61 0
-563 62 0
-564 63 0
-565 64 0
-566 65 0
-567 66 0
-568 67 0
-569 68 0
-570 69 0
-571 70 0
-572 71 0
-573 72 0
-574 73 0
-575 74 0
-576 75 0
-577 76 0
-578 77 0
-579 78 0
-580 79 0
-581 80 0
-582 81 0
-583 82 0
-584 83 0
-585 84 0
-346 -365 -375 586 0
-346 -365 -376 587 0
-346 -365 -377 588 0
-346 -365 -378 589 0
-346 -365 -379 590 0
-346 -365 -380 591 0
-346 -365 -381 592 0
-346 -366 -374 586 0
-346 -366 -376 593 0
-346 -366 -377 594 0
-346 -366 -378 595 0
-346 -366 -379 596 0
-346 -366 -380 597 0
-346 -366 -381 598 0
-346 -367 -374 587 0
-346 -367 -375 593 0
-346 -367 -377 599 0
-346 -367 -378 600 0
-346 -367 -379 601 0
-346 -367 -380 602 0
-346 -367 -381 603 0
-346 -368 -374 588 0
-346 -368 -375 594 0
-346 -368 -376 599 0
-346 -368 -378 604 0
-346 -368 -379 605 0
-346 -368 -380 606 0
-346 -368 -381 607 0
-346 -369 -374 589 0
-346 -369 -375 595 0
-346 -369 -376 600 0
-346 -369 -377 604 0
-346 -369 -379 608 0
-346 -369 -380 609 0
-346 -369 -381 610 0
-346 -370 -374 590 0
-346 -370 -375 596 0
-346 -370 -376 601 0
-346 -370 -377 605 0
-346 -370 -378 608 0
-346 -370 -380 611 0
-346 -370 -381 612 0
-346 -371 -374 591 0
-346 -371 -375 597 0
-346 -371 -376 602 0
-346 -371 -377 606 0
-346 -371 -378 609 0
-346 -371 -379 611 0
-346 -371 -381 613 0
-346 -372 -374 592 0
-346 -372 -375 598 0
-346 -372 -376 603 0
-346 -372 -377 607 0
-346 -372 -378 610 0
-346 -372 -379 612 0
-346 -372 -380 613 0
-347 -364 -375 586 0
-347 -364 -376 587 0
-347 -364 -377 588 0
-347 -364 -378 589 0
-347 -364 -379 590 0
-347 -364 -380 591 0
-347 -364 -381 592 0
-347 -366 -373 586 0
-347 -366 -376 614 0
-347 -366 -377 615 0
-347 -366 -378 616 0
-347 -366 -379 617 0
-347 -366 -380 618 0
-347 -366 -381 619 0
-347 -367 -373 587 0
-347 -367 -375 614 0
-347 -367 -377 620 0
-347 -367 -378 621 0
-347 -367 -379 622 0
-347 -367 -380 623 0
-347 -367 -381 624 0
-347 -368 -373 588 0
-347 -368 -375 615 0
-347 -368 -376 620 0
-347 -368 -378 625 0
-347 -368 -379 626 0
-347 -368 -380 627 0
-347 -368 -381 628 0
-347 -369 -373 589 0
-347 -369 -375 616 0
-347 -369 -376 621 0
-347 -369 -377 625 0
-347 -369 -379 629 0
-347 -369 -380 630 0
-347 -369 -381 631 0
-347 -370 -373 590 0
-347 -370 -375 617 0
-347 -370 -376 622 0
-347 -370 -377 626 0
-347 -370 -378 629 0
-347 -370 -380 632 0
-347 -370 -381 633 0
-347 -371 -373 591 0
-347 -371 -375 618 0
-347 -371 -376 623 0
-347 -371 -377 627 0
-347 -371 -378 630 0
-347 -371 -379 632 0
-347 -371 -381 634 0
-347 -372 -373 592 0
-347 -372 -375 619 0
-347 -372 -376 624 0
-347 -372 -377 628 0
-347 -372 -378 631 0
-347 -372 -379 633 0
-347 -372 -380 634 0
-348 -364 -374 586 0
-348 -364 -376 593 0
-348 -364 -377 594 0
-348 -364 -378 595 0
-348 -364 -379 596 0
-348 -364 -380 597 0
-348 -364 -381 598 0
-348 -365 -373 586 0
-348 -365 -376 614 0
-348 -365 -377 615 0
-348 -365 -378 616 0
-348 -365 -379 617 0
-348 -365 -380 618 0
-348 -365 -381 619 0
-348 -367 -373 593 0
-348 -367 -374 614 0
-348 -367 -377 635 0
-348 -367 -378 636 0
-348 -367 -379 637 0
-348 -367 -380 638 0
-348 -367 -381 639 0
-348 -368 -373 594 0
-348 -368 -374 615 0
-348 -368 -376 635 0
-348 -368 -378 640 0
-348 -368 -379 641 0
-348 -368 -380 642 0
-348 -368 -381 643 0
-348 -369 -373 595 0
-348 -369 -374 616 0
-348 -369 -376 636 0
-348 -369 -377 640 0
-348 -369 -379 644 0
-348 -369 -380 645 0
-348 -369 -381 646 0
-348 -370 -373 596 0
-348 -370 -374 617 0
-348 -370 -376 637 0
-348 -370 -377 641 0
-348 -370 -378 644 0
-348 -370 -380 647 0
-348 -370 -381 648 0
-348 -371 -373 597 0
-348 -371 -374 618 0
-348 -371 -376 638 0
-348 -371 -377 642 0
-348 -371 -378 645 0
-348 -371 -379 647 0
-348 -371 -381 649 0
-348 -372 -373 598 0
-348 -372 -374 619 0
-348 -372 -376 639 0
-348 -372 -377 643 0
-348 -372 -378 646 0
-348 -372 -379 648 0
-348 -372 -380 649 0
-349 -364 -374 587 0
-349 -364 -375 593 0
-349 -364 -377 599 0
-349 -364 -378 600 0
-349 -364 -379 601 0
-349 -364 -380 602 0
-349 -364 -381 603 0
-349 -365 -373 587 0
-349 -365 -375 614 0
-349 -365 -377 620 0
-349 -365 -378 621 0
-349 -365 -379 622 0
-349 -365 -380 623 0
-349 -365 -381 624 0
-349 -366 -373 593 0
-349 -366 -374 614 0
-349 -366 -377 635 0
-349 -366 -378 636 0
-349 -366 -379 637 0
-349 -366 -380 638 0
-349 -366 -381 639 0
-349 -368 -373 599 0
-349 -368 -374 620 0
-349 -368 -375 635 0
-349 -368 -378 650 0
-349 -368 -379 651 0
-349 -368 -380 652 0
-349 -368 -381 653 0
-349 -369 -373 600 0
-349 -369 -374 621 0
-349 -369 -375 636 0
-349 -369 -377 650 0
-349 -369 -379 654 0
-349 -369 -380 655 0
-349 -369 -381 656 0
-349 -370 -373 601 0
-349 -370 -374 622 0
-349 -370 -375 637 0
-349 -370 -377 651 0
-349 -370 -378 654 0
-349 -370 -380 657 0
-349 -370 -381 658 0
-349 -371 -373 602 0
-349 -371 -374 623 0
-349 -371 -375 638 0
-349 -371 -377 652 0
-349 -371 -378 655 0
-349 -371 -379 657 0
-349 -371 -381 659 0
-349 -372 -373 603 0
-349 -372 -374 624 0
-349 -372 -375 639 0
-349 -372 -377 653 0
-349 -372 -378 656 0
-349 -372 -379 658 0
-349 -372 -380 659 0
-350 -364 -374 588 0
-350 -364 -375 594 0
-350 -364 -376 599 0
-350 -364 -378 604 0
-350 -364 -379 605 0
-350 -364 -380 606 0
-350 -364 -381 607 0
-350 -365 -373 588 0
-350 -365 -375 615 0
-350 -365 -376 620 0
-350 -365 -378 625 0
-350 -365 -379 626 0
-350 -365 -380 627 0
-350 -365 -381 628 0
-350 -366 -373 594 0
-350 -366 -374 615 0
-350 -366 -376 635 0
-350 -366 -378 640 0
-350 -366 -379 641 0
-350 -366 -380 642 0
-350 -366 -381 643 0
-350 -367 -373 599 0
-350 -367 -374 620 0
-350 -367 -375 635 0
-350 -367 -378 650 0
-350 -367 -379 651 0
-350 -367 -380 652 0
-350 -367 -381 653 0
-350 -369 -373 604 0
-350 -369 -374 625 0
-350 -369 -375 640 0
-350 -369 -376 650 0
-350 -369 -379 660 0
-350 -369 -380 661 0
-350 -369 -381 662 0
-350 -370 -373 605 0
-350 -370 -374 626 0
-350 -370 -375 641 0
-350 -370 -376 651 0
-350 -370 -378 660 0
-350 -370 -380 663 0
-350 -370 -381 664 0
-350 -371 -373 606 0
-350 -371 -374 627 0
-350 -371 -375 642 0
-350 -371 -376 652 0
-350 -371 -378 661 0
-350 -371 -379 663 0
-350 -371 -381 665 0
-350 -372 -373 607 0
-350 -372 -374 628 0
-350 -372 -375 643 0
-350 -372 -376 653 0
-350 -372 -378 662 0
-350 -372 -379 664 0
-350 -372 -380 665 0
-351 -364 -374 589 0
-351 -364 -375 595 0
-351 -364 -376 600 0
-351 -364 -377 604 0
-351 -364 -379 608 0
-351 -364 -380 609 0
-351 -364 -381 610 0
-351 -365 -373 589 0
-351 -365 -375 616 0
-351 -365 -376 621 0
-351 -365 -377 625 0
-351 -365 -379 629 0
-351 -365 -380 630 0
-351 -365 -381 631 0
-351 -366 -373 595 0
-351 -366 -374 616 0
-351 -366 -376 636 0
-351 -366 -377 640 0
-351 -366 -379 644 0
-351 -366 -380 645 0
-351 -366 -381 646 0
-351 -367 -373 600 0
-351 -367 -374 621 0
-351 -367 -375 636 0
-351 -367 -377 650 0
-351 -367 -379 654 0
-351 -367 -380 655 0
-351 -367 -381 656 0
-351 -368 -373 604 0
-351 -368 -374 625 0
-351 -368 -375 640 0
-351 -368 -376 650 0
-351 -368 -379 660 0
-351 -368 -380 661 0
-351 -368 -381 662 0
-351 -370 -373 608 0
-351 -370 -374 629 0
-351 -370 -375 644 0
-351 -370 -376 654 0
-351 -370 -377 660 0
-351 -370 -380 666 0
-351 -370 -381 667 0
-351 -371 -373 609 0
-351 -371 -374 630 0
-351 -371 -375 645 0
-351 -371 -376 655 0
-351 -371 -377 661 0
-351 -371 -379 666 0
-351 -371 -381 668 0
-351 -372 -373 610 0
-351 -372 -374 631 0
-351 -372 -375 646 0
-351 -372 -376 656 0
-351 -372 -377 662 0
-351 -372 -379 667 0
-351 -372 -380 668 0
-352 -364 -374 590 0
-352 -364 -375 596 0
-352 -364 -376 601 0
-352 -364 -377 605 0
-352 -364 -378 608 0
-352 -364 -380 611 0
-352 -364 -381 612 0
-352 -365 -373 590 0
-352 -365 -375 617 0
-352 -365 -376 622 0
-352 -365 -377 626 0
-352 -365 -378 629 0
-352 -365 -380 632 0
-352 -365 -381 633 0
-352 -366 -373 596 0
-352 -366 -374 617 0
-352 -366 -376 637 0
-352 -366 -377 641 0
-352 -366 -378 644 0
-352 -366 -380 647 0
-352 -366 -381 648 0
-352 -367 -373 601 0
-352 -367 -374 622 0
-352 -367 -375 637 0
-352 -367 -377 651 0
-352 -367 -378 654 0
-352 -367 -380 657 0
-352 -367 -381 658 0
-352 -368 -373 605 0
-352 -368 -374 626 0
-352 -368 -375 641 0
-352 -368 -376 651 0
-352 -368 -378 660 0
-352 -368 -380 663 0
-352 -368 -381 664 0
-352 -369 -373 608 0
-352 -369 -374 629 0
-352 -369 -375 644 0
-352 -369 -376 654 0
-352 -369 -377 660 0
-352 -369 -380 666 0
-352 -369 -381 667 0
-352 -371 -373 611 0
-352 -371 -374 632 0
-352 -371 -375 647 0
-352 -371 -376 657 0
-352 -371 -377 663 0
-352 -371 -378 666 0
-352 -371 -381 669 0
-352 -372 -373 612 0
-352 -372 -374 633 0
-352 -372 -375 648 0
-352 -372 -376 658 0
-352 -372 -377 664 0
-352 -372 -378 667 0
-352 -372 -380 669 0
-353 -364 -374 591 0
-353 -364 -375 597 0
-353 -364 -376 602 0
-353 -364 -377 606 0
-353 -364 -378 609 0
-353 -364 -379 611 0
-353 -364 -381 613 0
-353 -365 -373 591 0
-353 -365 -375 618 0
-353 -365 -376 623 0
-353 -365 -377 627 0
-353 -365 -378 630 0
-353 -365 -379 632 0
-353 -365 -381 634 0
-353 -366 -373 597 0
-353 -366 -374 618 0
-353 -366 -376 638 0
-353 -366 -377 642 0
-353 -366 -378 645 0
-353 -366 -379 647 0
-353 -366 -381 649 0
-353 -367 -373 602 0
-353 -367 -374 623 0
-353 -367 -375 638 0
-353 -367 -377 652 0
-353 -367 -378 655 0
-353 -367 -379 657 0
-353 -367 -381 659 0
-353 -368 -373 606 0
-353 -368 -374 627 0
-353 -368 -375 642 0
-353 -368 -376 652 0
-353 -368 -378 661 0
-353 -368 -379 663 0
-353 -368 -381 665 0
-353 -369 -373 609 0
-353 -369 -374 630 0
-353 -369 -375 645 0
-353 -369 -376 655 0
-353 -369 -377 661 0
-353 -369 -379 666 0
-353 -369 -381 668 0
-353 -370 -373 611 0
-353 -370 -374 632 0
-353 -370 -375 647 0
-353 -370 -376 657 0
-353 -370 -377 663 0
-353 -370 -378 666 0
-353 -370 -381 669 0
-353 -372 -373 613 0
-353 -372 -374 634 0
-353 -372 -375 649 0
-353 -372 -376 659 0
-353 -372 -377 665 0
-353 -372 -378 668 0
-353 -372 -379 669 0
-354 -364 -374 592 0
-354 -364 -375 598 0
-354 -364 -376 603 0
-354 -364 -377 607 0
-354 -364 -378 610 0
-354 -364 -379 612 0
-354 -364 -380 613 0
-354 -365 -373 592 0
-354 -365 -375 619 0
-354 -365 -376 624 0
-354 -365 -377 628 0
-354 -365 -378 631 0
-354 -365 -379 633 0
-354 -365 -380 634 0
-354 -366 -373 598 0
-354 -366 -374 619 0
-354 -366 -376 639 0
-354 -366 -377 643 0
-354 -366 -378 646 0
-354 -366 -379 648 0
-354 -366 -380 649 0
-354 -367 -373 603 0
-354 -367 -374 624 0
-354 -367 -375 639 0
-354 -367 -377 653 0
-354 -367 -378 656 0
-354 -367 -379 658 0
-354 -367 -380 659 0
-354 -368 -373 607 0
-354 -368 -374 628 0
-354 -368 -375 643 0
-354 -368 -376 653 0
-354 -368 -378 662 0
-354 -368 -379 664 0
-354 -368 -380 665 0
-354 -369 -373 610 0
-354 -369 -374 631 0
-354 -369 -375 646 0
-354 -369 -376 656 0
-354 -369 -377 662 0
-354 -369 -379 667 0
-354 -369 -380 668 0
-354 -370 -373 612 0
-354 -370 -374 633 0
-354 -370 -375 648 0
-354 -370 -376 658 0
-354 -370 -377 664 0
-354 -370 -378 667 0
-354 -370 -380 669 0
-354 -371 -373 613 0
-354 -371 -374 634 0
-354 -371 -375 649 0
-354 -371 -376 659 0
-354 -371 -377 665 0
-354 -371 -378 668 0
-354 -371 -379 669 0
-586 1 0
-587 2 0
-588 3 0
-589 4 0
-590 5 0
-591 6 0
-592 7 0
-593 8 0
-594 9 0
-595 10 0
-596 11 0
-597 12 0
-598 13 0
-599 14 0
-600 15 0
-601 16 0
-602 17 0
-603 18 0
-604 19 0
-605 20 0
-606 21 0
-607 22 0
-608 23 0
-609 24 0
-610 25 0
-611 26 0
-612 27 0
-613 28 0
-614 29 0
-615 30 0
-616 31 0
-617 32 0
-618 33 0
-619 34 0
-620 35 0
-621 36 0
-622 37 0
-623 38 0
-624 39 0
-625 40 0
-626 41 0
-627 42 0
-628 43 0
-629 44 0
-630 45 0
-631 46 0
-632 47 0
-633 48 0
-634 49 0
-635 50 0
-636 51 0
-637 52 0
-638 53 0
-639 54 0
-640 55 0
-641 56 0
-642 57 0
-643 58 0
-644 59 0
-645 60 0
-646 61 0
-647 62 0
-648 63 0
-649 64 0
-650 65 0
-651 66 0
-652 67 0
-653 68 0
-654 69 0
-655 70 0
-656 71 0
-657 72 0
-658 73 0
-659 74 0
-660 75 0
-661 76 0
-662 77 0
-663 78 0
-664 79 0
-665 80 0
-666 81 0
-667 82 0
-668 83 0
-669 84 0
-355 -374 -384 670 0
-355 -374 -385 671 0
-355 -374 -386 672 0
-355 -374 -387 673 0
-355 -374 -388 674 0
-355 -374 -389 675 0
-355 -374 -390 676 0
-355 -375 -383 670 0
-355 -375 -385 677 0
-355 -375 -386 678 0
-355 -375 -387 679 0
-355 -375 -388 680 0
-355 -375 -389 681 0
-355 -375 -390 682 0
-355 -376 -383 671 0
-355 -376 -384 677 0
-355 -376 -386 683 0
-355 -376 -387 684 0
-355 -376 -388 685 0
-355 -376 -389 686 0
-355 -376 -390 687 0
-355 -377 -383 672 0
-355 -377 -384 678 0
-355 -377 -385 683 0
-355 -377 -387 688 0
-355 -377 -388 689 0
-355 -377 -389 690 0
-355 -377 -390 691 0
-355 -378 -383 673 0
-355 -378 -384 679 0
-355 -378 -385 684 0
-355 -378 -386 688 0
-355 -378 -388 692 0
-355 -378 -389 693 0
-355 -378 -390 694 0
-355 -379 -383 674 0
-355 -379 -384 680 0
-355 -379 -385 685 0
-355 -379 -386 689 0
-355 -379 -387 692 0
-355 -379 -389 695 0
-355 -379 -390 696 0
-355 -380 -383 675 0
-355 -380 -384 681 0
-355 -380 -385 686 0
-355 -380 -386 690 0
-355 -380 -387 693 0
-355 -380 -388 695 0
-355 -380 -390 697 0
-355 -381 -383 676 0
-355 -381 -384 682 0
-355 -381 -385 687 0
-355 -381 -386 691 0
-355 -381 -387 694 0
-355 -381 -388 696 0
-355 -381 -389 697 0
-356 -373 -384 670 0
-356 -373 -385 671 0
-356 -373 -386 672 0
-356 -373 -387 673 0
-356 -373 -388 674 0
-356 -373 -389 675 0
-356 -373 -390 676 0
-356 -375 -382 670 0
-356 -375 -385 698 0
-356 -375 -386 699 0
-356 -375 -387 700 0
-356 -375 -388 701 0
-356 -375 -389 702 0
-356 -375 -390 703 0
-356 -376 -382 671 0
-356 -376 -384 698 0
-356 -376 -386 704 0
-356 -376 -387 705 0
-356 -376 -388 706 0
-356 -376 -389 707 0
-356 -376 -390 708 0
-356 -377 -382 672 0
-356 -377 -384 699 0
-356 -377 -385 704 0
-356 -377 -387 709 0
-356 -377 -388 710 0
-356 -377 -389 711 0
-356 -377 -390 712 0
-356 -378 -382 673 0
-356 -378 -384 700 0
-356 -378 -385 705 0
-356 -378 -386 709 0
-356 -378 -388 713 0
-356 -378 -389 714 0
-356 -378 -390 715 0
-356 -379 -382 674 0
-356 -379 -384 701 0
-356 -379 -385 706 0
-356 -379 -386 710 0
-356 -379 -387 713 0
-356 -379 -389 716 0
-356 -379 -390 717 0
-356 -380 -382 675 0
-356 -380 -384 702 0
-356 -380 -385 707 0
-356 -380 -386 711 0
-356 -380 -387 714 0
-356 -380 -388 716 0
-356 -380 -390 718 0
-356 -381 -382 676 0
-356 -381 -384 703 0
-356 -381 -385 708 0
-356 -381 -386 712 0
-356 -381 -387 715 0
-356 -381 -388 717 0
-356 -381 -389 718 0
-357 -373 -383 670 0
-357 -373 -385 677 0
-357 -373 -386 678 0
-357 -373 -387 679 0
-357 -373 -388 680 0
-357 -373 -389 681 0
-357 -373 -390 682 0
-357 -374 -382 670 0
-357 -374 -385 698 0
-357 -374 -386 699 0
-357 -374 -387 700 0
-357 -374 -388 701 0
-357 -374 -389 702 0
-357 -374 -390 703 0
-357 -376 -382 677 0
-357 -376 -383 698 0
-357 -376 -386 719 0
-357 -376 -387 720 0
-357 -376 -388 721 0
-357 -376 -389 722 0
-357 -376 -390 723 0
-357 -377 -382 678 0
-357 -377 -383 699 0
-357 -377 -385 719 0
-357 -377 -387 724 0
-357 -377 -388 725 0
-357 -377 -389 726 0
-357 -377 -390 727 0
-357 -378 -382 679 0
-357 -378 -383 700 0
-357 -378 -385 720 0
-357 -378 -386 724 0
-357 -378 -388 728 0
-357 -378 -389 729 0
-357 -378 -390 730 0
-357 -379 -382 680 0
-357 -379 -383 701 0
-357 -379 -385 721 0
-357 -379 -386 725 0
-357 -379 -387 728 0
-357 -379 -389 731 0
-357 -379 -390 732 0
-357 -380 -382 681 0
-357 -380 -383 702 0
-357 -380 -385 722 0
-357 -380 -386 726 0
-357 -380 -387 729 0
-357 -380 -388 731 0
-357 -380 -390 733 0
-357 -381 -382 682 0
-357 -381 -383 703 0
-357 -381 -385 723 0
-357 -381 -386 727 0
-357 -381 -387 730 0
-357 -381 -388 732 0
-357 -381 -389 733 0
-358 -373 -383 671 0
-358 -373 -384 677 0
-358 -373 -386 683 0
-358 -373 -387 684 0
-358 -373 -388 685 0
-358 -373 -389 686 0
-358 -373 -390 687 0
-358 -374 -382 671 0
-358 -374 -384 698 0
-358 -374 -386 704 0
-358 -374 -387 705 0
-358 -374 -388 706 0
-358 -374 -389 707 0
-358 -374 -390 708 0
-358 -375 -382 677 0
-358 -375 -383 698 0
-358 -375 -386 719 0
-358 -375 -387 720 0
-358 -375 -388 721 0
-358 -375 -389 722 0
-358 -375 -390 723 0
-358 -377 -382 683 0
-358 -377 -383 704 0
-358 -377 -384 719 0
-358 -377 -387 734 0
-358 -377 -388 735 0
-358 -377 -389 736 0
-358 -377 -390 737 0
-358 -378 -382 684 0
-358 -378 -383 705 0
-358 -378 -384 720 0
-358 -378 -386 734 0
-358 -378 -388 738 0
-358 -378 -389 739 0
-358 -378 -390 740 0
-358 -379 -382 685 0
-358 -379 -383 706 0
-358 -379 -384 721 0
-358 -379 -386 735 0
-358 -379 -387 738 0
-358 -379 -389 741 0
-358 -379 -390 742 0
-358 -380 -382 686 0
-358 -380 -383 707 0
-358 -380 -384 722 0
-358 -380 -386 736 0
-358 -380 -387 739 0
-358 -380 -388 741 0
-358 -380 -390 743 0
-358 -381 -382 687 0
-358 -381 -383 708 0
-358 -381 -384 723 0
-358 -381 -386 737 0
-358 -381 -387 740 0
-358 -381 -388 742 0
-358 -381 -389 743 0
-359 -373 -383 672 0
-359 -373 -384 678 0
-359 -373 -385 683 0
-359 -373 -387 688 0
-359 -373 -388 689 0
-359 -373 -389 690 0
-359 -373 -390 691 0
-359 -374 -382 672 0
-359 -374 -384 699 0
-359 -374 -385 704 0
-359 -374 -387 709 0
-359 -374 -388 710 0
-359 -374 -389 711 0
-359 -374 -390 712 0
-359 -375 -382 678 0
-359 -375 -383 699 0
-359 -375 -385 719 0
-359 -375 -387 724 0
-359 -375 -388 725 0
-359 -375 -389 726 0
-359 -375 -390 727 0
-359 -376 -382 683 0
-359 -376 -383 704 0
-359 -376 -384 719 0
-359 -376 -387 734 0
-359 -376 -388 735 0
-359 -376 -389 736 0
-359 -376 -390 737 0
-359 -378 -382 688 0
-359 -378 -383 709 0
-359 -378 -384 724 0
-359 -378 -385 734 0
-359 -378 -388 744 0
-359 -378 -389 745 0
-359 -378 -390 746 0
-359 -379 -382 689 0
-359 -379 -383 710 0
-359 -379 -384 725 0
-359 -379 -385 735 0
-359 -379 -387 744 0
-359 -379 -389 747 0
-359 -379 -390 748 0
-359 -380 -382 690 0
-359 -380 -383 711 0
-359 -380 -384 726 0
-359 -380 -385 736 0
-359 -380 -387 745 0
-359 -380 -388 747 0
-359 -380 -390 749 0
-359 -381 -382 691 0
-359 -381 -383 712 0
-359 -381 -384 727 0
-359 -381 -385 737 0
-359 -381 -387 746 0
-359 -381 -388 748 0
-359 -381 -389 749 0
-360 -373 -383 673 0
-360 -373 -384 679 0
-360 -373 -385 684 0
-360 -373 -386 688 0
-360 -373 -388 692 0
-360 -373 -389 693 0
-360 -373 -390 694 0
-360 -374 -382 673 0
-360 -374 -384 700 0
-360 -374 -385 705 0
-360 -374 -386 709 0
-360 -374 -388 713 0
-360 -374 -389 714 0
-360 -374 -390 715 0
-360 -375 -382 679 0
-360 -375 -383 700 0
-360 -375 -385 720 0
-360 -375 -386 724 0
-360 -375 -388 728 0
-360 -375 -389 729 0
-360 -375 -390 730 0
-360 -376 -382 684 0
-360 -376 -383 705 0
-360 -376 -384 720 0
-360 -376 -386 734 0
-360 -376 -388 738 0
-360 -376 -389 739 0
-360 -376 -390 740 0
-360 -377 -382 688 0
-360 -377 -383 709 0
-360 -377 -384 724 0
-360 -377 -385 734 0
-360 -377 -388 744 0
-360 -377 -389 745 0
-360 -377 -390 746 0
-360 -379 -382 692 0
-360 -379 -383 713 0
-360 -379 -384 728 0
-360 -379 -385 738 0
-360 -379 -386 744 0
-360 -379 -389 750 0
-360 -379 -390 751 0
-360 -380 -382 693 0
-360 -380 -383 714 0
-360 -380 -384 729 0
-360 -380 -385 739 0
-360 -380 -386 745 0
-360 -380 -388 750 0
-360 -380 -390 752 0
-360 -381 -382 694 0
-360 -381 -383 715 0
-360 -381 -384 730 0
-360 -381 -385 740 0
-360 -381 -386 746 0
-360 -381 -388 751 0
-360 -381 -389 752 0
-361 -373 -383 674 0
-361 -373 -384 680 0
-361 -373 -385 685 0
-361 -373 -386 689 0
-361 -373 -387 692 0
-361 -373 -389 695 0
-361 -373 -390 696 0
-361 -374 -382 674 0
-361 -374 -384 701 0
-361 -374 -385 706 0
-361 -374 -386 710 0
-361 -374 -387 713 0
-361 -374 -389 716 0
-361 -374 -390 717 0
-361 -375 -382 680 0
-361 -375 -383 701 0
-361 -375 -385 721 0
-361 -375 -386 725 0
-361 -375 -387 728 0
-361 -375 -389 731 0
-361 -375 -390 732 0
-361 -376 -382 685 0
-361 -376 -383 706 0
-361 -376 -384 721 0
-361 -376 -386 735 0
-361 -376 -387 738 0
-361 -376 -389 741 0
-361 -376 -390 742 0
-361 -377 -382 689 0
-361 -377 -383 710 0
-361 -377 -384 725 0
-361 -377 -385 735 0
-361 -377 -387 744 0
-361 -377 -389 747 0
-361 -377 -390 748 0
-361 -378 -382 692 0
-361 -378 -383 713 0
-361 -378 -384 728 0
-361 -378 -385 738 0
-361 -378 -386 744 0
-361 -378 -389 750 0
-361 -378 -390 751 0
-361 -380 -382 695 0
-361 -380 -383 716 0
-361 -380 -384 731 0
-361 -380 -385 741 0
-361 -380 -386 747 0
-361 -380 -387 750 0
-361 -380 -390 753 0
-361 -381 -382 696 0
-361 -381 -383 717 0
-361 -381 -384 732 0
-361 -381 -385 742 0
-361 -381 -386 748 0
-361 -381 -387 751 0
-361 -381 -389 753 0
-362 -373 -383 675 0
-362 -373 -384 681 0
-362 -373 -385 686 0
-362 -373 -386 690 0
-362 -373 -387 693 0
-362 -373 -388 695 0
-362 -373 -390 697 0
-362 -374 -382 675 0
-362 -374 -384 702 0
-362 -374 -385 707 0
-362 -374 -386 711 0
-362 -374 -387 714 0
-362 -374 -388 716 0
-362 -374 -390 718 0
-362 -375 -382 681 0
-362 -375 -383 702 0
-362 -375 -385 722 0
-362 -375 -386 726 0
-362 -375 -387 729 0
-362 -375 -388 731 0
-362 -375 -390 733 0
-362 -376 -382 686 0
-362 -376 -383 707 0
-362 -376 -384 722 0
-362 -376 -386 736 0
-362 -376 -387 739 0
-362 -376 -388 741 0
-362 -376 -390 743 0
-362 -377 -382 690 0
-362 -377 -383 711 0
-362 -377 -384 726 0
-362 -377 -385 736 0
-362 -377 -387 745 0
-362 -377 -388 747 0
-362 -377 -390 749 0
-362 -378 -382 693 0
-362 -378 -383 714 0
-362 -378 -384 729 0
-362 -378 -385 739 0
-362 -378 -386 745 0
-362 -378 -388 750 0
-362 -378 -390 752 0
-362 -379 -382 695 0
-362 -379 -383 716 0
-362 -379 -384 731 0
-362 -379 -385 741 0
-362 -379 -386 747 0
-362 -379 -387 750 0
-362 -379 -390 753 0
-362 -381 -382 697 0
-362 -381 -383 718 0
-362 -381 -384 733 0
-362 -381 -385 743 0
-362 -381 -386 749 0
-362 -381 -387 752 0
-362 -381 -388 753 0
-363 -373 -383 676 0
-363 -373 -384 682 0
-363 -373 -385 687 0
-363 -373 -386 691 0
-363 -373 -387 694 0
-363 -373 -388 696 0
-363 -373 -389 697 0
-363 -374 -382 676 0
-363 -374 -384 703 0
-363 -374 -385 708 0
-363 -374 -386 712 0
-363 -374 -387 715 0
-363 -374 -388 717 0
-363 -374 -389 718 0
-363 -375 -382 682 0
-363 -375 -383 703 0
-363 -375 -385 723 0
-363 -375 -386 727 0
-363 -375 -387 730 0
-363 -375 -388 732 0
-363 -375 -389 733 0
-363 -376 -382 687 0
-363 -376 -383 708 0
-363 -376 -384 723 0
-363 -376 -386 737 0
-363 -376 -387 740 0
-363 -376 -388 742 0
-363 -376 -389 743 0
-363 -377 -382 691 0
-363 -377 -383 712 0
-363 -377 -384 727 0
-363 -377 -385 737 0
-363 -377 -387 746 0
-363 -377 -388 748 0
-363 -377 -389 749 0
-363 -378 -382 694 0
-363 -378 -383 715 0
-363 -378 -384 730 0
-363 -378 -385 740 0
-363 -378 -386 746 0
-363 -378 -388 751 0
-363 -378 -389 752 0
-363 -379 -382 696 0
-363 -379 -383 717 0
-363 -379 -384 732 0
-363 -379 -385 742 0
-363 -379 -386 748 0
-363 -379 -387 751 0
-363 -379 -389 753 0
-363 -380 -382 697 0
-363 -380 -383 718 0
-363 -380 -384 733 0
-363 -380 -385 743 0
-363 -380 -386 749 0
-363 -380 -387 752 0
-363 -380 -388 753 0
-670 1 0
-671 2 0
-672 3 0
-673 4 0
-674 5 0
-675 6 0
-676 7 0
-677 8 0
-678 9 0
-679 10 0
-680 11 0
-681 12 0
-682 13 0
-683 14 0
-684 15 0
-685 16 0
-686 17 0
-687 18 0
-688 19 0
-689 20 0
-690 21 0
-691 22 0
-692 23 0
-693 24 0
-694 25 0
-695 26 0
-696 27 0
-697 28 0
-698 29 0
-699 30 0
-700 31 0
-701 32 0
-702 33 0
-703 34 0
-704 35 0
-705 36 0
-706 37 0
-707 38 0
-708 39 0
-709 40 0
-710 41 0
-711 42 0
-712 43 0
-713 44 0
-714 45 0
-715 46 0
-716 47 0
-717 48 0
-718 49 0
-719 50 0
-720 51 0
-721 52 0
-722 53 0
-723 54 0
-724 55 0
-725 56 0
-726 57 0
-727 58 0
-728 59 0
-729 60 0
-730 61 0
-731 62 0
-732 63 0
-733 64 0
-734 65 0
-735 66 0
-736 67 0
-737 68 0
-738 69 0
-739 70 0
-740 71 0
-741 72 0
-742 73 0
-743 74 0
-744 75 0
-745 76 0
-746 77 0
-747 78 0
-748 79 0
-749 80 0
-750 81 0
-751 82 0
-752 83 0
-753 84 0
-337 -383 -393 754 0
-337 -383 -394 755 0
-337 -383 -395 756 0
-337 -383 -396 757 0
-337 -383 -397 758 0
-337 -383 -398 759 0
-337 -383 -399 760 0
-337 -384 -392 754 0
-337 -384 -394 761 0
-337 -384 -395 762 0
-337 -384 -396 763 0
-337 -384 -397 764 0
-337 -384 -398 765 0
-337 -384 -399 766 0
-337 -385 -392 755 0
-337 -385 -393 761 0
-337 -385 -395 767 0
-337 -385 -396 768 0
-337 -385 -397 769 0
-337 -385 -398 770 0
-337 -385 -399 771 0
-337 -386 -392 756 0
-337 -386 -393 762 0
-337 -386 -394 767 0
-337 -386 -396 772 0
-337 -386 -397 773 0
-337 -386 -398 774 0
-337 -386 -399 775 0
-337 -387 -392 757 0
-337 -387 -393 763 0
-337 -387 -394 768 0
-337 -387 -395 772 0
-337 -387 -397 776 0
-337 -387 -398 777 0
-337 -387 -399 778 0
-337 -388 -392 758 0
-337 -388 -393 764 0
-337 -388 -394 769 0
-337 -388 -395 773 0
-337 -388 -396 776 0
-337 -388 -398 779 0
-337 -388 -399 780 0
-337 -389 -392 759 0
-337 -389 -393 765 0
-337 -389 -394 770 0
-337 -389 -395 774 0
-337 -389 -396 777 0
-337 -389 -397 779 0
-337 -389 -399 781 0
-337 -390 -392 760 0
-337 -390 -393 766 0
-337 -390 -394 771 0
-337 -390 -395 775 0
-337 -390 -396 778 0
-337 -390 -397 780 0
-337 -390 -398 781 0
-338 -382 -393 754 0
-338 -382 -394 755 0
-338 -382 -395 756 0
-338 -382 -396 757 0
-338 -382 -397 758 0
-338 -382 -398 759 0
-338 -382 -399 760 0
-338 -384 -391 754 0
-338 -384 -394 782 0
-338 -384 -395 783 0
-338 -384 -396 784 0
-338 -384 -397 785 0
-338 -384 -398 786 0
-338 -384 -399 787 0
-338 -385 -391 755 0
-338 -385 -393 782 0
-338 -385 -395 788 0
-338 -385 -396 789 0
-338 -385 -397 790 0
-338 -385 -398 791 0
-338 -385 -399 792 0
-338 -386 -391 756 0
-338 -386 -393 783 0
-338 -386 -394 788 0
-338 -386 -396 793 0
-338 -386 -397 794 0
-338 -386 -398 795 0
-338 -386 -399 796 0
-338 -387 -391 757 0
-338 -387 -393 784 0
-338 -387 -394 789 0
-338 -387 -395 793 0
-338 -387 -397 797 0
-338 -387 -398 798 0
-338 -387 -399 799 0
-338 -388 -391 758 0
-338 -388 -393 785 0
-338 -388 -394 790 0
-338 -388 -395 794 0
-338 -388 -396 797 0
-338 -388 -398 800 0
-338 -388 -399 801 0
-338 -389 -391 759 0
-338 -389 -393 786 0
-338 -389 -394 791 0
-338 -389 -395 795 0
-338 -389 -396 798 0
-338 -389 -397 800 0
-338 -389 -399 802 0
-338 -390 -391 760 0
-338 -390 -393 787 0
-338 -390 -394 792 0
-338 -390 -395 796 0
-338 -390 -396 799 0
-338 -390 -397 801 0
-338 -390 -398 802 0
-339 -382 -392 754 0
-339 -382 -394 761 0
-339 -382 -395 762 0
-339 -382 -396 763 0
-339 -382 -397 764 0
-339 -382 -398 765 0
-339 -382 -399 766 0
-339 -383 -391 754 0
-339 -383 -394 782 0
-339 -383 -395 783 0
-339 -383 -396 784 0
-339 -383 -397 785 0
-339 -383 -398 786 0
-339 -383 -399 787 0
-339 -385 -391 761 0
-339 -385 -392 782 0
-339 -385 -395 803 0
-339 -385 -396 804 0
-339 -385 -397 805 0
-339 -385 -398 806 0
-339 -385 -399 807 0
-339 -386 -391 762 0
-339 -386 -392 783 0
-339 -386 -394 803 0
-339 -386 -396 808 0
-339 -386 -397 809 0
-339 -386 -398 810 0
-339 -386 -399 811 0
-339 -387 -391 763 0
-339 -387 -392 784 0
-339 -387 -394 804 0
-339 -387 -395 808 0
-339 -387 -397 812 0
-339 -387 -398 813 0
-339 -387 -399 814 0
-339 -388 -391 764 0
-339 -388 -392 785 0
-339 -388 -394 805 0
-339 -388 -395 809 0
-339 -388 -396 812 0
-339 -388 -398 815 0
-339 -388 -399 816 0
-339 -389 -391 765 0
-339 -389 -392 786 0
-339 -389 -394 806 0
-339 -389 -395 810 0
-339 -389 -396 813 0
-339 -389 -397 815 0
-339 -389 -399 817 0
-339 -390 -391 766 0
-339 -390 -392 787 0
-339 -390 -394 807 0
-339 -390 -395 811 0
-339 -390 -396 814 0
-339 -390 -397 816 0
-339 -390 -398 817 0
-340 -382 -392 755 0
-340 -382 -393 761 0
-340 -382 -395 767 0
-340 -382 -396 768 0
-340 -382 -397 769 0
-340 -382 -398 770 0
-340 -382 -399 771 0
-340 -383 -391 755 0
-340 -383 -393 782 0
-340 -383 -395 788 0
-340 -383 -396 789 0
-340 -383 -397 790 0
-340 -383 -398 791 0
-340 -383 -399 792 0
-340 -384 -391 761 0
-340 -384 -392 782 0
-340 -384 -395 803 0
-340 -384 -396 804 0
-340 -384 -397 805 0
-340 -384 -398 806 0
-340 -384 -399 807 0
-340 -386 -391 767 0
-340 -386 -392 788 0
-340 -386 -393 803 0
-340 -386 -396 818 0
-340 -386 -397 819 0
-340 -386 -398 820 0
-340 -386 -399 821 0
-340 -387 -391 768 0
-340 -387 -392 789 0
-340 -387 -393 804 0
-340 -387 -395 818 0
-340 -387 -397 822 0
-340 -387 -398 823 0
-340 -387 -399 824 0
-340 -388 -391 769 0
-340 -388 -392 790 0
-340 -388 -393 805 0
-340 -388 -395 819 0
-340 -388 -396 822 0
-340 -388 -398 825 0
-340 -388 -399 826 0
-340 -389 -391 770 0
-340 -389 -392 791 0
-340 -389 -393 806 0
-340 -389 -395 820 0
-340 -389 -396 823 0
-340 -389 -397 825 0
-340 -389 -399 827 0
-340 -390 -391 771 0
-340 -390 -392 792 0
-340 -390 -393 807 0
-340 -390 -395 821 0
-340 -390 -396 824 0
-340 -390 -397 826 0
-340 -390 -398 827 0
-341 -382 -392 756 0
-341 -382 -393 762 0
-341 -382 -394 767 0
-341 -382 -396 772 0
-341 -382 -397 773 0
-341 -382 -398 774 0
-341 -382 -399 775 0
-341 -383 -391 756 0
-341 -383 -393 783 0
-341 -383 -394 788 0
-341 -383 -396 793 0
-341 -383 -397 794 0
-341 -383 -398 795 0
-341 -383 -399 796 0
-341 -384 -391 762 0
-341 -384 -392 783 0
-341 -384 -394 803 0
-341 -384 -396 808 0
-341 -384 -397 809 0
-341 -384 -398 810 0
-341 -384 -399 811 0
-341 -385 -391 767 0
-341 -385 -392 788 0
-341 -385 -393 803 0
-341 -385 -396 818 0
-341 -385 -397 819 0
-341 -385 -398 820 0
-341 -385 -399 821 0
-341 -387 -391 772 0
-341 -387 -392 793 0
-341 -387 -393 808 0
-341 -387 -394 818 0
-341 -387 -397 828 0
-341 -387 -398 829 0
-341 -387 -399 830 0
-341 -388 -391 773 0
-341 -388 -392 794 0
-341 -388 -393 809 0
-341 -388 -394 819 0
-341 -388 -396 828 0
-341 -388 -398 831 0
-341 -388 -399 832 0
-341 -389 -391 774 0
-341 -389 -392 795 0
-341 -389 -393 810 0
-341 -389 -394 820 0
-341 -389 -396 829 0
-341 -389 -397 831 0
-341 -389 -399 833 0
-341 -390 -391 775 0
-341 -390 -392 796 0
-341 -390 -393 811 0
-341 -390 -394 821 0
-341 -390 -396 830 0
-341 -390 -397 832 0
-341 -390 -398 833 0
-342 -382 -392 757 0
-342 -382 -393 763 0
-342 -382 -394 768 0
-342 -382 -395 772 0
-342 -382 -397 776 0
-342 -382 -398 777 0
-342 -382 -399 778 0
-342 -383 -391 757 0
-342 -383 -393 784 0
-342 -383 -394 789 0
-342 -383 -395 793 0
-342 -383 -397 797 0
-342 -383 -398 798 0
-342 -383 -399 799 0
-342 -384 -391 763 0
-342 -384 -392 784 0
-342 -384 -394 804 0
-342 -384 -395 808 0
-342 -384 -397 812 0
-342 -384 -398 813 0
-342 -384 -399 814 0
-342 -385 -391 768 0
-342 -385 -392 789 0
-342 -385 -393 804 0
-342 -385 -395 818 0
-342 -385 -397 822 0
-342 -385 -398 823 0
-342 -385 -399 824 0
-342 -386 -391 772 0
-342 -386 -392 793 0
-342 -386 -393 808 0
-342 -386 -394 818 0
-342 -386 -397 828 0
-342 -386 -398 829 0
-342 -386 -399 830 0
-342 -388 -391 776 0
-342 -388 -392 797 0
-342 -388 -393 812 0
-342 -388 -394 822 0
-342 -388 -395 828 0
-342 -388 -398 834 0
-342 -388 -399 835 0
-342 -389 -391 777 0
-342 -389 -392 798 0
-342 -389 -393 813 0
-342 -389 -394 823 0
-342 -389 -395 829 0
-342 -389 -397 834 0
-342 -389 -399 836 0
-342 -390 -391 778 0
-342 -390 -392 799 0
-342 -390 -393 814 0
-342 -390 -394 824 0
-342 -390 -395 830 0
-342 -390 -397 835 0
-342 -390 -398 836 0
-343 -382 -392 758 0
-343 -382 -393 764 0
-343 -382 -394 769 0
-343 -382 -395 773 0
-343 -382 -396 776 0
-343 -382 -398 779 0
-343 -382 -399 780 0
-343 -383 -391 758 0
-343 -383 -393 785 0
-343 -383 -394 790 0
-343 -383 -395 794 0
-343 -383 -396 797 0
-343 -383 -398 800 0
-343 -383 -399 801 0
-343 -384 -391 764 0
-343 -384 -392 785 0
-343 -384 -394 805 0
-343 -384 -395 809 0
-343 -384 -396 812 0
-343 -384 -398 815 0
-343 -384 -399 816 0
-343 -385 -391 769 0
-343 -385 -392 790 0
-343 -385 -393 805 0
-343 -385 -395 819 0
-343 -385 -396 822 0
-343 -385 -398 825 0
-343 -385 -399 826 0
-343 -386 -391 773 0
-343 -386 -392 794 0
-343 -386 -393 809 0
-343 -386 -394 819 0
-343 -386 -396 828 0
-343 -386 -398 831 0
-343 -386 -399 832 0
-343 -387 -391 776 0
-343 -387 -392 797 0
-343 -387 -393 812 0
-343 -387 -394 822 0
-343 -387 -395 828 0
-343 -387 -398 834 0
-343 -387 -399 835 0
-343 -389 -391 779 0
-343 -389 -392 800 0
-343 -389 -393 815 0
-343 -389 -394 825 0
-343 -389 -395 831 0
-343 -389 -396 834 0
-343 -389 -399 837 0
-343 -390 -391 780 0
-343 -390 -392 801 0
-343 -390 -393 816 0
-343 -390 -394 826 0
-343 -390 -395 832 0
-343 -390 -396 835 0
-343 -390 -398 837 0
-344 -382 -392 759 0
-344 -382 -393 765 0
-344 -382 -394 770 0
-344 -382 -395 774 0
-344 -382 -396 777 0
-344 -382 -397 779 0
-344 -382 -399 781 0
-344 -383 -391 759 0
-344 -383 -393 786 0
-344 -383 -394 791 0
-344 -383 -395 795 0
-344 -383 -396 798 0
-344 -383 -397 800 0
-344 -383 -399 802 0
-344 -384 -391 765 0
-344 -384 -392 786 0
-344 -384 -394 806 0
-344 -384 -395 810 0
-344 -384 -396 813 0
-344 -384 -397 815 0
-344 -384 -399 817 0
-344 -385 -391 770 0
-344 -385 -392 791 0
-344 -385 -393 806 0
-344 -385 -395 820 0
-344 -385 -396 823 0
-344 -385 -397 825 0
-344 -385 -399 827 0
-344 -386 -391 774 0
-344 -386 -392 795 0
-344 -386 -393 810 0
-344 -386 -394 820 0
-344 -386 -396 829 0
-344 -386 -397 831 0
-344 -386 -399 833 0
-344 -387 -391 777 0
-344 -387 -392 798 0
-344 -387 -393 813 0
-344 -387 -394 823 0
-344 -387 -395 829 0
-344 -387 -397 834 0
-344 -387 -399 836 0
-344 -388 -391 779 0
-344 -388 -392 800 0
-344 -388 -393 815 0
-344 -388 -394 825 0
-344 -388 -395 831 0
-344 -388 -396 834 0
-344 -388 -399 837 0
-344 -390 -391 781 0
-344 -390 -392 802 0
-344 -390 -393 817 0
-344 -390 -394 827 0
-344 -390 -395 833 0
-344 -390 -396 836 0
-344 -390 -397 837 0
-345 -382 -392 760 0
-345 -382 -393 766 0
-345 -382 -394 771 0
-345 -382 -395 775 0
-345 -382 -396 778 0
-345 -382 -397 780 0
-345 -382 -398 781 0
-345 -383 -391 760 0
-345 -383 -393 787 0
-345 -383 -394 792 0
-345 -383 -395 796 0
-345 -383 -396 799 0
-345 -383 -397 801 0
-345 -383 -398 802 0
-345 -384 -391 766 0
-345 -384 -392 787 0
-345 -384 -394 807 0
-345 -384 -395 811 0
-345 -384 -396 814 0
-345 -384 -397 816 0
-345 -384 -398 817 0
-345 -385 -391 771 0
-345 -385 -392 792 0
-345 -385 -393 807 0
-345 -385 -395 821 0
-345 -385 -396 824 0
-345 -385 -397 826 0
-345 -385 -398 827 0
-345 -386 -391 775 0
-345 -386 -392 796 0
-345 -386 -393 811 0
-345 -386 -394 821 0
-345 -386 -396 830 0
-345 -386 -397 832 0
-345 -386 -398 833 0
-345 -387 -391 778 0
-345 -387 -392 799 0
-345 -387 -393 814 0
-345 -387 -394 824 0
-345 -387 -395 830 0
-345 -387 -397 835 0
-345 -387 -398 836 0
-345 -388 -391 780 0
-345 -388 -392 801 0
-345 -388 -393 816 0
-345 -388 -394 826 0
-345 -388 -395 832 0
-345 -388 -396 835 0
-345 -388 -398 837 0
-345 -389 -391 781 0
-345 -389 -392 802 0
-345 -389 -393 817 0
-345 -389 -394 827 0
-345 -389 -395 833 0
-345 -389 -396 836 0
-345 -389 -397 837 0
-754 1 0
-755 2 0
-756 3 0
-757 4 0
-758 5 0
-759 6 0
-760 7 0
-761 8 0
-762 9 0
-763 10 0
-764 11 0
-765 12 0
-766 13 0
-767 14 0
-768 15 0
-769 16 0
-770 17 0
-771 18 0
-772 19 0
-773 20 0
-774 21 0
-775 22 0
-776 23 0
-777 24 0
-778 25 0
-779 26 0
-780 27 0
-781 28 0
-782 29 0
-783 30 0
-784 31 0
-785 32 0
-786 33 0
-787 34 0
-788 35 0
-789 36 0
-790 37 0
-791 38 0
-792 39 0
-793 40 0
-794 41 0
-795 42 0
-796 43 0
-797 44 0
-798 45 0
-799 46 0
-800 47 0
-801 48 0
-802 49 0
-803 50 0
-804 51 0
-805 52 0
-806 53 0
-807 54 0
-808 55 0
-809 56 0
-810 57 0
-811 58 0
-812 59 0
-813 60 0
-814 61 0
-815 62 0
-816 63 0
-817 64 0
-818 65 0
-819 66 0
-820 67 0
-821 68 0
-822 69 0
-823 70 0
-824 71 0
-825 72 0
-826 73 0
-827 74 0
-828 75 0
-829 76 0
-830 77 0
-831 78 0
-832 79 0
-833 80 0
-834 81 0
-835 82 0
-836 83 0
-837 84 0
-346 -392 -402 838 0
-346 -392 -403 839 0
-346 -392 -404 840 0
-346 -392 -405 841 0
-346 -392 -406 842 0
-346 -392 -407 843 0
-346 -392 -408 844 0
-346 -393 -401 838 0
-346 -393 -403 845 0
-346 -393 -404 846 0
-346 -393 -405 847 0
-346 -393 -406 848 0
-346 -393 -407 849 0
-346 -393 -408 850 0
-346 -394 -401 839 0
-346 -394 -402 845 0
-346 -394 -404 851 0
-346 -394 -405 852 0
-346 -394 -406 853 0
-346 -394 -407 854 0
-346 -394 -408 855 0
-346 -395 -401 840 0
-346 -395 -402 846 0
-346 -395 -403 851 0
-346 -395 -405 856 0
-346 -395 -406 857 0
-346 -395 -407 858 0
-346 -395 -408 859 0
-346 -396 -401 841 0
-346 -396 -402 847 0
-346 -396 -403 852 0
-346 -396 -404 856 0
-346 -396 -406 860 0
-346 -396 -407 861 0
-346 -396 -408 862 0
-346 -397 -401 842 0
-346 -397 -402 848 0
-346 -397 -403 853 0
-346 -397 -404 857 0
-346 -397 -405 860 0
-346 -397 -407 863 0
-346 -397 -408 864 0
-346 -398 -401 843 0
-346 -398 -402 849 0
-346 -398 -403 854 0
-346 -398 -404 858 0
-346 -398 -405 861 0
-346 -398 -406 863 0
-346 -398 -408 865 0
-346 -399 -401 844 0
-346 -399 -402 850 0
-346 -399 -403 855 0
-346 -399 -404 859 0
-346 -399 -405 862 0
-346 -399 -406 864 0
-346 -399 -407 865 0
-347 -391 -402 838 0
-347 -391 -403 839 0
-347 -391 -404 840 0
-347 -391 -405 841 0
-347 -391 -406 842 0
-347 -391 -407 843 0
-347 -391 -408 844 0
-347 -393 -400 838 0
-347 -393 -403 866 0
-347 -393 -404 867 0
-347 -393 -405 868 0
-347 -393 -406 869 0
-347 -393 -407 870 0
-347 -393 -408 871 0
-347 -394 -400 839 0
-347 -394 -402 866 0
-347 -394 -404 872 0
-347 -394 -405 873 0
-347 -394 -406 874 0
-347 -394 -407 875 0
-347 -394 -408 876 0
-347 -395 -400 840 0
-347 -395 -402 867 0
-347 -395 -403 872 0
-347 -395 -405 877 0
-347 -395 -406 878 0
-347 -395 -407 879 0
-347 -395 -408 880 0
-347 -396 -400 841 0
-347 -396 -402 868 0
-347 -396 -403 873 0
-347 -396 -404 877 0
-347 -396 -406 881 0
-347 -396 -407 882 0
-347 -396 -408 883 0
-347 -397 -400 842 0
-347 -397 -402 869 0
-347 -397 -403 874 0
-347 -397 -404 878 0
-347 -397 -405 881 0
-347 -397 -407 884 0
-347 -397 -408 885 0
-347 -398 -400 843 0
-347 -398 -402 870 0
-347 -398 -403 875 0
-347 -398 -404 879 0
-347 -398 -405 882 0
-347 -398 -406 884 0
-347 -398 -408 886 0
-347 -399 -400 844 0
-347 -399 -402 871 0
-347 -399 -403 876 0
-347 -399 -404 880 0
-347 -399 -405 883 0
-347 -399 -406 885 0
-347 -399 -407 886 0
-348 -391 -401 838 0
-348 -391 -403 845 0
-348 -391 -404 846 0
-348 -391 -405 847 0
-348 -391 -406 848 0
-348 -391 -407 849 0
-348 -391 -408 850 0
-348 -392 -400 838 0
-348 -392 -403 866 0
-348 -392 -404 867 0
-348 -392 -405 868 0
-348 -392 -406 869 0
-348 -392 -407 870 0
-348 -392 -408 871 0
-348 -394 -400 845 0
-348 -394 -401 866 0
-348 -394 -404 887 0
-348 -394 -405 888 0
-348 -394 -406 889 0
-348 -394 -407 890 0
-348 -394 -408 891 0
-348 -395 -400 846 0
-348 -395 -401 867 0
-348 -395 -403 887 0
-348 -395 -405 892 0
-348 -395 -406 893 0
-348 -395 -407 894 0
-348 -395 -408 895 0
-348 -396 -400 847 0
-348 -396 -401 868 0
-348 -396 -403 888 0
-348 -396 -404 892 0
-348 -396 -406 896 0
-348 -396 -407 897 0
-348 -396 -408 898 0
-348 -397 -400 848 0
-348 -397 -401 869 0
-348 -397 -403 889 0
-348 -397 -404 893 0
-348 -397 -405 896 0
-348 -397 -407 899 0
-348 -397 -408 900 0
-348 -398 -400 849 0
-348 -398 -401 870 0
-348 -398 -403 890 0
-348 -398 -404 894 0
-348 -398 -405 897 0
-348 -398 -406 899 0
-348 -398 -408 901 0
-348 -399 -400 850 0
-348 -399 -401 871 0
-348 -399 -403 891 0
-348 -399 -404 895 0
-348 -399 -405 898 0
-348 -399 -406 900 0
-348 -399 -407 901 0
-349 -391 -401 839 0
-349 -391 -402 845 0
-349 -391 -404 851 0
-349 -391 -405 852 0
-349 -391 -406 853 0
-349 -391 -407 854 0
-349 -391 -408 855 0
-349 -392 -400 839 0
-349 -392 -402 866 0
-349 -392 -404 872 0
-349 -392 -405 873 0
-349 -392 -406 874 0
-349 -392 -407 875 0
-349 -392 -408 876 0
-349 -393 -400 845 0
-349 -393 -401 866 0
-349 -393 -404 887 0
-349 -393 -405 888 0
-349 -393 -406 889 0
-349 -393 -407 890 0
-349 -393 -408 891 0
-349 -395 -400 851 0
-349 -395 -401 872 0
-349 -395 -402 887 0
-349 -395 -405 902 0
-349 -395 -406 903 0
-349 -395 -407 904 0
-349 -395 -408 905 0
-349 -396 -400 852 0
-349 -396 -401 873 0
-349 -396 -402 888 0
-349 -396 -404 902 0
-349 -396 -406 906 0
-349 -396 -407 907 0
-349 -396 -408 908 0
-349 -397 -400 853 0
-349 -397 -401 874 0
-349 -397 -402 889 0
-349 -397 -404 903 0
-349 -397 -405 906 0
-349 -397 -407 909 0
-349 -397 -408 910 0
-349 -398 -400 854 0
-349 -398 -401 875 0
-349 -398 -402 890 0
-349 -398 -404 904 0
-349 -398 -405 907 0
-349 -398 -406 909 0
-349 -398 -408 911 0
-349 -399 -400 855 0
-349 -399 -401 876 0
-349 -399 -402 891 0
-349 -399 -404 905 0
-349 -399 -405 908 0
-349 -399 -406 910 0
-349 -399 -407 911 0
-350 -391 -401 840 0
-350 -391 -402 846 0
-350 -391 -403 851 0
-350 -391 -405 856 0
-350 -391 -406 857 0
-350 -391 -407 858 0
-350 -391 -408 859 0
-350 -392 -400 840 0
-350 -392 -402 867 0
-350 -392 -403 872 0
-350 -392 -405 877 0
-350 -392 -406 878 0
-350 -392 -407 879 0
-350 -392 -408 880 0
-350 -393 -400 846 0
-350 -393 -401 867 0
-350 -393 -403 887 0
-350 -393 -405 892 0
-350 -393 -406 893 0
-350 -393 -407 894 0
-350 -393 -408 895 0
-350 -394 -400 851 0
-350 -394 -401 872 0
-350 -394 -402 887 0
-350 -394 -405 902 0
-350 -394 -406 903 0
-350 -394 -407 904 0
-350 -394 -408 905 0
-350 -396 -400 856 0
-350 -396 -401 877 0
-350 -396 -402 892 0
-350 -396 -403 902 0
-350 -396 -406 912 0
-350 -396 -407 913 0
-350 -396 -408 914 0
-350 -397 -400 857 0
-350 -397 -401 878 0
-350 -397 -402 893 0
-350 -397 -403 903 0
-350 -397 -405 912 0
-350 -397 -407 915 0
-350 -397 -408 916 0
-350 -398 -400 858 0
-350 -398 -401 879 0
-350 -398 -402 894 0
-350 -398 -403 904 0
-350 -398 -405 913 0
-350 -398 -406 915 0
-350 -398 -408 917 0
-350 -399 -400 859 0
-350 -399 -401 880 0
-350 -399 -402 895 0
-350 -399 -403 905 0
-350 -399 -405 914 0
-350 -399 -406 916 0
-350 -399 -407 917 0
-351 -391 -401 841 0
-351 -391 -402 847 0
-351 -391 -403 852 0
-351 -391 -404 856 0
-351 -391 -406 860 0
-351 -391 -407 861 0
-351 -391 -408 862 0
-351 -392 -400 841 0
-351 -392 -402 868 0
-351 -392 -403 873 0
-351 -392 -404 877 0
-351 -392 -406 881 0
-351 -392 -407 882 0
-351 -392 -408 883 0
-351 -393 -400 847 0
-351 -393 -401 868 0
-351 -393 -403 888 0
-351 -393 -404 892 0
-351 -393 -406 896 0
-351 -393 -407 897 0
-351 -393 -408 898 0
-351 -394 -400 852 0
-351 -394 -401 873 0
-351 -394 -402 888 0
-351 -394 -404 902 0
-351 -394 -406 906 0
-351 -394 -407 907 0
-351 -394 -408 908 0
-351 -395 -400 856 0
-351 -395 -401 877 0
-351 -395 -402 892 0
-351 -395 -403 902 0
-351 -395 -406 912 0
-351 -395 -407 913 0
-351 -395 -408 914 0
-351 -397 -400 860 0
-351 -397 -401 881 0
-351 -397 -402 896 0
-351 -397 -403 906 0
-351 -397 -404 912 0
-351 -397 -407 918 0
-351 -397 -408 919 0
-351 -398 -400 861 0
-351 -398 -401 882 0
-351 -398 -402 897 0
-351 -398 -403 907 0
-351 -398 -404 913 0
-351 -398 -406 918 0
-351 -398 -408 920 0
-351 -399 -400 862 0
-351 -399 -401 883 0
-351 -399 -402 898 0
-351 -399 -403 908 0
-351 -399 -404 914 0
-351 -399 -406 919 0
-351 -399 -407 920 0
-352 -391 -401 842 0
-352 -391 -402 848 0
-352 -391 -403 853 0
-352 -391 -404 857 0
-352 -391 -405 860 0
-352 -391 -407 863 0
-352 -391 -408 864 0
-352 -392 -400 842 0
-352 -392 -402 869 0
-352 -392 -403 874 0
-352 -392 -404 878 0
-352 -392 -405 881 0
-352 -392 -407 884 0
-352 -392 -408 885 0
-352 -393 -400 848 0
-352 -393 -401 869 0
-352 -393 -403 889 0
-352 -393 -404 893 0
-352 -393 -405 896 0
-352 -393 -407 899 0
-352 -393 -408 900 0
-352 -394 -400 853 0
-352 -394 -401 874 0
-352 -394 -402 889 0
-352 -394 -404 903 0
-352 -394 -405 906 0
-352 -394 -407 909 0
-352 -394 -408 910 0
-352 -395 -400 857 0
-352 -395 -401 878 0
-352 -395 -402 893 0
-352 -395 -403 903 0
-352 -395 -405 912 0
-352 -395 -407 915 0
-352 -395 -408 916 0
-352 -396 -400 860 0
-352 -396 -401 881 0
-352 -396 -402 896 0
-352 -396 -403 906 0
-352 -396 -404 912 0
-352 -396 -407 918 0
-352 -396 -408 919 0
-352 -398 -400 863 0
-352 -398 -401 884 0
-352 -398 -402 899 0
-352 -398 -403 909 0
-352 -398 -404 915 0
-352 -398 -405 918 0
-352 -398 -408 921 0
-352 -399 -400 864 0
-352 -399 -401 885 0
-352 -399 -402 900 0
-352 -399 -403 910 0
-352 -399 -404 916 0
-352 -399 -405 919 0
-352 -399 -407 921 0
-353 -391 -401 843 0
-353 -391 -402 849 0
-353 -391 -403 854 0
-353 -391 -404 858 0
-353 -391 -405 861 0
-353 -391 -406 863 0
-353 -391 -408 865 0
-353 -392 -400 843 0
-353 -392 -402 870 0
-353 -392 -403 875 0
-353 -392 -404 879 0
-353 -392 -405 882 0
-353 -392 -406 884 0
-353 -392 -408 886 0
-353 -393 -400 849 0
-353 -393 -401 870 0
-353 -393 -403 890 0
-353 -393 -404 894 0
-353 -393 -405 897 0
-353 -393 -406 899 0
-353 -393 -408 901 0
-353 -394 -400 854 0
-353 -394 -401 875 0
-353 -394 -402 890 0
-353 -394 -404 904 0
-353 -394 -405 907 0
-353 -394 -406 909 0
-353 -394 -408 911 0
-353 -395 -400 858 0
-353 -395 -401 879 0
-353 -395 -402 894 0
-353 -395 -403 904 0
-353 -395 -405 913 0
-353 -395 -406 915 0
-353 -395 -408 917 0
-353 -396 -400 861 0
-353 -396 -401 882 0
-353 -396 -402 897 0
-353 -396 -403 907 0
-353 -396 -404 913 0
-353 -396 -406 918 0
-353 -396 -408 920 0
-353 -397 -400 863 0
-353 -397 -401 884 0
-353 -397 -402 899 0
-353 -397 -403 909 0
-353 -397 -404 915 0
-353 -397 -405 918 0
-353 -397 -408 921 0
-353 -399 -400 865 0
-353 -399 -401 886 0
-353 -399 -402 901 0
-353 -399 -403 911 0
-353 -399 -404 917 0
-353 -399 -405 920 0
-353 -399 -406 921 0
-354 -391 -401 844 0
-354 -391 -402 850 0
-354 -391 -403 855 0
-354 -391 -404 859 0
-354 -391 -405 862 0
-354 -391 -406 864 0
-354 -391 -407 865 0
-354 -392 -400 844 0
-354 -392 -402 871 0
-354 -392 -403 876 0
-354 -392 -404 880 0
-354 -392 -405 883 0
-354 -392 -406 885 0
-354 -392 -407 886 0
-354 -393 -400 850 0
-354 -393 -401 871 0
-354 -393 -403 891 0
-354 -393 -404 895 0
-354 -393 -405 898 0
-354 -393 -406 900 0
-354 -393 -407 901 0
-354 -394 -400 855 0
-354 -394 -401 876 0
-354 -394 -402 891 0
-354 -394 -404 905 0
-354 -394 -405 908 0
-354 -394 -406 910 0
-354 -394 -407 911 0
-354 -395 -400 859 0
-354 -395 -401 880 0
-354 -395 -402 895 0
-354 -395 -403 905 0
-354 -395 -405 914 0
-354 -395 -406 916 0
-354 -395 -407 917 0
-354 -396 -400 862 0
-354 -396 -401 883 0
-354 -396 -402 898 0
-354 -396 -403 908 0
-354 -396 -404 914 0
-354 -396 -406 919 0
-354 -396 -407 920 0
-354 -397 -400 864 0
-354 -397 -401 885 0
-354 -397 -402 900 0
-354 -397 -403 910 0
-354 -397 -404 916 0
-354 -397 -405 919 0
-354 -397 -407 921 0
-354 -398 -400 865 0
-354 -398 -401 886 0
-354 -398 -402 901 0
-354 -398 -403 911 0
-354 -398 -404 917 0
-354 -398 -405 920 0
-354 -398 -406 921 0
-838 1 0
-839 2 0
-840 3 0
-841 4 0
-842 5 0
-843 6 0
-844 7 0
-845 8 0
-846 9 0
-847 10 0
-848 11 0
-849 12 0
-850 13 0
-851 14 0
-852 15 0
-853 16 0
-854 17 0
-855 18 0
-856 19 0
-857 20 0
-858 21 0
-859 22 0
-860 23 0
-861 24 0
-862 25 0
-863 26 0
-864 27 0
-865 28 0
-866 29 0
-867 30 0
-868 31 0
-869 32 0
-870 33 0
-871 34 0
-872 35 0
-873 36 0
-874 37 0
-875 38 0
-876 39 0
-877 40 0
-878 41 0
-879 42 0
-880 43 0
-881 44 0
-882 45 0
-883 46 0
-884 47 0
-885 48 0
-886 49 0
-887 50 0
-888 51 0
-889 52 0
-890 53 0
-891 54 0
-892 55 0
-893 56 0
-894 57 0
-895 58 0
-896 59 0
-897 60 0
-898 61 0
-899 62 0
-900 63 0
-901 64 0
-902 65 0
-903 66 0
-904 67 0
-905 68 0
-906 69 0
-907 70 0
-908 71 0
-909 72 0
-910 73 0
-911 74 0
-912 75 0
-913 76 0
-914 77 0
-915 78 0
-916 79 0
-917 80 0
-918 81 0
-919 82 0
-920 83 0
-921 84 0
-355 -401 -411 922 0
-355 -401 -412 923 0
-355 -401 -413 924 0
-355 -401 -414 925 0
-355 -401 -415 926 0
-355 -401 -416 927 0
-355 -401 -417 928 0
-355 -402 -410 922 0
-355 -402 -412 929 0
-355 -402 -413 930 0
-355 -402 -414 931 0
-355 -402 -415 932 0
-355 -402 -416 933 0
-355 -402 -417 934 0
-355 -403 -410 923 0
-355 -403 -411 929 0
-355 -403 -413 935 0
-355 -403 -414 936 0
-355 -403 -415 937 0
-355 -403 -416 938 0
-355 -403 -417 939 0
-355 -404 -410 924 0
-355 -404 -411 930 0
-355 -404 -412 935 0
-355 -404 -414 940 0
-355 -404 -415 941 0
-355 -404 -416 942 0
-355 -404 -417 943 0
-355 -405 -410 925 0
-355 -405 -411 931 0
-355 -405 -412 936 0
-355 -405 -413 940 0
-355 -405 -415 944 0
-355 -405 -416 945 0
-355 -405 -417 946 0
-355 -406 -410 926 0
-355 -406 -411 932 0
-355 -406 -412 937 0
-355 -406 -413 941 0
-355 -406 -414 944 0
-355 -406 -416 947 0
-355 -406 -417 948 0
-355 -407 -410 927 0
-355 -407 -411 933 0
-355 -407 -412 938 0
-355 -407 -413 942 0
-355 -407 -414 945 0
-355 -407 -415 947 0
-355 -407 -417 949 0
-355 -408 -410 928 0
-355 -408 -411 934 0
-355 -408 -412 939 0
-355 -408 -413 943 0
-355 -408 -414 946 0
-355 -408 -415 948 0
-355 -408 -416 949 0
-356 -400 -411 922 0
-356 -400 -412 923 0
-356 -400 -413 924 0
-356 -400 -414 925 0
-356 -400 -415 926 0
-356 -400 -416 927 0
-356 -400 -417 928 0
-356 -402 -409 922 0
-356 -402 -412 950 0
-356 -402 -413 951 0
-356 -402 -414 952 0
-356 -402 -415 953 0
-356 -402 -416 954 0
-356 -402 -417 955 0
-356 -403 -409 923 0
-356 -403 -411 950 0
-356 -403 -413 956 0
-356 -403 -414 957 0
-356 -403 -415 958 0
-356 -403 -416 959 0
-356 -403 -417 960 0
-356 -404 -409 924 0
-356 -404 -411 951 0
-356 -404 -412 956 0
-356 -404 -414 961 0
-356 -404 -415 962 0
-356 -404 -416 963 0
-356 -404 -417 964 0
-356 -405 -409 925 0
-356 -405 -411 952 0
-356 -405 -412 957 0
-356 -405 -413 961 0
-356 -405 -415 965 0
-356 -405 -416 966 0
-356 -405 -417 967 0
-356 -406 -409 926 0
-356 -406 -411 953 0
-356 -406 -412 958 0
-356 -406 -413 962 0
-356 -406 -414 965 0
-356 -406 -416 968 0
-356 -406 -417 969 0
-356 -407 -409 927 0
-356 -407 -411 954 0
-356 -407 -412 959 0
-356 -407 -413 963 0
-356 -407 -414 966 0
-356 -407 -415 968 0
-356 -407 -417 970 0
-356 -408 -409 928 0
-356 -408 -411 955 0
-356 -408 -412 960 0
-356 -408 -413 964 0
-356 -408 -414 967 0
-356 -408 -415 969 0
-356 -408 -416 970 0
-357 -400 -410 922 0
-357 -400 -412 929 0
-357 -400 -413 930 0
-357 -400 -414 931 0
-357 -400 -415 932 0
-357 -400 -416 933 0
-357 -400 -417 934 0
-357 -401 -409 922 0
-357 -401 -412 950 0
-357 -401 -413 951 0
-357 -401 -414 952 0
-357 -401 -415 953 0
-357 -401 -416 954 0
-357 -401 -417 955 0
-357 -403 -409 929 0
-357 -403 -410 950 0
-357 -403 -413 971 0
-357 -403 -414 972 0
-357 -403 -415 973 0
-357 -403 -416 974 0
-357 -403 -417 975 0
-357 -404 -409 930 0
-357 -404 -410 951 0
-357 -404 -412 971 0
-357 -404 -414 976 0
-357 -404 -415 977 0
-357 -404 -416 978 0
-357 -404 -417 979 0
-357 -405 -409 931 0
-357 -405 -410 952 0
-357 -405 -412 972 0
-357 -405 -413 976 0
-357 -405 -415 980 0
-357 -405 -416 981 0
-357 -405 -417 982 0
-357 -406 -409 932 0
-357 -406 -410 953 0
-357 -406 -412 973 0
-357 -406 -413 977 0
-357 -406 -414 980 0
-357 -406 -416 983 0
-357 -406 -417 984 0
-357 -407 -409 933 0
-357 -407 -410 954 0
-357 -407 -412 974 0
-357 -407 -413 978 0
-357 -407 -414 981 0
-357 -407 -415 983 0
-357 -407 -417 985 0
-357 -408 -409 934 0
-357 -408 -410 955 0
-357 -408 -412 975 0
-357 -408 -413 979 0
-357 -408 -414 982 0
-357 -408 -415 984 0
-357 -408 -416 985 0
-358 -400 -410 923 0
-358 -400 -411 929 0
-358 -400 -413 935 0
-358 -400 -414 936 0
-358 -400 -415 937 0
-358 -400 -416 938 0
-358 -400 -417 939 0
-358 -401 -409 923 0
-358 -401 -411 950 0
-358 -401 -413 956 0
-358 -401 -414 957 0
-358 -401 -415 958 0
-358 -401 -416 959 0
-358 -401 -417 960 0
-358 -402 -409 929 0
-358 -402 -410 950 0
-358 -402 -413 971 0
-358 -402 -414 972 0
-358 -402 -415 973 0
-358 -402 -416 974 0
-358 -402 -417 975 0
-358 -404 -409 935 0
-358 -404 -410 956 0
-358 -404 -411 971 0
-358 -404 -414 986 0
-358 -404 -415 987 0
-358 -404 -416 988 0
-358 -404 -417 989 0
-358 -405 -409 936 0
-358 -405 -410 957 0
-358 -405 -411 972 0
-358 -405 -413 986 0
-358 -405 -415 990 0
-358 -405 -416 991 0
-358 -405 -417 992 0
-358 -406 -409 937 0
-358 -406 -410 958 0
-358 -406 -411 973 0
-358 -406 -413 987 0
-358 -406 -414 990 0
-358 -406 -416 993 0
-358 -406 -417 994 0
-358 -407 -409 938 0
-358 -407 -410 959 0
-358 -407 -411 974 0
-358 -407 -413 988 0
-358 -407 -414 991 0
-358 -407 -415 993 0
-358 -407 -417 995 0
-358 -408 -409 939 0
-358 -408 -410 960 0
-358 -408 -411 975 0
-358 -408 -413 989 0
-358 -408 -414 992 0
-358 -408 -415 994 0
-358 -408 -416 995 0
-359 -400 -410 924 0
-359 -400 -411 930 0
-359 -400 -412 935 0
-359 -400 -414 940 0
-359 -400 -415 941 0
-359 -400 -416 942 0
-359 -400 -417 943 0
-359 -401 -409 924 0
-359 -401 -411 951 0
-359 -401 -412 956 0
-359 -401 -414 961 0
-359 -401 -415 962 0
-359 -401 -416 963 0
-359 -401 -417 964 0
-359 -402 -409 930 0
-359 -402 -410 951 0
-359 -402 -412 971 0
-359 -402 -414 976 0
-359 -402 -415 977 0
-359 -402 -416 978 0
-359 -402 -417 979 0
-359 -403 -409 935 0
-359 -403 -410 956 0
-359 -403 -411 971 0
-359 -403 -414 986 0
-359 -403 -415 987 0
-359 -403 -416 988 0
-359 -403 -417 989 0
-359 -405 -409 940 0
-359 -405 -410 961 0
-359 -405 -411 976 0
-359 -405 -412 986 0
-359 -405 -415 996 0
-359 -405 -416 997 0
-359 -405 -417 998 0
-359 -406 -409 941 0
-359 -406 -410 962 0
-359 -406 -411 977 0
-359 -406 -412 987 0
-359 -406 -414 996 0
-359 -406 -416 999 0
-359 -406 -417 1000 0
-359 -407 -409 942 0
-359 -407 -410 963 0
-359 -407 -411 978 0
-359 -407 -412 988 0
-359 -407 -414 997 0
-359 -407 -415 999 0
-359 -407 -417 1001 0
-359 -408 -409 943 0
-359 -408 -410 964 0
-359 -408 -411 979 0
-359 -408 -412 989 0
-359 -408 -414 998 0
-359 -408 -415 1000 0
-359 -408 -416 1001 0
-360 -400 -410 925 0
-360 -400 -411 931 0
-360 -400 -412 936 0
-360 -400 -413 940 0
-360 -400 -415 944 0
-360 -400 -416 945 0
-360 -400 -417 946 0
-360 -401 -409 925 0
-360 -401 -411 952 0
-360 -401 -412 957 0
-360 -401 -413 961 0
-360 -401 -415 965 0
-360 -401 -416 966 0
-360 -401 -417 967 0
-360 -402 -409 931 0
-360 -402 -410 952 0
-360 -402 -412 972 0
-360 -402 -413 976 0
-360 -402 -415 980 0
-360 -402 -416 981 0
-360 -402 -417 982 0
-360 -403 -409 936 0
-360 -403 -410 957 0
-360 -403 -411 972 0
-360 -403 -413 986 0
-360 -403 -415 990 0
-360 -403 -416 991 0
-360 -403 -417 992 0
-360 -404 -409 940 0
-360 -404 -410 961 0
-360 -404 -411 976 0
-360 -404 -412 986 0
-360 -404 -415 996 0
-360 -404 -416 997 0
-360 -404 -417 998 0
-360 -406 -409 944 0
-360 -406 -410 965 0
-360 -406 -411 980 0
-360 -406 -412 990 0
-360 -406 -413 996 0
-360 -406 -416 1002 0
-360 -406 -417 1003 0
-360 -407 -409 945 0
-360 -407 -410 966 0
-360 -407 -411 981 0
-360 -407 -412 991 0
-360 -407 -413 997 0
-360 -407 -415 1002 0
-360 -407 -417 1004 0
-360 -408 -409 946 0
-360 -408 -410 967 0
-360 -408 -411 982 0
-360 -408 -412 992 0
-360 -408 -413 998 0
-360 -408 -415 1003 0
-360 -408 -416 1004 0
-361 -400 -410 926 0
-361 -400 -411 932 0
-361 -400 -412 937 0
-361 -400 -413 941 0
-361 -400 -414 944 0
-361 -400 -416 947 0
-361 -400 -417 948 0
-361 -401 -409 926 0
-361 -401 -411 953 0
-361 -401 -412 958 0
-361 -401 -413 962 0
-361 -401 -414 965 0
-361 -401 -416 968 0
-361 -401 -417 969 0
-361 -402 -409 932 0
-361 -402 -410 953 0
-361 -402 -412 973 0
-361 -402 -413 977 0
-361 -402 -414 980 0
-361 -402 -416 983 0
-361 -402 -417 984 0
-361 -403 -409 937 0
-361 -403 -410 958 0
-361 -403 -411 973 0
-361 -403 -413 987 0
-361 -403 -414 990 0
-361 -403 -416 993 0
-361 -403 -417 994 0
-361 -404 -409 941 0
-361 -404 -410 962 0
-361 -404 -411 977 0
-361 -404 -412 987 0
-361 -404 -414 996 0
-361 -404 -416 999 0
-361 -404 -417 1000 0
-361 -405 -409 944 0
-361 -405 -410 965 0
-361 -405 -411 980 0
-361 -405 -412 990 0
-361 -405 -413 996 0
-361 -405 -416 1002 0
-361 -405 -417 1003 0
-361 -407 -409 947 0
-361 -407 -410 968 0
-361 -407 -411 983 0
-361 -407 -412 993 0
-361 -407 -413 999 0
-361 -407 -414 1002 0
-361 -407 -417 1005 0
-361 -408 -409 948 0
-361 -408 -410 969 0
-361 -408 -411 984 0
-361 -408 -412 994 0
-361 -408 -413 1000 0
-361 -408 -414 1003 0
-361 -408 -416 1005 0
-362 -400 -410 927 0
-362 -400 -411 933 0
-362 -400 -412 938 0
-362 -400 -413 942 0
-362 -400 -414 945 0
-362 -400 -415 947 0
-362 -400 -417 949 0
-362 -401 -409 927 0
-362 -401 -411 954 0
-362 -401 -412 959 0
-362 -401 -413 963 0
-362 -401 -414 966 0
-362 -401 -415 968 0
-362 -401 -417 970 0
-362 -402 -409 933 0
-362 -402 -410 954 0
-362 -402 -412 974 0
-362 -402 -413 978 0
-362 -402 -414 981 0
-362 -402 -415 983 0
-362 -402 -417 985 0
-362 -403 -409 938 0
-362 -403 -410 959 0
-362 -403 -411 974 0
-362 -403 -413 988 0
-362 -403 -414 991 0
-362 -403 -415 993 0
-362 -403 -417 995 0
-362 -404 -409 942 0
-362 -404 -410 963 0
-362 -404 -411 978 0
-362 -404 -412 988 0
-362 -404 -414 997 0
-362 -404 -415 999 0
-362 -404 -417 1001 0
-362 -405 -409 945 0
-362 -405 -410 966 0
-362 -405 -411 981 0
-362 -405 -412 991 0
-362 -405 -413 997 0
-362 -405 -415 1002 0
-362 -405 -417 1004 0
-362 -406 -409 947 0
-362 -406 -410 968 0
-362 -406 -411 983 0
-362 -406 -412 993 0
-362 -406 -413 999 0
-362 -406 -414 1002 0
-362 -406 -417 1005 0
-362 -408 -409 949 0
-362 -408 -410 970 0
-362 -408 -411 985 0
-362 -408 -412 995 0
-362 -408 -413 1001 0
-362 -408 -414 1004 0
-362 -408 -415 1005 0
-363 -400 -410 928 0
-363 -400 -411 934 0
-363 -400 -412 939 0
-363 -400 -413 943 0
-363 -400 -414 946 0
-363 -400 -415 948 0
-363 -400 -416 949 0
-363 -401 -409 928 0
-363 -401 -411 955 0
-363 -401 -412 960 0
-363 -401 -413 964 0
-363 -401 -414 967 0
-363 -401 -415 969 0
-363 -401 -416 970 0
-363 -402 -409 934 0
-363 -402 -410 955 0
-363 -402 -412 975 0
-363 -402 -413 979 0
-363 -402 -414 982 0
-363 -402 -415 984 0
-363 -402 -416 985 0
-363 -403 -409 939 0
-363 -403 -410 960 0
-363 -403 -411 975 0
-363 -403 -413 989 0
-363 -403 -414 992 0
-363 -403 -415 994 0
-363 -403 -416 995 0
-363 -404 -409 943 0
-363 -404 -410 964 0
-363 -404 -411 979 0
-363 -404 -412 989 0
-363 -404 -414 998 0
-363 -404 -415 1000 0
-363 -404 -416 1001 0
-363 -405 -409 946 0
-363 -405 -410 967 0
-363 -405 -411 982 0
-363 -405 -412 992 0
-363 -405 -413 998 0
-363 -405 -415 1003 0
-363 -405 -416 1004 0
-363 -406 -409 948 0
-363 -406 -410 969 0
-363 -406 -411 984 0
-363 -406 -412 994 0
-363 -406 -413 1000 0
-363 -406 -414 1003 0
-363 -406 -416 1005 0
-363 -407 -409 949 0
-363 -407 -410 970 0
-363 -407 -411 985 0
-363 -407 -412 995 0
-363 -407 -413 1001 0
-363 -407 -414 1004 0
-363 -407 -415 1005 0
-922 1 0
-923 2 0
-924 3 0
-925 4 0
-926 5 0
-927 6 0
-928 7 0
-929 8 0
-930 9 0
-931 10 0
-932 11 0
-933 12 0
-934 13 0
-935 14 0
-936 15 0
-937 16 0
-938 17 0
-939 18 0
-940 19 0
-941 20 0
-942 21 0
-943 22 0
-944 23 0
-945 24 0
-946 25 0
-947 26 0
-948 27 0
-949 28 0
-950 29 0
-951 30 0
-952 31 0
-953 32 0
-954 33 0
-955 34 0
-956 35 0
-957 36 0
-958 37 0
-959 38 0
-960 39 0
-961 40 0
-962 41 0
-963 42 0
-964 43 0
-965 44 0
-966 45 0
-967 46 0
-968 47 0
-969 48 0
-970 49 0
-971 50 0
-972 51 0
-973 52 0
-974 53 0
-975 54 0
-976 55 0
-977 56 0
-978 57 0
-979 58 0
-980 59 0
-981 60 0
-982 61 0
-983 62 0
-984 63 0
-985 64 0
-986 65 0
-987 66 0
-988 67 0
-989 68 0
-990 69 0
-991 70 0
-992 71 0
-993 72 0
-994 73 0
-995 74 0
-996 75 0
-997 76 0
-998 77 0
-999 78 0
-1000 79 0
-1001 80 0
-1002 81 0
-1003 82 0
-1004 83 0
-1005 84 0
-337 -347 -366 1006 0
-337 -347 -367 1007 0
-337 -347 -368 1008 0
-337 -347 -369 1009 0
-337 -347 -370 1010 0
-337 -347 -371 1011 0
-337 -347 -372 1012 0
-337 -348 -365 1006 0
-337 -348 -367 1013 0
-337 -348 -368 1014 0
-337 -348 -369 1015 0
-337 -348 -370 1016 0
-337 -348 -371 1017 0
-337 -348 -372 1018 0
-337 -349 -365 1007 0
-337 -349 -366 1013 0
-337 -349 -368 1019 0
-337 -349 -369 1020 0
-337 -349 -370 1021 0
-337 -349 -371 1022 0
-337 -349 -372 1023 0
-337 -350 -365 1008 0
-337 -350 -366 1014 0
-337 -350 -367 1019 0
-337 -350 -369 1024 0
-337 -350 -370 1025 0
-337 -350 -371 1026 0
-337 -350 -372 1027 0
-337 -351 -365 1009 0
-337 -351 -366 1015 0
-337 -351 -367 1020 0
-337 -351 -368 1024 0
-337 -351 -370 1028 0
-337 -351 -371 1029 0
-337 -351 -372 1030 0
-337 -352 -365 1010 0
-337 -352 -366 1016 0
-337 -352 -367 1021 0
-337 -352 -368 1025 0
-337 -352 -369 1028 0
-337 -352 -371 1031 0
-337 -352 -372 1032 0
-337 -353 -365 1011 0
-337 -353 -366 1017 0
-337 -353 -367 1022 0
-337 -353 -368 1026 0
-337 -353 -369 1029 0
-337 -353 -370 1031 0
-337 -353 -372 1033 0
-337 -354 -365 1012 0
-337 -354 -366 1018 0
-337 -354 -367 1023 0
-337 -354 -368 1027 0
-337 -354 -369 1030 0
-337 -354 -370 1032 0
-337 -354 -371 1033 0
-338 -346 -366 1006 0
-338 -346 -367 1007 0
-338 -346 -368 1008 0
-338 -346 -369 1009 0
-338 -346 -370 1010 0
-338 -346 -371 1011 0
-338 -346 -372 1012 0
-338 -348 -364 1006 0
-338 -348 -367 1034 0
-338 -348 -368 1035 0
-338 -348 -369 1036 0
-338 -348 -370 1037 0
-338 -348 -371 1038 0
-338 -348 -372 1039 0
-338 -349 -364 1007 0
-338 -349 -366 1034 0
-338 -349 -368 1040 0
-338 -349 -369 1041 0
-338 -349 -370 1042 0
-338 -349 -371 1043 0
-338 -349 -372 1044 0
-338 -350 -364 1008 0
-338 -350 -366 1035 0
-338 -350 -367 1040 0
-338 -350 -369 1045 0
-338 -350 -370 1046 0
-338 -350 -371 1047 0
-338 -350 -372 1048 0
-338 -351 -364 1009 0
-338 -351 -366 1036 0
-338 -351 -367 1041 0
-338 -351 -368 1045 0
-338 -351 -370 1049 0
-338 -351 -371 1050 0
-338 -351 -372 1051 0
-338 -352 -364 1010 0
-338 -352 -366 1037 0
-338 -352 -367 1042 0
-338 -352 -368 1046 0
-338 -352 -369 1049 0
-338 -352 -371 1052 0
-338 -352 -372 1053 0
-338 -353 -364 1011 0
-338 -353 -366 1038 0
-338 -353 -367 1043 0
-338 -353 -368 1047 0
-338 -353 -369 1050 0
-338 -353 -370 1052 0
-338 -353 -372 1054 0
-338 -354 -364 1012 0
-338 -354 -366 1039 0
-338 -354 -367 1044 0
-338 -354 -368 1048 0
-338 -354 -369 1051 0
-338 -354 -370 1053 0
-338 -354 -371 1054 0
-339 -346 -365 1006 0
-339 -346 -367 1013 0
-339 -346 -368 1014 0
-339 -346 -369 1015 0
-339 -346 -370 1016 0
-339 -346 -371 1017 0
-339 -346 -372 1018 0
-339 -347 -364 1006 0
-339 -347 -367 1034 0
-339 -347 -368 1035 0
-339 -347 -369 1036 0
-339 -347 -370 1037 0
-339 -347 -371 1038 0
-339 -347 -372 1039 0
-339 -349 -364 1013 0
-339 -349 -365 1034 0
-339 -349 -368 1055 0
-339 -349 -369 1056 0
-339 -349 -370 1057 0
-339 -349 -371 1058 0
-339 -349 -372 1059 0
-339 -350 -364 1014 0
-339 -350 -365 1035 0
-339 -350 -367 1055 0
-339 -350 -369 1060 0
-339 -350 -370 1061 0
-339 -350 -371 1062 0
-339 -350 -372 1063 0
-339 -351 -364 1015 0
-339 -351 -365 1036 0
-339 -351 -367 1056 0
-339 -351 -368 1060 0
-339 -351 -370 1064 0
-339 -351 -371 1065 0
-339 -351 -372 1066 0
-339 -352 -364 1016 0
-339 -352 -365 1037 0
-339 -352 -367 1057 0
-339 -352 -368 1061 0
-339 -352 -369 1064 0
-339 -352 -371 1067 0
-339 -352 -372 1068 0
-339 -353 -364 1017 0
-339 -353 -365 1038 0
-339 -353 -367 1058 0
-339 -353 -368 1062 0
-339 -353 -369 1065 0
-339 -353 -370 1067 0
-339 -353 -372 1069 0
-339 -354 -364 1018 0
-339 -354 -365 1039 0
-339 -354 -367 1059 0
-339 -354 -368 1063 0
-339 -354 -369 1066 0
-339 -354 -370 1068 0
-339 -354 -371 1069 0
-340 -346 -365 1007 0
-340 -346 -366 1013 0
-340 -346 -368 1019 0
-340 -346 -369 1020 0
-340 -346 -370 1021 0
-340 -346 -371 1022 0
-340 -346 -372 1023 0
-340 -347 -364 1007 0
-340 -347 -366 1034 0
-340 -347 -368 1040 0
-340 -347 -369 1041 0
-340 -347 -370 1042 0
-340 -347 -371 1043 0
-340 -347 -372 1044 0
-340 -348 -364 1013 0
-340 -348 -365 1034 0
-340 -348 -368 1055 0
-340 -348 -369 1056 0
-340 -348 -370 1057 0
-340 -348 -371 1058 0
-340 -348 -372 1059 0
-340 -350 -364 1019 0
-340 -350 -365 1040 0
-340 -350 -366 1055 0
-340 -350 -369 1070 0
-340 -350 -370 1071 0
-340 -350 -371 1072 0
-340 -350 -372 1073 0
-340 -351 -364 1020 0
-340 -351 -365 1041 0
-340 -351 -366 1056 0
-340 -351 -368 1070 0
-340 -351 -370 1074 0
-340 -351 -371 1075 0
-340 -351 -372 1076 0
-340 -352 -364 1021 0
-340 -352 -365 1042 0
-340 -352 -366 1057 0
-340 -352 -368 1071 0
-340 -352 -369 1074 0
-340 -352 -371 1077 0
-340 -352 -372 1078 0
-340 -353 -364 1022 0
-340 -353 -365 1043 0
-340 -353 -366 1058 0
-340 -353 -368 1072 0
-340 -353 -369 1075 0
-340 -353 -370 1077 0
-340 -353 -372 1079 0
-340 -354 -364 1023 0
-340 -354 -365 1044 0
-340 -354 -366 1059 0
-340 -354 -368 1073 0
-340 -354 -369 1076 0
-340 -354 -370 1078 0
-340 -354 -371 1079 0
-341 -346 -365 1008 0
-341 -346 -366 1014 0
-341 -346 -367 1019 0
-341 -346 -369 1024 0
-341 -346 -370 1025 0
-341 -346 -371 1026 0
-341 -346 -372 1027 0
-341 -347 -364 1008 0
-341 -347 -366 1035 0
-341 -347 -367 1040 0
-341 -347 -369 1045 0
-341 -347 -370 1046 0
-341 -347 -371 1047 0
-341 -347 -372 1048 0
-341 -348 -364 1014 0
-341 -348 -365 1035 0
-341 -348 -367 1055 0
-341 -348 -369 1060 0
-341 -348 -370 1061 0
-341 -348 -371 1062 0
-341 -348 -372 1063 0
-341 -349 -364 1019 0
-341 -349 -365 1040 0
-341 -349 -366 1055 0
-341 -349 -369 1070 0
-341 -349 -370 1071 0
-341 -349 -371 1072 0
-341 -349 -372 1073 0
-341 -351 -364 1024 0
-341 -351 -365 1045 0
-341 -351 -366 1060 0
-341 -351 -367 1070 0
-341 -351 -370 1080 0
-341 -351 -371 1081 0
-341 -351 -372 1082 0
-341 -352 -364 1025 0
-341 -352 -365 1046 0
-341 -352 -366 1061 0
-341 -352 -367 1071 0
-341 -352 -369 1080 0
-341 -352 -371 1083 0
-341 -352 -372 1084 0
-341 -353 -364 1026 0
-341 -353 -365 1047 0
-341 -353 -366 1062 0
-341 -353 -367 1072 0
-341 -353 -369 1081 0
-341 -353 -370 1083 0
-341 -353 -372 1085 0
-341 -354 -364 1027 0
-341 -354 -365 1048 0
-341 -354 -366 1063 0
-341 -354 -367 1073 0
-341 -354 -369 1082 0
-341 -354 -370 1084 0
-341 -354 -371 1085 0
-342 -346 -365 1009 0
-342 -346 -366 1015 0
-342 -346 -367 1020 0
-342 -346 -368 1024 0
-342 -346 -370 1028 0
-342 -346 -371 1029 0
-342 -346 -372 1030 0
-342 -347 -364 1009 0
-342 -347 -366 1036 0
-342 -347 -367 1041 0
-342 -347 -368 1045 0
-342 -347 -370 1049 0
-342 -347 -371 1050 0
-342 -347 -372 1051 0
-342 -348 -364 1015 0
-342 -348 -365 1036 0
-342 -348 -367 1056 0
-342 -348 -368 1060 0
-342 -348 -370 1064 0
-342 -348 -371 1065 0
-342 -348 -372 1066 0
-342 -349 -364 1020 0
-342 -349 -365 1041 0
-342 -349 -366 1056 0
-342 -349 -368 1070 0
-342 -349 -370 1074 0
-342 -349 -371 1075 0
-342 -349 -372 1076 0
-342 -350 -364 1024 0
-342 -350 -365 1045 0
-342 -350 -366 1060 0
-342 -350 -367 1070 0
-342 -350 -370 1080 0
-342 -350 -371 1081 0
-342 -350 -372 1082 0
-342 -352 -364 1028 0
-342 -352 -365 1049 0
-342 -352 -366 1064 0
-342 -352 -367 1074 0
-342 -352 -368 1080 0
-342 -352 -371 1086 0
-342 -352 -372 1087 0
-342 -353 -364 1029 0
-342 -353 -365 1050 0
-342 -353 -366 1065 0
-342 -353 -367 1075 0
-342 -353 -368 1081 0
-342 -353 -370 1086 0
-342 -353 -372 1088 0
-342 -354 -364 1030 0
-342 -354 -365 1051 0
-342 -354 -366 1066 0
-342 -354 -367 1076 0
-342 -354 -368 1082 0
-342 -354 -370 1087 0
-342 -354 -371 1088 0
-343 -346 -365 1010 0
-343 -346 -366 1016 0
-343 -346 -367 1021 0
-343 -346 -368 1025 0
-343 -346 -369 1028 0
-343 -346 -371 1031 0
-343 -346 -372 1032 0
-343 -347 -364 1010 0
-343 -347 -366 1037 0
-343 -347 -367 1042 0
-343 -347 -368 1046 0
-343 -347 -369 1049 0
-343 -347 -371 1052 0
-343 -347 -372 1053 0
-343 -348 -364 1016 0
-343 -348 -365 1037 0
-343 -348 -367 1057 0
-343 -348 -368 1061 0
-343 -348 -369 1064 0
-343 -348 -371 1067 0
-343 -348 -372 1068 0
-343 -349 -364 1021 0
-343 -349 -365 1042 0
-343 -349 -366 1057 0
-343 -349 -368 1071 0
-343 -349 -369 1074 0
-343 -349 -371 1077 0
-343 -349 -372 1078 0
-343 -350 -364 1025 0
-343 -350 -365 1046 0
-343 -350 -366 1061 0
-343 -350 -367 1071 0
-343 -350 -369 1080 0
-343 -350 -371 1083 0
-343 -350 -372 1084 0
-343 -351 -364 1028 0
-343 -351 -365 1049 0
-343 -351 -366 1064 0
-343 -351 -367 1074 0
-343 -351 -368 1080 0
-343 -351 -371 1086 0
-343 -351 -372 1087 0
-343 -353 -364 1031 0
-343 -353 -365 1052 0
-343 -353 -366 1067 0
-343 -353 -367 1077 0
-343 -353 -368 1083 0
-343 -353 -369 1086 0
-343 -353 -372 1089 0
-343 -354 -364 1032 0
-343 -354 -365 1053 0
-343 -354 -366 1068 0
-343 -354 -367 1078 0
-343 -354 -368 1084 0
-343 -354 -369 1087 0
-343 -354 -371 1089 0
-344 -346 -365 1011 0
-344 -346 -366 1017 0
-344 -346 -367 1022 0
-344 -346 -368 1026 0
-344 -346 -369 1029 0
-344 -346 -370 1031 0
-344 -346 -372 1033 0
-344 -347 -364 1011 0
-344 -347 -366 1038 0
-344 -347 -367 1043 0
-344 -347 -368 1047 0
-344 -347 -369 1050 0
-344 -347 -370 1052 0
-344 -347 -372 1054 0
-344 -348 -364 1017 0
-344 -348 -365 1038 0
-344 -348 -367 1058 0
-344 -348 -368 1062 0
-344 -348 -369 1065 0
-344 -348 -370 1067 0
-344 -348 -372 1069 0
-344 -349 -364 1022 0
-344 -349 -365 1043 0
-344 -349 -366 1058 0
-344 -349 -368 1072 0
-344 -349 -369 1075 0
-344 -349 -370 1077 0
-344 -349 -372 1079 0
-344 -350 -364 1026 0
-344 -350 -365 1047 0
-344 -350 -366 1062 0
-344 -350 -367 1072 0
-344 -350 -369 1081 0
-344 -350 -370 1083 0
-344 -350 -372 1085 0
-344 -351 -364 1029 0
-344 -351 -365 1050 0
-344 -351 -366 1065 0
-344 -351 -367 1075 0
-344 -351 -368 1081 0
-344 -351 -370 1086 0
-344 -351 -372 1088 0
-344 -352 -364 1031 0
-344 -352 -365 1052 0
-344 -352 -366 1067 0
-344 -352 -367 1077 0
-344 -352 -368 1083 0
-344 -352 -369 1086 0
-344 -352 -372 1089 0
-344 -354 -364 1033 0
-344 -354 -365 1054 0
-344 -354 -366 1069 0
-344 -354 -367 1079 0
-344 -354 -368 1085 0
-344 -354 -369 1088 0
-344 -354 -370 1089 0
-345 -346 -365 1012 0
-345 -346 -366 1018 0
-345 -346 -367 1023 0
-345 -346 -368 1027 0
-345 -346 -369 1030 0
-345 -346 -370 1032 0
-345 -346 -371 1033 0
-345 -347 -364 1012 0
-345 -347 -366 1039 0
-345 -347 -367 1044 0
-345 -347 -368 1048 0
-345 -347 -369 1051 0
-345 -347 -370 1053 0
-345 -347 -371 1054 0
-345 -348 -364 1018 0
-345 -348 -365 1039 0
-345 -348 -367 1059 0
-345 -348 -368 1063 0
-345 -348 -369 1066 0
-345 -348 -370 1068 0
-345 -348 -371 1069 0
-345 -349 -364 1023 0
-345 -349 -365 1044 0
-345 -349 -366 1059 0
-345 -349 -368 1073 0
-345 -349 -369 1076 0
-345 -349 -370 1078 0
-345 -349 -371 1079 0
-345 -350 -364 1027 0
-345 -350 -365 1048 0
-345 -350 -366 1063 0
-345 -350 -367 1073 0
-345 -350 -369 1082 0
-345 -350 -370 1084 0
-345 -350 -371 1085 0
-345 -351 -364 1030 0
-345 -351 -365 1051 0
-345 -351 -366 1066 0
-345 -351 -367 1076 0
-345 -351 -368 1082 0
-345 -351 -370 1087 0
-345 -351 -371 1088 0
-345 -352 -364 1032 0
-345 -352 -365 1053 0
-345 -352 -366 1068 0
-345 -352 -367 1078 0
-345 -352 -368 1084 0
-345 -352 -369 1087 0
-345 -352 -371 1089 0
-345 -353 -364 1033 0
-345 -353 -365 1054 0
-345 -353 -366 1069 0
-345 -353 -367 1079 0
-345 -353 -368 1085 0
-345 -353 -369 1088 0
-345 -353 -370 1089 0
-1090 -337 -347 -366 253 0
-1090 -337 -347 -367 254 0
-1090 -337 -347 -368 255 0
-1090 -337 -347 -369 256 0
-1090 -337 -347 -370 257 0
-1090 -337 -347 -371 258 0
-1090 -337 -347 -372 259 0
-1090 -337 -348 -365 253 0
-1090 -337 -348 -367 260 0
-1090 -337 -348 -368 261 0
-1090 -337 -348 -369 262 0
-1090 -337 -348 -370 263 0
-1090 -337 -348 -371 264 0
-1090 -337 -348 -372 265 0
-1090 -337 -349 -365 254 0
-1090 -337 -349 -366 260 0
-1090 -337 -349 -368 266 0
-1090 -337 -349 -369 267 0
-1090 -337 -349 -370 268 0
-1090 -337 -349 -371 269 0
-1090 -337 -349 -372 270 0
-1090 -337 -350 -365 255 0
-1090 -337 -350 -366 261 0
-1090 -337 -350 -367 266 0
-1090 -337 -350 -369 271 0
-1090 -337 -350 -370 272 0
-1090 -337 -350 -371 273 0
-1090 -337 -350 -372 274 0
-1090 -337 -351 -365 256 0
-1090 -337 -351 -366 262 0
-1090 -337 -351 -367 267 0
-1090 -337 -351 -368 271 0
-1090 -337 -351 -370 275 0
-1090 -337 -351 -371 276 0
-1090 -337 -351 -372 277 0
-1090 -337 -352 -365 257 0
-1090 -337 -352 -366 263 0
-1090 -337 -352 -367 268 0
-1090 -337 -352 -368 272 0
-1090 -337 -352 -369 275 0
-1090 -337 -352 -371 278 0
-1090 -337 -352 -372 279 0
-1090 -337 -353 -365 258 0
-1090 -337 -353 -366 264 0
-1090 -337 -353 -367 269 0
-1090 -337 -353 -368 273 0
-1090 -337 -353 -369 276 0
-1090 -337 -353 -370 278 0
-1090 -337 -353 -372 280 0
-1090 -337 -354 -365 259 0
-1090 -337 -354 -366 265 0
-1090 -337 -354 -367 270 0
-1090 -337 -354 -368 274 0
-1090 -337 -354 -369 277 0
-1090 -337 -354 -370 279 0
-1090 -337 -354 -371 280 0
-1090 -338 -346 -366 253 0
-1090 -338 -346 -367 254 0
-1090 -338 -346 -368 255 0
-1090 -338 -346 -369 256 0
-1090 -338 -346 -370 257 0
-1090 -338 -346 -371 258 0
-1090 -338 -346 -372 259 0
-1090 -338 -348 -364 253 0
-1090 -338 -348 -367 281 0
-1090 -338 -348 -368 282 0
-1090 -338 -348 -369 283 0
-1090 -338 -348 -370 284 0
-1090 -338 -348 -371 285 0
-1090 -338 -348 -372 286 0
-1090 -338 -349 -364 254 0
-1090 -338 -349 -366 281 0
-1090 -338 -349 -368 287 0
-1090 -338 -349 -369 288 0
-1090 -338 -349 -370 289 0
-1090 -338 -349 -371 290 0
-1090 -338 -349 -372 291 0
-1090 -338 -350 -364 255 0
-1090 -338 -350 -366 282 0
-1090 -338 -350 -367 287 0
-1090 -338 -350 -369 292 0
-1090 -338 -350 -370 293 0
-1090 -338 -350 -371 294 0
-1090 -338 -350 -372 295 0
-1090 -338 -351 -364 256 0
-1090 -338 -351 -366 283 0
-1090 -338 -351 -367 288 0
-1090 -338 -351 -368 292 0
-1090 -338 -351 -370 296 0
-1090 -338 -351 -371 297 0
-1090 -338 -351 -372 298 0
-1090 -338 -352 -364 257 0
-1090 -338 -352 -366 284 0
-1090 -338 -352 -367 289 0
-1090 -338 -352 -368 293 0
-1090 -338 -352 -369 296 0
-1090 -338 -352 -371 299 0
-1090 -338 -352 -372 300 0
-1090 -338 -353 -364 258 0
-1090 -338 -353 -366 285 0
-1090 -338 -353 -367 290 0
-1090 -338 -353 -368 294 0
-1090 -338 -353 -369 297 0
-1090 -338 -353 -370 299 0
-1090 -338 -353 -372 301 0
-1090 -338 -354 -364 259 0
-1090 -338 -354 -366 286 0
-1090 -338 -354 -367 291 0
-1090 -338 -354 -368 295 0
-1090 -338 -354 -369 298 0
-1090 -338 -354 -370 300 0
-1090 -338 -354 -371 301 0
-1090 -339 -346 -365 253 0
-1090 -339 -346 -367 260 0
-1090 -339 -346 -368 261 0
-1090 -339 -346 -369 262 0
-1090 -339 -346 -370 263 0
-1090 -339 -346 -371 264 0
-1090 -339 -346 -372 265 0
-1090 -339 -347 -364 253 0
-1090 -339 -347 -367 281 0
-1090 -339 -347 -368 282 0
-1090 -339 -347 -369 283 0
-1090 -339 -347 -370 284 0
-1090 -339 -347 -371 285 0
-1090 -339 -347 -372 286 0
-1090 -339 -349 -364 260 0
-1090 -339 -349 -365 281 0
-1090 -339 -349 -368 302 0
-1090 -339 -349 -369 303 0
-1090 -339 -349 -370 304 0
-1090 -339 -349 -371 305 0
-1090 -339 -349 -372 306 0
-1090 -339 -350 -364 261 0
-1090 -339 -350 -365 282 0
-1090 -339 -350 -367 302 0
-1090 -339 -350 -369 307 0
-1090 -339 -350 -370 308 0
-1090 -339 -350 -371 309 0
-1090 -339 -350 -372 310 0
-1090 -339 -351 -364 262 0
-1090 -339 -351 -365 283 0
-1090 -339 -351 -367 303 0
-1090 -339 -351 -368 307 0
-1090 -339 -351 -370 311 0
-1090 -339 -351 -371 312 0
-1090 -339 -351 -372 313 0
-1090 -339 -352 -364 263 0
-1090 -339 -352 -365 284 0
-1090 -339 -352 -367 304 0
-1090 -339 -352 -368 308 0
-1090 -339 -352 -369 311 0
-1090 -339 -352 -371 314 0
-1090 -339 -352 -372 315 0
-1090 -339 -353 -364 264 0
-1090 -339 -353 -365 285 0
-1090 -339 -353 -367 305 0
-1090 -339 -353 -368 309 0
-1090 -339 -353 -369 312 0
-1090 -339 -353 -370 314 0
-1090 -339 -353 -372 316 0
-1090 -339 -354 -364 265 0
-1090 -339 -354 -365 286 0
-1090 -339 -354 -367 306 0
-1090 -339 -354 -368 310 0
-1090 -339 -354 -369 313 0
-1090 -339 -354 -370 315 0
-1090 -339 -354 -371 316 0
-1090 -340 -346 -365 254 0
-1090 -340 -346 -366 260 0
-1090 -340 -346 -368 266 0
-1090 -340 -346 -369 267 0
-1090 -340 -346 -370 268 0
-1090 -340 -346 -371 269 0
-1090 -340 -346 -372 270 0
-1090 -340 -347 -364 254 0
-1090 -340 -347 -366 281 0
-1090 -340 -347 -368 287 0
-1090 -340 -347 -369 288 0
-1090 -340 -347 -370 289 0
-1090 -340 -347 -371 290 0
-1090 -340 -347 -372 291 0
-1090 -340 -348 -364 260 0
-1090 -340 -348 -365 281 0
-1090 -340 -348 -368 302 0
-1090 -340 -348 -369 303 0
-1090 -340 -348 -370 304 0
-1090 -340 -348 -371 305 0
-1090 -340 -348 -372 306 0
-1090 -340 -350 -364 266 0
-1090 -340 -350 -365 287 0
-1090 -340 -350 -366 302 0
-1090 -340 -350 -369 317 0
-1090 -340 -350 -370 318 0
-1090 -340 -350 -371 319 0
-1090 -340 -350 -372 320 0
-1090 -340 -351 -364 267 0
-1090 -340 -351 -365 288 0
-1090 -340 -351 -366 303 0
-1090 -340 -351 -368 317 0
-1090 -340 -351 -370 321 0
-1090 -340 -351 -371 322 0
-1090 -340 -351 -372 323 0
-1090 -340 -352 -364 268 0
-1090 -340 -352 -365 289 0
-1090 -340 -352 -366 304 0
-1090 -340 -352 -368 318 0
-1090 -340 -352 -369 321 0
-1090 -340 -352 -371 324 0
-1090 -340 -352 -372 325 0
-1090 -340 -353 -364 269 0
-1090 -340 -353 -365 290 0
-1090 -340 -353 -366 305 0
-1090 -340 -353 -368 319 0
-1090 -340 -353 -369 322 0
-1090 -340 -353 -370 324 0
-1090 -340 -353 -372 326 0
-1090 -340 -354 -364 270 0
-1090 -340 -354 -365 291 0
-1090 -340 -354 -366 306 0
-1090 -340 -354 -368 320 0
-1090 -340 -354 -369 323 0
-1090 -340 -354 -370 325 0
-1090 -340 -354 -371 326 0
-1090 -341 -346 -365 255 0
-1090 -341 -346 -366 261 0
-1090 -341 -346 -367 266 0
-1090 -341 -346 -369 271 0
-1090 -341 -346 -370 272 0
-1090 -341 -346 -371 273 0
-1090 -341 -346 -372 274 0
-1090 -341 -347 -364 255 0
-1090 -341 -347 -366 282 0
-1090 -341 -347 -367 287 0
-1090 -341 -347 -369 292 0
-1090 -341 -347 -370 293 0
-1090 -341 -347 -371 294 0
-1090 -341 -347 -372 295 0
-1090 -341 -348 -364 261 0
-1090 -341 -348 -365 282 0
-1090 -341 -348 -367 302 0
-1090 -341 -348 -369 307 0
-1090 -341 -348 -370 308 0
-1090 -341 -348 -371 309 0
-1090 -341 -348 -372 310 0
-1090 -341 -349 -364 266 0
-1090 -341 -349 -365 287 0
-1090 -341 -349 -366 302 0
-1090 -341 -349 -369 317 0
-1090 -341 -349 -370 318 0
-1090 -341 -349 -371 319 0
-1090 -341 -349 -372 320 0
-1090 -341 -351 -364 271 0
-1090 -341 -351 -365 292 0
-1090 -341 -351 -366 307 0
-1090 -341 -351 -367 317 0
-1090 -341 -351 -370 327 0
-1090 -341 -351 -371 328 0
-1090 -341 -351 -372 329 0
-1090 -341 -352 -364 272 0
-1090 -341 -352 -365 293 0
-1090 -341 -352 -366 308 0
-1090 -341 -352 -367 318 0
-1090 -341 -352 -369 327 0
-1090 -341 -352 -371 330 0
-1090 -341 -352 -372 331 0
-1090 -341 -353 -364 273 0
-1090 -341 -353 -365 294 0
-1090 -341 -353 -366 309 0
-1090 -341 -353 -367 319 0
-1090 -341 -353 -369 328 0
-1090 -341 -353 -370 330 0
-1090 -341 -353 -372 332 0
-1090 -341 -354 -364 274 0
-1090 -341 -354 -365 295 0
-1090 -341 -354 -366 310 0
-1090 -341 -354 -367 320 0
-1090 -341 -354 -369 329 0
-1090 -341 -354 -370 331 0
-1090 -341 -354 -371 332 0
-1090 -342 -346 -365 256 0
-1090 -342 -346 -366 262 0
-1090 -342 -346 -367 267 0
-1090 -342 -346 -368 271 0
-1090 -342 -346 -370 275 0
-1090 -342 -346 -371 276 0
-1090 -342 -346 -372 277 0
-1090 -342 -347 -364 256 0
-1090 -342 -347 -366 283 0
-1090 -342 -347 -367 288 0
-1090 -342 -347 -368 292 0
-1090 -342 -347 -370 296 0
-1090 -342 -347 -371 297 0
-1090 -342 -347 -372 298 0
-1090 -342 -348 -364 262 0
-1090 -342 -348 -365 283 0
-1090 -342 -348 -367 303 0
-1090 -342 -348 -368 307 0
-1090 -342 -348 -370 311 0
-1090 -342 -348 -371 312 0
-1090 -342 -348 -372 313 0
-1090 -342 -349 -364 267 0
-1090 -342 -349 -365 288 0
-1090 -342 -349 -366 303 0
-1090 -342 -349 -368 317 0
-1090 -342 -349 -370 321 0
-1090 -342 -349 -371 322 0
-1090 -342 -349 -372 323 0
-1090 -342 -350 -364 271 0
-1090 -342 -350 -365 292 0
-1090 -342 -350 -366 307 0
-1090 -342 -350 -367 317 0
-1090 -342 -350 -370 327 0
-1090 -342 -350 -371 328 0
-1090 -342 -350 -372 329 0
-1090 -342 -352 -364 275 0
-1090 -342 -352 -365 296 0
-1090 -342 -352 -366 311 0
-1090 -342 -352 -367 321 0
-1090 -342 -352 -368 327 0
-1090 -342 -352 -371 333 0
-1090 -342 -352 -372 334 0
-1090 -342 -353 -364 276 0
-1090 -342 -353 -365 297 0
-1090 -342 -353 -366 312 0
-1090 -342 -353 -367 322 0
-1090 -342 -353 -368 328 0
-1090 -342 -353 -370 333 0
-1090 -342 -353 -372 335 0
-1090 -342 -354 -364 277 0
-1090 -342 -354 -365 298 0
-1090 -342 -354 -366 313 0
-1090 -342 -354 -367 323 0
-1090 -342 -354 -368 329 0
-1090 -342 -354 -370 334 0
-1090 -342 -354 -371 335 0
-1090 -343 -346 -365 257 0
-1090 -343 -346 -366 263 0
-1090 -343 -346 -367 268 0
-1090 -343 -346 -368 272 0
-1090 -343 -346 -369 275 0
-1090 -343 -346 -371 278 0
-1090 -343 -346 -372 279 0
-1090 -343 -347 -364 257 0
-1090 -343 -347 -366 284 0
-1090 -343 -347 -367 289 0
-1090 -343 -347 -368 293 0
-1090 -343 -347 -369 296 0
-1090 -343 -347 -371 299 0
-1090 -343 -347 -372 300 0
-1090 -343 -348 -364 263 0
-1090 -343 -348 -365 284 0
-1090 -343 -348 -367 304 0
-1090 -343 -348 -368 308 0
-1090 -343 -348 -369 311 0
-1090 -343 -348 -371 314 0
-1090 -343 -348 -372 315 0
-1090 -343 -349 -364 268 0
-1090 -343 -349 -365 289 0
-1090 -343 -349 -366 304 0
-1090 -343 -349 -368 318 0
-1090 -343 -349 -369 321 0
-1090 -343 -349 -371 324 0
-1090 -343 -349 -372 325 0
-1090 -343 -350 -364 272 0
-1090 -343 -350 -365 293 0
-1090 -343 -350 -366 308 0
-1090 -343 -350 -367 318 0
-1090 -343 -350 -369 327 0
-1090 -343 -350 -371 330 0
-1090 -343 -350 -372 331 0
-1090 -343 -351 -364 275 0
-1090 -343 -351 -365 296 0
-1090 -343 -351 -366 311 0
-1090 -343 -351 -367 321 0
-1090 -343 -351 -368 327 0
-1090 -343 -351 -371 333 0
-1090 -343 -351 -372 334 0
-1090 -343 -353 -364 278 0
-1090 -343 -353 -365 299 0
-1090 -343 -353 -366 314 0
-1090 -343 -353 -367 324 0
-1090 -343 -353 -368 330 0
-1090 -343 -353 -369 333 0
-1090 -343 -353 -372 336 0
-1090 -343 -354 -364 279 0
-1090 -343 -354 -365 300 0
-1090 -343 -354 -366 315 0
-1090 -343 -354 -367 325 0
-1090 -343 -354 -368 331 0
-1090 -343 -354 -369 334 0
-1090 -343 -354 -371 336 0
-1090 -344 -346 -365 258 0
-1090 -344 -346 -366 264 0
-1090 -344 -346 -367 269 0
-1090 -344 -346 -368 273 0
-1090 -344 -346 -369 276 0
-1090 -344 -346 -370 278 0
-1090 -344 -346 -372 280 0
-1090 -344 -347 -364 258 0
-1090 -344 -347 -366 285 0
-1090 -344 -347 -367 290 0
-1090 -344 -347 -368 294 0
-1090 -344 -347 -369 297 0
-1090 -344 -347 -370 299 0
-1090 -344 -347 -372 301 0
-1090 -344 -348 -364 264 0
-1090 -344 -348 -365 285 0
-1090 -344 -348 -367 305 0
-1090 -344 -348 -368 309 0
-1090 -344 -348 -369 312 0
-1090 -344 -348 -370 314 0
-1090 -344 -348 -372 316 0
-1090 -344 -349 -364 269 0
-1090 -344 -349 -365 290 0
-1090 -344 -349 -366 305 0
-1090 -344 -349 -368 319 0
-1090 -344 -349 -369 322 0
-1090 -344 -349 -370 324 0
-1090 -344 -349 -372 326 0
-1090 -344 -350 -364 273 0
-1090 -344 -350 -365 294 0
-1090 -344 -350 -366 309 0
-1090 -344 -350 -367 319 0
-1090 -344 -350 -369 328 0
-1090 -344 -350 -370 330 0
-1090 -344 -350 -372 332 0
-1090 -344 -351 -364 276 0
-1090 -344 -351 -365 297 0
-1090 -344 -351 -366 312 0
-1090 -344 -351 -367 322 0
-1090 -344 -351 -368 328 0
-1090 -344 -351 -370 333 0
-1090 -344 -351 -372 335 0
-1090 -344 -352 -364 278 0
-1090 -344 -352 -365 299 0
-1090 -344 -352 -366 314 0
-1090 -344 -352 -367 324 0
-1090 -344 -352 -368 330 0
-1090 -344 -352 -369 333 0
-1090 -344 -352 -372 336 0
-1090 -344 -354 -364 280 0
-1090 -344 -354 -365 301 0
-1090 -344 -354 -366 316 0
-1090 -344 -354 -367 326 0
-1090 -344 -354 -368 332 0
-1090 -344 -354 -369 335 0
-1090 -344 -354 -370 336 0
-1090 -345 -346 -365 259 0
-1090 -345 -346 -366 265 0
-1090 -345 -346 -367 270 0
-1090 -345 -346 -368 274 0
-1090 -345 -346 -369 277 0
-1090 -345 -346 -370 279 0
-1090 -345 -346 -371 280 0
-1090 -345 -347 -364 259 0
-1090 -345 -347 -366 286 0
-1090 -345 -347 -367 291 0
-1090 -345 -347 -368 295 0
-1090 -345 -347 -369 298 0
-1090 -345 -347 -370 300 0
-1090 -345 -347 -371 301 0
-1090 -345 -348 -364 265 0
-1090 -345 -348 -365 286 0
-1090 -345 -348 -367 306 0
-1090 -345 -348 -368 310 0
-1090 -345 -348 -369 313 0
-1090 -345 -348 -370 315 0
-1090 -345 -348 -371 316 0
-1090 -345 -349 -364 270 0
-1090 -345 -349 -365 291 0
-1090 -345 -349 -366 306 0
-1090 -345 -349 -368 320 0
-1090 -345 -349 -369 323 0
-1090 -345 -349 -370 325 0
-1090 -345 -349 -371 326 0
-1090 -345 -350 -364 274 0
-1090 -345 -350 -365 295 0
-1090 -345 -350 -366 310 0
-1090 -345 -350 -367 320 0
-1090 -345 -350 -369 329 0
-1090 -345 -350 -370 331 0
-1090 -345 -350 -371 332 0
-1090 -345 -351 -364 277 0
-1090 -345 -351 -365 298 0
-1090 -345 -351 -366 313 0
-1090 -345 -351 -367 323 0
-1090 -345 -351 -368 329 0
-1090 -345 -351 -370 334 0
-1090 -345 -351 -371 335 0
-1090 -345 -352 -364 279 0
-1090 -345 -352 -365 300 0
-1090 -345 -352 -366 315 0
-1090 -345 -352 -367 325 0
-1090 -345 -352 -368 331 0
-1090 -345 -352 -369 334 0
-1090 -345 -352 -371 336 0
-1090 -345 -353 -364 280 0
-1090 -345 -353 -365 301 0
-1090 -345 -353 -366 316 0
-1090 -345 -353 -367 326 0
-1090 -345 -353 -368 332 0
-1090 -345 -353 -369 335 0
-1090 -345 -353 -370 336 0
1090 0
-346 -356 -375 1091 0
-346 -356 -376 1092 0
-346 -356 -377 1093 0
-346 -356 -378 1094 0
-346 -356 -379 1095 0
-346 -356 -380 1096 0
-346 -356 -381 1097 0
-346 -357 -374 1091 0
-346 -357 -376 1098 0
-346 -357 -377 1099 0
-346 -357 -378 1100 0
-346 -357 -379 1101 0
-346 -357 -380 1102 0
-346 -357 -381 1103 0
-346 -358 -374 1092 0
-346 -358 -375 1098 0
-346 -358 -377 1104 0
-346 -358 -378 1105 0
-346 -358 -379 1106 0
-346 -358 -380 1107 0
-346 -358 -381 1108 0
-346 -359 -374 1093 0
-346 -359 -375 1099 0
-346 -359 -376 1104 0
-346 -359 -378 1109 0
-346 -359 -379 1110 0
-346 -359 -380 1111 0
-346 -359 -381 1112 0
-346 -360 -374 1094 0
-346 -360 -375 1100 0
-346 -360 -376 1105 0
-346 -360 -377 1109 0
-346 -360 -379 1113 0
-346 -360 -380 1114 0
-346 -360 -381 1115 0
-346 -361 -374 1095 0
-346 -361 -375 1101 0
-346 -361 -376 1106 0
-346 -361 -377 1110 0
-346 -361 -378 1113 0
-346 -361 -380 1116 0
-346 -361 -381 1117 0
-346 -362 -374 1096 0
-346 -362 -375 1102 0
-346 -362 -376 1107 0
-346 -362 -377 1111 0
-346 -362 -378 1114 0
-346 -362 -379 1116 0
-346 -362 -381 1118 0
-346 -363 -374 1097 0
-346 -363 -375 1103 0
-346 -363 -376 1108 0
-346 -363 -377 1112 0
-346 -363 -378 1115 0
-346 -363 -379 1117 0
-346 -363 -380 1118 0
-347 -355 -375 1091 0
-347 -355 -376 1092 0
-347 -355 -377 1093 0
-347 -355 -378 1094 0
-347 -355 -379 1095 0
-347 -355 -380 1096 0
-347 -355 -381 1097 0
-347 -357 -373 1091 0
-347 -357 -376 1119 0
-347 -357 -377 1120 0
-347 -357 -378 1121 0
-347 -357 -379 1122 0
-347 -357 -380 1123 0
-347 -357 -381 1124 0
-347 -358 -373 1092 0
-347 -358 -375 1119 0
-347 -358 -377 1125 0
-347 -358 -378 1126 0
-347 -358 -379 1127 0
-347 -358 -380 1128 0
-347 -358 -381 1129 0
-347 -359 -373 1093 0
-347 -359 -375 1120 0
-347 -359 -376 1125 0
-347 -359 -378 1130 0
-347 -359 -379 1131 0
-347 -359 -380 1132 0
-347 -359 -381 1133 0
-347 -360 -373 1094 0
-347 -360 -375 1121 0
-347 -360 -376 1126 0
-347 -360 -377 1130 0
-347 -360 -379 1134 0
-347 -360 -380 1135 0
-347 -360 -381 1136 0
-347 -361 -373 1095 0
-347 -361 -375 1122 0
-347 -361 -376 1127 0
-347 -361 -377 1131 0
-347 -361 -378 1134 0
-347 -361 -380 1137 0
-347 -361 -381 1138 0
-347 -362 -373 1096 0
-347 -362 -375 1123 0
-347 -362 -376 1128 0
-347 -362 -377 1132 0
-347 -362 -378 1135 0
-347 -362 -379 1137 0
-347 -362 -381 1139 0
-347 -363 -373 1097 0
-347 -363 -375 1124 0
-347 -363 -376 1129 0
-347 -363 -377 1133 0
-347 -363 -378 1136 0
-347 -363 -379 1138 0
-347 -363 -380 1139 0
-348 -355 -374 1091 0
-348 -355 -376 1098 0
-348 -355 -377 1099 0
-348 -355 -378 1100 0
-348 -355 -379 1101 0
-348 -355 -380 1102 0
-348 -355 -381 1103 0
-348 -356 -373 1091 0
-348 -356 -376 1119 0
-348 -356 -377 1120 0
-348 -356 -378 1121 0
-348 -356 -379 1122 0
-348 -356 -380 1123 0
-348 -356 -381 1124 0
-348 -358 -373 1098 0
-348 -358 -374 1119 0
-348 -358 -377 1140 0
-348 -358 -378 1141 0
-348 -358 -379 1142 0
-348 -358 -380 1143 0
-348 -358 -381 1144 0
-348 -359 -373 1099 0
-348 -359 -374 1120 0
-348 -359 -376 1140 0
-348 -359 -378 1145 0
-348 -359 -379 1146 0
-348 -359 -380 1147 0
-348 -359 -381 1148 0
-348 -360 -373 1100 0
-348 -360 -374 1121 0
-348 -360 -376 1141 0
-348 -360 -377 1145 0
-348 -360 -379 1149 0
-348 -360 -380 1150 0
-348 -360 -381 1151 0
-348 -361 -373 1101 0
-348 -361 -374 1122 0
-348 -361 -376 1142 0
-348 -361 -377 1146 0
-348 -361 -378 1149 0
-348 -361 -380 1152 0
-348 -361 -381 1153 0
-348 -362 -373 1102 0
-348 -362 -374 1123 0
-348 -362 -376 1143 0
-348 -362 -377 1147 0
-348 -362 -378 1150 0
-348 -362 -379 1152 0
-348 -362 -381 1154 0
-348 -363 -373 1103 0
-348 -363 -374 1124 0
-348 -363 -376 1144 0
-348 -363 -377 1148 0
-348 -363 -378 1151 0
-348 -363 -379 1153 0
-348 -363 -380 1154 0
-349 -355 -374 1092 0
-349 -355 -375 1098 0
-349 -355 -377 1104 0
-349 -355 -378 1105 0
-349 -355 -379 1106 0
-349 -355 -380 1107 0
-349 -355 -381 1108 0
-349 -356 -373 1092 0
-349 -356 -375 1119 0
-349 -356 -377 1125 0
-349 -356 -378 1126 0
-349 -356 -379 1127 0
-349 -356 -380 1128 0
-349 -356 -381 1129 0
-349 -357 -373 1098 0
-349 -357 -374 1119 0
-349 -357 -377 1140 0
-349 -357 -378 1141 0
-349 -357 -379 1142 0
-349 -357 -380 1143 0
-349 -357 -381 1144 0
-349 -359 -373 1104 0
-349 -359 -374 1125 0
-349 -359 -375 1140 0
-349 -359 -378 1155 0
-349 -359 -379 1156 0
-349 -359 -380 1157 0
-349 -359 -381 1158 0
-349 -360 -373 1105 0
-349 -360 -374 1126 0
-349 -360 -375 1141 0
-349 -360 -377 1155 0
-349 -360 -379 1159 0
-349 -360 -380 1160 0
-349 -360 -381 1161 0
-349 -361 -373 1106 0
-349 -361 -374 1127 0
-349 -361 -375 1142 0
-349 -361 -377 1156 0
-349 -361 -378 1159 0
-349 -361 -380 1162 0
-349 -361 -381 1163 0
-349 -362 -373 1107 0
-349 -362 -374 1128 0
-349 -362 -375 1143 0
-349 -362 -377 1157 0
-349 -362 -378 1160 0
-349 -362 -379 1162 0
-349 -362 -381 1164 0
-349 -363 -373 1108 0
-349 -363 -374 1129 0
-349 -363 -375 1144 0
-349 -363 -377 1158 0
-349 -363 -378 1161 0
-349 -363 -379 1163 0
-349 -363 -380 1164 0
-350 -355 -374 1093 0
-350 -355 -375 1099 0
-350 -355 -376 1104 0
-350 -355 -378 1109 0
-350 -355 -379 1110 0
-350 -355 -380 1111 0
-350 -355 -381 1112 0
-350 -356 -373 1093 0
-350 -356 -375 1120 0
-350 -356 -376 1125 0
-350 -356 -378 1130 0
-350 -356 -379 1131 0
-350 -356 -380 1132 0
-350 -356 -381 1133 0
-350 -357 -373 1099 0
-350 -357 -374 1120 0
-350 -357 -376 1140 0
-350 -357 -378 1145 0
-350 -357 -379 1146 0
-350 -357 -380 1147 0
-350 -357 -381 1148 0
-350 -358 -373 1104 0
-350 -358 -374 1125 0
-350 -358 -375 1140 0
-350 -358 -378 1155 0
-350 -358 -379 1156 0
-350 -358 -380 1157 0
-350 -358 -381 1158 0
-350 -360 -373 1109 0
-350 -360 -374 1130 0
-350 -360 -375 1145 0
-350 -360 -376 1155 0
-350 -360 -379 1165 0
-350 -360 -380 1166 0
-350 -360 -381 1167 0
-350 -361 -373 1110 0
-350 -361 -374 1131 0
-350 -361 -375 1146 0
-350 -361 -376 1156 0
-350 -361 -378 1165 0
-350 -361 -380 1168 0
-350 -361 -381 1169 0
-350 -362 -373 1111 0
-350 -362 -374 1132 0
-350 -362 -375 1147 0
-350 -362 -376 1157 0
-350 -362 -378 1166 0
-350 -362 -379 1168 0
-350 -362 -381 1170 0
-350 -363 -373 1112 0
-350 -363 -374 1133 0
-350 -363 -375 1148 0
-350 -363 -376 1158 0
-350 -363 -378 1167 0
-350 -363 -379 1169 0
-350 -363 -380 1170 0
-351 -355 -374 1094 0
-351 -355 -375 1100 0
-351 -355 -376 1105 0
-351 -355 -377 1109 0
-351 -355 -379 1113 0
-351 -355 -380 1114 0
-351 -355 -381 1115 0
-351 -356 -373 1094 0
-351 -356 -375 1121 0
-351 -356 -376 1126 0
-351 -356 -377 1130 0
-351 -356 -379 1134 0
-351 -356 -380 1135 0
-351 -356 -381 1136 0
-351 -357 -373 1100 0
-351 -357 -374 1121 0
-351 -357 -376 1141 0
-351 -357 -377 1145 0
-351 -357 -379 1149 0
-351 -357 -380 1150 0
-351 -357 -381 1151 0
-351 -358 -373 1105 0
-351 -358 -374 1126 0
-351 -358 -375 1141 0
-351 -358 -377 1155 0
-351 -358 -379 1159 0
-351 -358 -380 1160 0
-351 -358 -381 1161 0
-351 -359 -373 1109 0
-351 -359 -374 1130 0
-351 -359 -375 1145 0
-351 -359 -376 1155 0
-351 -359 -379 1165 0
-351 -359 -380 1166 0
-351 -359 -381 1167 0
-351 -361 -373 1113 0
-351 -361 -374 1134 0
-351 -361 -375 1149 0
-351 -361 -376 1159 0
-351 -361 -377 1165 0
-351 -361 -380 1171 0
-351 -361 -381 1172 0
-351 -362 -373 1114 0
-351 -362 -374 1135 0
-351 -362 -375 1150 0
-351 -362 -376 1160 0
-351 -362 -377 1166 0
-351 -362 -379 1171 0
-351 -362 -381 1173 0
-351 -363 -373 1115 0
-351 -363 -374 1136 0
-351 -363 -375 1151 0
-351 -363 -376 1161 0
-351 -363 -377 1167 0
-351 -363 -379 1172 0
-351 -363 -380 1173 0
-352 -355 -374 1095 0
-352 -355 -375 1101 0
-352 -355 -376 1106 0
-352 -355 -377 1110 0
-352 -355 -378 1113 0
-352 -355 -380 1116 0
-352 -355 -381 1117 0
-352 -356 -373 1095 0
-352 -356 -375 1122 0
-352 -356 -376 1127 0
-352 -356 -377 1131 0
-352 -356 -378 1134 0
-352 -356 -380 1137 0
-352 -356 -381 1138 0
-352 -357 -373 1101 0
-352 -357 -374 1122 0
-352 -357 -376 1142 0
-352 -357 -377 1146 0
-352 -357 -378 1149 0
-352 -357 -380 1152 0
-352 -357 -381 1153 0
-352 -358 -373 1106 0
-352 -358 -374 1127 0
-352 -358 -375 1142 0
-352 -358 -377 1156 0
-352 -358 -378 1159 0
-352 -358 -380 1162 0
-352 -358 -381 1163 0
-352 -359 -373 1110 0
-352 -359 -374 1131 0
-352 -359 -375 1146 0
-352 -359 -376 1156 0
-352 -359 -378 1165 0
-352 -359 -380 1168 0
-352 -359 -381 1169 0
-352 -360 -373 1113 0
-352 -360 -374 1134 0
-352 -360 -375 1149 0
-352 -360 -376 1159 0
-352 -360 -377 1165 0
-352 -360 -380 1171 0
-352 -360 -381 1172 0
-352 -362 -373 1116 0
-352 -362 -374 1137 0
-352 -362 -375 1152 0
-352 -362 -376 1162 0
-352 -362 -377 1168 0
-352 -362 -378 1171 0
-352 -362 -381 1174 0
-352 -363 -373 1117 0
-352 -363 -374 1138 0
-352 -363 -375 1153 0
-352 -363 -376 1163 0
-352 -363 -377 1169 0
-352 -363 -378 1172 0
-352 -363 -380 1174 0
-353 -355 -374 1096 0
-353 -355 -375 1102 0
-353 -355 -376 1107 0
-353 -355 -377 1111 0
-353 -355 -378 1114 0
-353 -355 -379 1116 0
-353 -355 -381 1118 0
-353 -356 -373 1096 0
-353 -356 -375 1123 0
-353 -356 -376 1128 0
-353 -356 -377 1132 0
-353 -356 -378 1135 0
-353 -356 -379 1137 0
-353 -356 -381 1139 0
-353 -357 -373 1102 0
-353 -357 -374 1123 0
-353 -357 -376 1143 0
-353 -357 -377 1147 0
-353 -357 -378 1150 0
-353 -357 -379 1152 0
-353 -357 -381 1154 0
-353 -358 -373 1107 0
-353 -358 -374 1128 0
-353 -358 -375 1143 0
-353 -358 -377 1157 0
-353 -358 -378 1160 0
-353 -358 -379 1162 0
-353 -358 -381 1164 0
-353 -359 -373 1111 0
-353 -359 -374 1132 0
-353 -359 -375 1147 0
-353 -359 -376 1157 0
-353 -359 -378 1166 0
-353 -359 -379 1168 0
-353 -359 -381 1170 0
-353 -360 -373 1114 0
-353 -360 -374 1135 0
-353 -360 -375 1150 0
-353 -360 -376 1160 0
-353 -360 -377 1166 0
-353 -360 -379 1171 0
-353 -360 -381 1173 0
-353 -361 -373 1116 0
-353 -361 -374 1137 0
-353 -361 -375 1152 0
-353 -361 -376 1162 0
-353 -361 -377 1168 0
-353 -361 -378 1171 0
-353 -361 -381 1174 0
-353 -363 -373 1118 0
-353 -363 -374 1139 0
-353 -363 -375 1154 0
-353 -363 -376 1164 0
-353 -363 -377 1170 0
-353 -363 -378 1173 0
-353 -363 -379 1174 0
-354 -355 -374 1097 0
-354 -355 -375 1103 0
-354 -355 -376 1108 0
-354 -355 -377 1112 0
-354 -355 -378 1115 0
-354 -355 -379 1117 0
-354 -355 -380 1118 0
-354 -356 -373 1097 0
-354 -356 -375 1124 0
-354 -356 -376 1129 0
-354 -356 -377 1133 0
-354 -356 -378 1136 0
-354 -356 -379 1138 0
-354 -356 -380 1139 0
-354 -357 -373 1103 0
-354 -357 -374 1124 0
-354 -357 -376 1144 0
-354 -357 -377 1148 0
-354 -357 -378 1151 0
-354 -357 -379 1153 0
-354 -357 -380 1154 0
-354 -358 -373 1108 0
-354 -358 -374 1129 0
-354 -358 -375 1144 0
-354 -358 -377 1158 0
-354 -358 -378 1161 0
-354 -358 -379 1163 0
-354 -358 -380 1164 0
-354 -359 -373 1112 0
-354 -359 -374 1133 0
-354 -359 -375 1148 0
-354 -359 -376 1158 0
-354 -359 -378 1167 0
-354 -359 -379 1169 0
-354 -359 -380 1170 0
-354 -360 -373 1115 0
-354 -360 -374 1136 0
-354 -360 -375 1151 0
-354 -360 -376 1161 0
-354 -360 -377 1167 0
-354 -360 -379 1172 0
-354 -360 -380 1173 0
-354 -361 -373 1117 0
-354 -361 -374 1138 0
-354 -361 -375 1153 0
-354 -361 -376 1163 0
-354 -361 -377 1169 0
-354 -361 -378 1172 0
-354 -361 -380 1174 0
-354 -362 -373 1118 0
-354 -362 -374 1139 0
-354 -362 -375 1154 0
-354 -362 -376 1164 0
-354 -362 -377 1170 0
-354 -362 -378 1173 0
-354 -362 -379 1174 0
-1175 -346 -356 -375 253 0
-1175 -346 -356 -376 254 0
-1175 -346 -356 -377 255 0
-1175 -346 -356 -378 256 0
-1175 -346 -356 -379 257 0
-1175 -346 -356 -380 258 0
-1175 -346 -356 -381 259 0
-1175 -346 -357 -374 253 0
-1175 -346 -357 -376 260 0
-1175 -346 -357 -377 261 0
-1175 -346 -357 -378 262 0
-1175 -346 -357 -379 263 0
-1175 -346 -357 -380 264 0
-1175 -346 -357 -381 265 0
-1175 -346 -358 -374 254 0
-1175 -346 -358 -375 260 0
-1175 -346 -358 -377 266 0
-1175 -346 -358 -378 267 0
-1175 -346 -358 -379 268 0
-1175 -346 -358 -380 269 0
-1175 -346 -358 -381 270 0
-1175 -346 -359 -374 255 0
-1175 -346 -359 -375 261 0
-1175 -346 -359 -376 266 0
-1175 -346 -359 -378 271 0
-1175 -346 -359 -379 272 0
-1175 -346 -359 -380 273 0
-1175 -346 -359 -381 274 0
-1175 -346 -360 -374 256 0
-1175 -346 -360 -375 262 0
-1175 -346 -360 -376 267 0
-1175 -346 -360 -377 271 0
-1175 -346 -360 -379 275 0
-1175 -346 -360 -380 276 0
-1175 -346 -360 -381 277 0
-1175 -346 -361 -374 257 0
-1175 -346 -361 -375 263 0
-1175 -346 -361 -376 268 0
-1175 -346 -361 -377 272 0
-1175 -346 -361 -378 275 0
-1175 -346 -361 -380 278 0
-1175 -346 -361 -381 279 0
-1175 -346 -362 -374 258 0
-1175 -346 -362 -375 264 0
-1175 -346 -362 -376 269 0
-1175 -346 -362 -377 273 0
-1175 -346 -362 -378 276 0
-1175 -346 -362 -379 278 0
-1175 -346 -362 -381 280 0
-1175 -346 -363 -374 259 0
-1175 -346 -363 -375 265 0
-1175 -346 -363 -376 270 0
-1175 -346 -363 -377 274 0
-1175 -346 -363 -378 277 0
-1175 -346 -363 -379 279 0
-1175 -346 -363 -380 280 0
-1175 -347 -355 -375 253 0
-1175 -347 -355 -376 254 0
-1175 -347 -355 -377 255 0
-1175 -347 -355 -378 256 0
-1175 -347 -355 -379 257 0
-1175 -347 -355 -380 258 0
-1175 -347 -355 -381 259 0
-1175 -347 -357 -373 253 0
-1175 -347 -357 -376 281 0
-1175 -347 -357 -377 282 0
-1175 -347 -357 -378 283 0
-1175 -347 -357 -379 284 0
-1175 -347 -357 -380 285 0
-1175 -347 -357 -381 286 0
-1175 -347 -358 -373 254 0
-1175 -347 -358 -375 281 0
-1175 -347 -358 -377 287 0
-1175 -347 -358 -378 288 0
-1175 -347 -358 -379 289 0
-1175 -347 -358 -380 290 0
-1175 -347 -358 -381 291 0
-1175 -347 -359 -373 255 0
-1175 -347 -359 -375 282 0
-1175 -347 -359 -376 287 0
-1175 -347 -359 -378 292 0
-1175 -347 -359 -379 293 0
-1175 -347 -359 -380 294 0
-1175 -347 -359 -381 295 0
-1175 -347 -360 -373 256 0
-1175 -347 -360 -375 283 0
-1175 -347 -360 -376 288 0
-1175 -347 -360 -377 292 0
-1175 -347 -360 -379 296 0
-1175 -347 -360 -380 297 0
-1175 -347 -360 -381 298 0
-1175 -347 -361 -373 257 0
-1175 -347 -361 -375 284 0
-1175 -347 -361 -376 289 0
-1175 -347 -361 -377 293 0
-1175 -347 -361 -378 296 0
-1175 -347 -361 -380 299 0
-1175 -347 -361 -381 300 0
-1175 -347 -362 -373 258 0
-1175 -347 -362 -375 285 0
-1175 -347 -362 -376 290 0
-1175 -347 -362 -377 294 0
-1175 -347 -362 -378 297 0
-1175 -347 -362 -379 299 0
-1175 -347 -362 -381 301 0
-1175 -347 -363 -373 259 0
-1175 -347 -363 -375 286 0
-1175 -347 -363 -376 291 0
-1175 -347 -363 -377 295 0
-1175 -347 -363 -378 298 0
-1175 -347 -363 -379 300 0
-1175 -347 -363 -380 301 0
-1175 -348 -355 -374 253 0
-1175 -348 -355 -376 260 0
-1175 -348 -355 -377 261 0
-1175 -348 -355 -378 262 0
-1175 -348 -355 -379 263 0
-1175 -348 -355 -380 264 0
-1175 -348 -355 -381 265 0
-1175 -348 -356 -373 253 0
-1175 -348 -356 -376 281 0
-1175 -348 -356 -377 282 0
-1175 -348 -356 -378 283 0
-1175 -348 -356 -379 284 0
-1175 -348 -356 -380 285 0
-1175 -348 -356 -381 286 0
-1175 -348 -358 -373 260 0
-1175 -348 -358 -374 281 0
-1175 -348 -358 -377 302 0
-1175 -348 -358 -378 303 0
-1175 -348 -358 -379 304 0
-1175 -348 -358 -380 305 0
-1175 -348 -358 -381 306 0
-1175 -348 -359 -373 261 0
-1175 -348 -359 -374 282 0
-1175 -348 -359 -376 302 0
-1175 -348 -359 -378 307 0
-1175 -348 -359 -379 308 0
-1175 -348 -359 -380 309 0
-1175 -348 -359 -381 310 0
-1175 -348 -360 -373 262 0
-1175 -348 -360 -374 283 0
-1175 -348 -360 -376 303 0
-1175 -348 -360 -377 307 0
-1175 -348 -360 -379 311 0
-1175 -348 -360 -380 312 0
-1175 -348 -360 -381 313 0
-1175 -348 -361 -373 263 0
-1175 -348 -361 -374 284 0
-1175 -348 -361 -376 304 0
-1175 -348 -361 -377 308 0
-1175 -348 -361 -378 311 0
-1175 -348 -361 -380 314 0
-1175 -348 -361 -381 315 0
-1175 -348 -362 -373 264 0
-1175 -348 -362 -374 285 0
-1175 -348 -362 -376 305 0
-1175 -348 -362 -377 309 0
-1175 -348 -362 -378 312 0
-1175 -348 -362 -379 314 0
-1175 -348 -362 -381 316 0
-1175 -348 -363 -373 265 0
-1175 -348 -363 -374 286 0
-1175 -348 -363 -376 306 0
-1175 -348 -363 -377 310 0
-1175 -348 -363 -378 313 0
-1175 -348 -363 -379 315 0
-1175 -348 -363 -380 316 0
-1175 -349 -355 -374 254 0
-1175 -349 -355 -375 260 0
-1175 -349 -355 -377 266 0
-1175 -349 -355 -378 267 0
-1175 -349 -355 -379 268 0
-1175 -349 -355 -380 269 0
-1175 -349 -355 -381 270 0
-1175 -349 -356 -373 254 0
-1175 -349 -356 -375 281 0
-1175 -349 -356 -377 287 0
-1175 -349 -356 -378 288 0
-1175 -349 -356 -379 289 0
-1175 -349 -356 -380 290 0
-1175 -349 -356 -381 291 0
-1175 -349 -357 -373 260 0
-1175 -349 -357 -374 281 0
-1175 -349 -357 -377 302 0
-1175 -349 -357 -378 303 0
-1175 -349 -357 -379 304 0
-1175 -349 -357 -380 305 0
-1175 -349 -357 -381 306 0
-1175 -349 -359 -373 266 0
-1175 -349 -359 -374 287 0
-1175 -349 -359 -375 302 0
-1175 -349 -359 -378 317 0
-1175 -349 -359 -379 318 0
-1175 -349 -359 -380 319 0
-1175 -349 -359 -381 320 0
-1175 -349 -360 -373 267 0
-1175 -349 -360 -374 288 0
-1175 -349 -360 -375 303 0
-1175 -349 -360 -377 317 0
-1175 -349 -360 -379 321 0
-1175 -349 -360 -380 322 0
-1175 -349 -360 -381 323 0
-1175 -349 -361 -373 268 0
-1175 -349 -361 -374 289 0
-1175 -349 -361 -375 304 0
-1175 -349 -361 -377 318 0
-1175 -349 -361 -378 321 0
-1175 -349 -361 -380 324 0
-1175 -349 -361 -381 325 0
-1175 -349 -362 -373 269 0
-1175 -349 -362 -374 290 0
-1175 -349 -362 -375 305 0
-1175 -349 -362 -377 319 0
-1175 -349 -362 -378 322 0
-1175 -349 -362 -379 324 0
-1175 -349 -362 -381 326 0
-1175 -349 -363 -373 270 0
-1175 -349 -363 -374 291 0
-1175 -349 -363 -375 306 0
-1175 -349 -363 -377 320 0
-1175 -349 -363 -378 323 0
-1175 -349 -363 -379 325 0
-1175 -349 -363 -380 326 0
-1175 -350 -355 -374 255 0
-1175 -350 -355 -375 261 0
-1175 -350 -355 -376 266 0
-1175 -350 -355 -378 271 0
-1175 -350 -355 -379 272 0
-1175 -350 -355 -380 273 0
-1175 -350 -355 -381 274 0
-1175 -350 -356 -373 255 0
-1175 -350 -356 -375 282 0
-1175 -350 -356 -376 287 0
-1175 -350 -356 -378 292 0
-1175 -350 -356 -379 293 0
-1175 -350 -356 -380 294 0
-1175 -350 -356 -381 295 0
-1175 -350 -357 -373 261 0
-1175 -350 -357 -374 282 0
-1175 -350 -357 -376 302 0
-1175 -350 -357 -378 307 0
-1175 -350 -357 -379 308 0
-1175 -350 -357 -380 309 0
-1175 -350 -357 -381 310 0
-1175 -350 -358 -373 266 0
-1175 -350 -358 -374 287 0
-1175 -350 -358 -375 302 0
-1175 -350 -358 -378 317 0
-1175 -350 -358 -379 318 0
-1175 -350 -358 -380 319 0
-1175 -350 -358 -381 320 0
-1175 -350 -360 -373 271 0
-1175 -350 -360 -374 292 0
-1175 -350 -360 -375 307 0
-1175 -350 -360 -376 317 0
-1175 -350 -360 -379 327 0
-1175 -350 -360 -380 328 0
-1175 -350 -360 -381 329 0
-1175 -350 -361 -373 272 0
-1175 -350 -361 -374 293 0
-1175 -350 -361 -375 308 0
-1175 -350 -361 -376 318 0
-1175 -350 -361 -378 327 0
-1175 -350 -361 -380 330 0
-1175 -350 -361 -381 331 0
-1175 -350 -362 -373 273 0
-1175 -350 -362 -374 294 0
-1175 -350 -362 -375 309 0
-1175 -350 -362 -376 319 0
-1175 -350 -362 -378 328 0
-1175 -350 -362 -379 330 0
-1175 -350 -362 -381 332 0
-1175 -350 -363 -373 274 0
-1175 -350 -363 -374 295 0
-1175 -350 -363 -375 310 0
-1175 -350 -363 -376 320 0
-1175 -350 -363 -378 329 0
-1175 -350 -363 -379 331 0
-1175 -350 -363 -380 332 0
-1175 -351 -355 -374 256 0
-1175 -351 -355 -375 262 0
-1175 -351 -355 -376 267 0
-1175 -351 -355 -377 271 0
-1175 -351 -355 -379 275 0
-1175 -351 -355 -380 276 0
-1175 -351 -355 -381 277 0
-1175 -351 -356 -373 256 0
-1175 -351 -356 -375 283 0
-1175 -351 -356 -376 288 0
-1175 -351 -356 -377 292 0
-1175 -351 -356 -379 296 0
-1175 -351 -356 -380 297 0
-1175 -351 -356 -381 298 0
-1175 -351 -357 -373 262 0
-1175 -351 -357 -374 283 0
-1175 -351 -357 -376 303 0
-1175 -351 -357 -377 307 0
-1175 -351 -357 -379 311 0
-1175 -351 -357 -380 312 0
-1175 -351 -357 -381 313 0
-1175 -351 -358 -373 267 0
-1175 -351 -358 -374 288 0
-1175 -351 -358 -375 303 0
-1175 -351 -358 -377 317 0
-1175 -351 -358 -379 321 0
-1175 -351 -358 -380 322 0
-1175 -351 -358 -381 323 0
-1175 -351 -359 -373 271 0
-1175 -351 -359 -374 292 0
-1175 -351 -359 -375 307 0
-1175 -351 -359 -376 317 0
-1175 -351 -359 -379 327 0
-1175 -351 -359 -380 328 0
-1175 -351 -359 -381 329 0
-1175 -351 -361 -373 275 0
-1175 -351 -361 -374 296 0
-1175 -351 -361 -375 311 0
-1175 -351 -361 -376 321 0
-1175 -351 -361 -377 327 0
-1175 -351 -361 -380 333 0
-1175 -351 -361 -381 334 0
-1175 -351 -362 -373 276 0
-1175 -351 -362 -374 297 0
-1175 -351 -362 -375 312 0
-1175 -351 -362 -376 322 0
-1175 -351 -362 -377 328 0
-1175 -351 -362 -379 333 0
-1175 -351 -362 -381 335 0
-1175 -351 -363 -373 277 0
-1175 -351 -363 -374 298 0
-1175 -351 -363 -375 313 0
-1175 -351 -363 -376 323 0
-1175 -351 -363 -377 329 0
-1175 -351 -363 -379 334 0
-1175 -351 -363 -380 335 0
-1175 -352 -355 -374 257 0
-1175 -352 -355 -375 263 0
-1175 -352 -355 -376 268 0
-1175 -352 -355 -377 272 0
-1175 -352 -355 -378 275 0
-1175 -352 -355 -380 278 0
-1175 -352 -355 -381 279 0
-1175 -352 -356 -373 257 0
-1175 -352 -356 -375 284 0
-1175 -352 -356 -376 289 0
-1175 -352 -356 -377 293 0
-1175 -352 -356 -378 296 0
-1175 -352 -356 -380 299 0
-1175 -352 -356 -381 300 0
-1175 -352 -357 -373 263 0
-1175 -352 -357 -374 284 0
-1175 -352 -357 -376 304 0
-1175 -352 -357 -377 308 0
-1175 -352 -357 -378 311 0
-1175 -352 -357 -380 314 0
-1175 -352 -357 -381 315 0
-1175 -352 -358 -373 268 0
-1175 -352 -358 -374 289 0
-1175 -352 -358 -375 304 0
-1175 -352 -358 -377 318 0
-1175 -352 -358 -378 321 0
-1175 -352 -358 -380 324 0
-1175 -352 -358 -381 325 0
-1175 -352 -359 -373 272 0
-1175 -352 -359 -374 293 0
-1175 -352 -359 -375 308 0
-1175 -352 -359 -376 318 0
-1175 -352 -359 -378 327 0
-1175 -352 -359 -380 330 0
-1175 -352 -359 -381 331 0
-1175 -352 -360 -373 275 0
-1175 -352 -360 -374 296 0
-1175 -352 -360 -375 311 0
-1175 -352 -360 -376 321 0
-1175 -352 -360 -377 327 0
-1175 -352 -360 -380 333 0
-1175 -352 -360 -381 334 0
-1175 -352 -362 -373 278 0
-1175 -352 -362 -374 299 0
-1175 -352 -362 -375 314 0
-1175 -352 -362 -376 324 0
-1175 -352 -362 -377 330 0
-1175 -352 -362 -378 333 0
-1175 -352 -362 -381 336 0
-1175 -352 -363 -373 279 0
-1175 -352 -363 -374 300 0
-1175 -352 -363 -375 315 0
-1175 -352 -363 -376 325 0
-1175 -352 -363 -377 331 0
-1175 -352 -363 -378 334 0
-1175 -352 -363 -380 336 0
-1175 -353 -355 -374 258 0
-1175 -353 -355 -375 264 0
-1175 -353 -355 -376 269 0
-1175 -353 -355 -377 273 0
-1175 -353 -355 -378 276 0
-1175 -353 -355 -379 278 0
-1175 -353 -355 -381 280 0
-1175 -353 -356 -373 258 0
-1175 -353 -356 -375 285 0
-1175 -353 -356 -376 290 0
-1175 -353 -356 -377 294 0
-1175 -353 -356 -378 297 0
-1175 -353 -356 -379 299 0
-1175 -353 -356 -381 301 0
-1175 -353 -357 -373 264 0
-1175 -353 -357 -374 285 0
-1175 -353 -357 -376 305 0
-1175 -353 -357 -377 309 0
-1175 -353 -357 -378 312 0
-1175 -353 -357 -379 314 0
-1175 -353 -357 -381 316 0
-1175 -353 -358 -373 269 0
-1175 -353 -358 -374 290 0
-1175 -353 -358 -375 305 0
-1175 -353 -358 -377 319 0
-1175 -353 -358 -378 322 0
-1175 -353 -358 -379 324 0
-1175 -353 -358 -381 326 0
-1175 -353 -359 -373 273 0
-1175 -353 -359 -374 294 0
-1175 -353 -359 -375 309 0
-1175 -353 -359 -376 319 0
-1175 -353 -359 -378 328 0
-1175 -353 -359 -379 330 0
-1175 -353 -359 -381 332 0
-1175 -353 -360 -373 276 0
-1175 -353 -360 -374 297 0
-1175 -353 -360 -375 312 0
-1175 -353 -360 -376 322 0
-1175 -353 -360 -377 328 0
-1175 -353 -360 -379 333 0
-1175 -353 -360 -381 335 0
-1175 -353 -361 -373 278 0
-1175 -353 -361 -374 299 0
-1175 -353 -361 -375 314 0
-1175 -353 -361 -376 324 0
-1175 -353 -361 -377 330 0
-1175 -353 -361 -378 333 0
-1175 -353 -361 -381 336 0
-1175 -353 -363 -373 280 0
-1175 -353 -363 -374 301 0
-1175 -353 -363 -375 316 0
-1175 -353 -363 -376 326 0
-1175 -353 -363 -377 332 0
-1175 -353 -363 -378 335 0
-1175 -353 -363 -379 336 0
-1175 -354 -355 -374 259 0
-1175 -354 -355 -375 265 0
-1175 -354 -355 -376 270 0
-1175 -354 -355 -377 274 0
-1175 -354 -355 -378 277 0
-1175 -354 -355 -379 279 0
-1175 -354 -355 -380 280 0
-1175 -354 -356 -373 259 0
-1175 -354 -356 -375 286 0
-1175 -354 -356 -376 291 0
-1175 -354 -356 -377 295 0
-1175 -354 -356 -378 298 0
-1175 -354 -356 -379 300 0
-1175 -354 -356 -380 301 0
-1175 -354 -357 -373 265 0
-1175 -354 -357 -374 286 0
-1175 -354 -357 -376 306 0
-1175 -354 -357 -377 310 0
-1175 -354 -357 -378 313 0
-1175 -354 -357 -379 315 0
-1175 -354 -357 -380 316 0
-1175 -354 -358 -373 270 0
-1175 -354 -358 -374 291 0
-1175 -354 -358 -375 306 0
-1175 -354 -358 -377 320 0
-1175 -354 -358 -378 323 0
-1175 -354 -358 -379 325 0
-1175 -354 -358 -380 326 0
-1175 -354 -359 -373 274 0
-1175 -354 -359 -374 295 0
-1175 -354 -359 -375 310 0
-1175 -354 -359 -376 320 0
-1175 -354 -359 -378 329 0
-1175 -354 -359 -379 331 0
-1175 -354 -359 -380 332 0
-1175 -354 -360 -373 277 0
-1175 -354 -360 -374 298 0
-1175 -354 -360 -375 313 0
-1175 -354 -360 -376 323 0
-1175 -354 -360 -377 329 0
-1175 -354 -360 -379 334 0
-1175 -354 -360 -380 335 0
-1175 -354 -361 -373 279 0
-1175 -354 -361 -374 300 0
-1175 -354 -361 -375 315 0
-1175 -354 -361 -376 325 0
-1175 -354 -361 -377 331 0
-1175 -354 -361 -378 334 0
-1175 -354 -361 -380 336 0
-1175 -354 -362 -373 280 0
-1175 -354 -362 -374 301 0
-1175 -354 -362 -375 316 0
-1175 -354 -362 -376 326 0
-1175 -354 -362 -377 332 0
-1175 -354 -362 -378 335 0
-1175 -354 -362 -379 336 0
1175 0
-337 -356 -384 1176 0
-337 -356 -385 1177 0
-337 -356 -386 1178 0
-337 -356 -387 1179 0
-337 -356 -388 1180 0
-337 -356 -389 1181 0
-337 -356 -390 1182 0
-337 -357 -383 1176 0
-337 -357 -385 1183 0
-337 -357 -386 1184 0
-337 -357 -387 1185 0
-337 -357 -388 1186 0
-337 -357 -389 1187 0
-337 -357 -390 1188 0
-337 -358 -383 1177 0
-337 -358 -384 1183 0
-337 -358 -386 1189 0
-337 -358 -387 1190 0
-337 -358 -388 1191 0
-337 -358 -389 1192 0
-337 -358 -390 1193 0
-337 -359 -383 1178 0
-337 -359 -384 1184 0
-337 -359 -385 1189 0
-337 -359 -387 1194 0
-337 -359 -388 1195 0
-337 -359 -389 1196 0
-337 -359 -390 1197 0
-337 -360 -383 1179 0
-337 -360 -384 1185 0
-337 -360 -385 1190 0
-337 -360 -386 1194 0
-337 -360 -388 1198 0
-337 -360 -389 1199 0
-337 -360 -390 1200 0
-337 -361 -383 1180 0
-337 -361 -384 1186 0
-337 -361 -385 1191 0
-337 -361 -386 1195 0
-337 -361 -387 1198 0
-337 -361 -389 1201 0
-337 -361 -390 1202 0
-337 -362 -383 1181 0
-337 -362 -384 1187 0
-337 -362 -385 1192 0
-337 -362 -386 1196 0
-337 -362 -387 1199 0
-337 -362 -388 1201 0
-337 -362 -390 1203 0
-337 -363 -383 1182 0
-337 -363 -384 1188 0
-337 -363 -385 1193 0
-337 -363 -386 1197 0
-337 -363 -387 1200 0
-337 -363 -388 1202 0
-337 -363 -389 1203 0
-338 -355 -384 1176 0
-338 -355 -385 1177 0
-338 -355 -386 1178 0
-338 -355 -387 1179 0
-338 -355 -388 1180 0
-338 -355 -389 1181 0
-338 -355 -390 1182 0
-338 -357 -382 1176 0
-338 -357 -385 1204 0
-338 -357 -386 1205 0
-338 -357 -387 1206 0
-338 -357 -388 1207 0
-338 -357 -389 1208 0
-338 -357 -390 1209 0
-338 -358 -382 1177 0
-338 -358 -384 1204 0
-338 -358 -386 1210 0
-338 -358 -387 1211 0
-338 -358 -388 1212 0
-338 -358 -389 1213 0
-338 -358 -390 1214 0
-338 -359 -382 1178 0
-338 -359 -384 1205 0
-338 -359 -385 1210 0
-338 -359 -387 1215 0
-338 -359 -388 1216 0
-338 -359 -389 1217 0
-338 -359 -390 1218 0
-338 -360 -382 1179 0
-338 -360 -384 1206 0
-338 -360 -385 1211 0
-338 -360 -386 1215 0
-338 -360 -388 1219 0
-338 -360 -389 1220 0
-338 -360 -390 1221 0
-338 -361 -382 1180 0
-338 -361 -384 1207 0
-338 -361 -385 1212 0
-338 -361 -386 1216 0
-338 -361 -387 1219 0
-338 -361 -389 1222 0
-338 -361 -390 1223 0
-338 -362 -382 1181 0
-338 -362 -384 1208 0
-338 -362 -385 1213 0
-338 -362 -386 1217 0
-338 -362 -387 1220 0
-338 -362 -388 1222 0
-338 -362 -390 1224 0
-338 -363 -382 1182 0
-338 -363 -384 1209 0
-338 -363 -385 1214 0
-338 -363 -386 1218 0
-338 -363 -387 1221 0
-338 -363 -388 1223 0
-338 -363 -389 1224 0
-339 -355 -383 1176 0
-339 -355 -385 1183 0
-339 -355 -386 1184 0
-339 -355 -387 1185 0
-339 -355 -388 1186 0
-339 -355 -389 1187 0
-339 -355 -390 1188 0
-339 -356 -382 1176 0
-339 -356 -385 1204 0
-339 -356 -386 1205 0
-339 -356 -387 1206 0
-339 -356 -388 1207 0
-339 -356 -389 1208 0
-339 -356 -390 1209 0
-339 -358 -382 1183 0
-339 -358 -383 1204 0
-339 -358 -386 1225 0
-339 -358 -387 1226 0
-339 -358 -388 1227 0
-339 -358 -389 1228 0
-339 -358 -390 1229 0
-339 -359 -382 1184 0
-339 -359 -383 1205 0
-339 -359 -385 1225 0
-339 -359 -387 1230 0
-339 -359 -388 1231 0
-339 -359 -389 1232 0
-339 -359 -390 1233 0
-339 -360 -382 1185 0
-339 -360 -383 1206 0
-339 -360 -385 1226 0
-339 -360 -386 1230 0
-339 -360 -388 1234 0
-339 -360 -389 1235 0
-339 -360 -390 1236 0
-339 -361 -382 1186 0
-339 -361 -383 1207 0
-339 -361 -385 1227 0
-339 -361 -386 1231 0
-339 -361 -387 1234 0
-339 -361 -389 1237 0
-339 -361 -390 1238 0
-339 -362 -382 1187 0
-339 -362 -383 1208 0
-339 -362 -385 1228 0
-339 -362 -386 1232 0
-339 -362 -387 1235 0
-339 -362 -388 1237 0
-339 -362 -390 1239 0
-339 -363 -382 1188 0
-339 -363 -383 1209 0
-339 -363 -385 1229 0
-339 -363 -386 1233 0
-339 -363 -387 1236 0
-339 -363 -388 1238 0
-339 -363 -389 1239 0
-340 -355 -383 1177 0
-340 -355 -384 1183 0
-340 -355 -386 1189 0
-340 -355 -387 1190 0
-340 -355 -388 1191 0
-340 -355 -389 1192 0
-340 -355 -390 1193 0
-340 -356 -382 1177 0
-340 -356 -384 1204 0
-340 -356 -386 1210 0
-340 -356 -387 1211 0
-340 -356 -388 1212 0
-340 -356 -389 1213 0
-340 -356 -390 1214 0
-340 -357 -382 1183 0
-340 -357 -383 1204 0
-340 -357 -386 1225 0
-340 -357 -387 1226 0
-340 -357 -388 1227 0
-340 -357 -389 1228 0
-340 -357 -390 1229 0
-340 -359 -382 1189 0
-340 -359 -383 1210 0
-340 -359 -384 1225 0
-340 -359 -387 1240 0
-340 -359 -388 1241 0
-340 -359 -389 1242 0
-340 -359 -390 1243 0
-340 -360 -382 1190 0
-340 -360 -383 1211 0
-340 -360 -384 1226 0
-340 -360 -386 1240 0
-340 -360 -388 1244 0
-340 -360 -389 1245 0
-340 -360 -390 1246 0
-340 -361 -382 1191 0
-340 -361 -383 1212 0
-340 -361 -384 1227 0
-340 -361 -386 1241 0
-340 -361 -387 1244 0
-340 -361 -389 1247 0
-340 -361 -390 1248 0
-340 -362 -382 1192 0
-340 -362 -383 1213 0
-340 -362 -384 1228 0
-340 -362 -386 1242 0
-340 -362 -387 1245 0
-340 -362 -388 1247 0
-340 -362 -390 1249 0
-340 -363 -382 1193 0
-340 -363 -383 1214 0
-340 -363 -384 1229 0
-340 -363 -386 1243 0
-340 -363 -387 1246 0
-340 -363 -388 1248 0
-340 -363 -389 1249 0
-341 -355 -383 1178 0
-341 -355 -384 1184 0
-341 -355 -385 1189 0
-341 -355 -387 1194 0
-341 -355 -388 1195 0
-341 -355 -389 1196 0
-341 -355 -390 1197 0
-341 -356 -382 1178 0
-341 -356 -384 1205 0
-341 -356 -385 1210 0
-341 -356 -387 1215 0
-341 -356 -388 1216 0
-341 -356 -389 1217 0
-341 -356 -390 1218 0
-341 -357 -382 1184 0
-341 -357 -383 1205 0
-341 -357 -385 1225 0
-341 -357 -387 1230 0
-341 -357 -388 1231 0
-341 -357 -389 1232 0
-341 -357 -390 1233 0
-341 -358 -382 1189 0
-341 -358 -383 1210 0
-341 -358 -384 1225 0
-341 -358 -387 1240 0
-341 -358 -388 1241 0
-341 -358 -389 1242 0
-341 -358 -390 1243 0
-341 -360 -382 1194 0
-341 -360 -383 1215 0
-341 -360 -384 1230 0
-341 -360 -385 1240 0
-341 -360 -388 1250 0
-341 -360 -389 1251 0
-341 -360 -390 1252 0
-341 -361 -382 1195 0
-341 -361 -383 1216 0
-341 -361 -384 1231 0
-341 -361 -385 1241 0
-341 -361 -387 1250 0
-341 -361 -389 1253 0
-341 -361 -390 1254 0
-341 -362 -382 1196 0
-341 -362 -383 1217 0
-341 -362 -384 1232 0
-341 -362 -385 1242 0
-341 -362 -387 1251 0
-341 -362 -388 1253 0
-341 -362 -390 1255 0
-341 -363 -382 1197 0
-341 -363 -383 1218 0
-341 -363 -384 1233 0
-341 -363 -385 1243 0
-341 -363 -387 1252 0
-341 -363 -388 1254 0
-341 -363 -389 1255 0
-342 -355 -383 1179 0
-342 -355 -384 1185 0
-342 -355 -385 1190 0
-342 -355 -386 1194 0
-342 -355 -388 1198 0
-342 -355 -389 1199 0
-342 -355 -390 1200 0
-342 -356 -382 1179 0
-342 -356 -384 1206 0
-342 -356 -385 1211 0
-342 -356 -386 1215 0
-342 -356 -388 1219 0
-342 -356 -389 1220 0
-342 -356 -390 1221 0
-342 -357 -382 1185 0
-342 -357 -383 1206 0
-342 -357 -385 1226 0
-342 -357 -386 1230 0
-342 -357 -388 1234 0
-342 -357 -389 1235 0
-342 -357 -390 1236 0
-342 -358 -382 1190 0
-342 -358 -383 1211 0
-342 -358 -384 1226 0
-342 -358 -386 1240 0
-342 -358 -388 1244 0
-342 -358 -389 1245 0
-342 -358 -390 1246 0
-342 -359 -382 1194 0
-342 -359 -383 1215 0
-342 -359 -384 1230 0
-342 -359 -385 1240 0
-342 -359 -388 1250 0
-342 -359 -389 1251 0
-342 -359 -390 1252 0
-342 -361 -382 1198 0
-342 -361 -383 1219 0
-342 -361 -384 1234 0
-342 -361 -385 1244 0
-342 -361 -386 1250 0
-342 -361 -389 1256 0
-342 -361 -390 1257 0
-342 -362 -382 1199 0
-342 -362 -383 1220 0
-342 -362 -384 1235 0
-342 -362 -385 1245 0
-342 -362 -386 1251 0
-342 -362 -388 1256 0
-342 -362 -390 1258 0
-342 -363 -382 1200 0
-342 -363 -383 1221 0
-342 -363 -384 1236 0
-342 -363 -385 1246 0
-342 -363 -386 1252 0
-342 -363 -388 1257 0
-342 -363 -389 1258 0
-343 -355 -383 1180 0
-343 -355 -384 1186 0
-343 -355 -385 1191 0
-343 -355 -386 1195 0
-343 -355 -387 1198 0
-343 -355 -389 1201 0
-343 -355 -390 1202 0
-343 -356 -382 1180 0
-343 -356 -384 1207 0
-343 -356 -385 1212 0
-343 -356 -386 1216 0
-343 -356 -387 1219 0
-343 -356 -389 1222 0
-343 -356 -390 1223 0
-343 -357 -382 1186 0
-343 -357 -383 1207 0
-343 -357 -385 1227 0
-343 -357 -386 1231 0
-343 -357 -387 1234 0
-343 -357 -389 1237 0
-343 -357 -390 1238 0
-343 -358 -382 1191 0
-343 -358 -383 1212 0
-343 -358 -384 1227 0
-343 -358 -386 1241 0
-343 -358 -387 1244 0
-343 -358 -389 1247 0
-343 -358 -390 1248 0
-343 -359 -382 1195 0
-343 -359 -383 1216 0
-343 -359 -384 1231 0
-343 -359 -385 1241 0
-343 -359 -387 1250 0
-343 -359 -389 1253 0
-343 -359 -390 1254 0
-343 -360 -382 1198 0
-343 -360 -383 1219 0
-343 -360 -384 1234 0
-343 -360 -385 1244 0
-343 -360 -386 1250 0
-343 -360 -389 1256 0
-343 -360 -390 1257 0
-343 -362 -382 1201 0
-343 -362 -383 1222 0
-343 -362 -384 1237 0
-343 -362 -385 1247 0
-343 -362 -386 1253 0
-343 -362 -387 1256 0
-343 -362 -390 1259 0
-343 -363 -382 1202 0
-343 -363 -383 1223 0
-343 -363 -384 1238 0
-343 -363 -385 1248 0
-343 -363 -386 1254 0
-343 -363 -387 1257 0
-343 -363 -389 1259 0
-344 -355 -383 1181 0
-344 -355 -384 1187 0
-344 -355 -385 1192 0
-344 -355 -386 1196 0
-344 -355 -387 1199 0
-344 -355 -388 1201 0
-344 -355 -390 1203 0
-344 -356 -382 1181 0
-344 -356 -384 1208 0
-344 -356 -385 1213 0
-344 -356 -386 1217 0
-344 -356 -387 1220 0
-344 -356 -388 1222 0
-344 -356 -390 1224 0
-344 -357 -382 1187 0
-344 -357 -383 1208 0
-344 -357 -385 1228 0
-344 -357 -386 1232 0
-344 -357 -387 1235 0
-344 -357 -388 1237 0
-344 -357 -390 1239 0
-344 -358 -382 1192 0
-344 -358 -383 1213 0
-344 -358 -384 1228 0
-344 -358 -386 1242 0
-344 -358 -387 1245 0
-344 -358 -388 1247 0
-344 -358 -390 1249 0
-344 -359 -382 1196 0
-344 -359 -383 1217 0
-344 -359 -384 1232 0
-344 -359 -385 1242 0
-344 -359 -387 1251 0
-344 -359 -388 1253 0
-344 -359 -390 1255 0
-344 -360 -382 1199 0
-344 -360 -383 1220 0
-344 -360 -384 1235 0
-344 -360 -385 1245 0
-344 -360 -386 1251 0
-344 -360 -388 1256 0
-344 -360 -390 1258 0
-344 -361 -382 1201 0
-344 -361 -383 1222 0
-344 -361 -384 1237 0
-344 -361 -385 1247 0
-344 -361 -386 1253 0
-344 -361 -387 1256 0
-344 -361 -390 1259 0
-344 -363 -382 1203 0
-344 -363 -383 1224 0
-344 -363 -384 1239 0
-344 -363 -385 1249 0
-344 -363 -386 1255 0
-344 -363 -387 1258 0
-344 -363 -388 1259 0
-345 -355 -383 1182 0
-345 -355 -384 1188 0
-345 -355 -385 1193 0
-345 -355 -386 1197 0
-345 -355 -387 1200 0
-345 -355 -388 1202 0
-345 -355 -389 1203 0
-345 -356 -382 1182 0
-345 -356 -384 1209 0
-345 -356 -385 1214 0
-345 -356 -386 1218 0
-345 -356 -387 1221 0
-345 -356 -388 1223 0
-345 -356 -389 1224 0
-345 -357 -382 1188 0
-345 -357 -383 1209 0
-345 -357 -385 1229 0
-345 -357 -386 1233 0
-345 -357 -387 1236 0
-345 -357 -388 1238 0
-345 -357 -389 1239 0
-345 -358 -382 1193 0
-345 -358 -383 1214 0
-345 -358 -384 1229 0
-345 -358 -386 1243 0
-345 -358 -387 1246 0
-345 -358 -388 1248 0
-345 -358 -389 1249 0
-345 -359 -382 1197 0
-345 -359 -383 1218 0
-345 -359 -384 1233 0
-345 -359 -385 1243 0
-345 -359 -387 1252 0
-345 -359 -388 1254 0
-345 -359 -389 1255 0
-345 -360 -382 1200 0
-345 -360 -383 1221 0
-345 -360 -384 1236 0
-345 -360 -385 1246 0
-345 -360 -386 1252 0
-345 -360 -388 1257 0
-345 -360 -389 1258 0
-345 -361 -382 1202 0
-345 -361 -383 1223 0
-345 -361 -384 1238 0
-345 -361 -385 1248 0
-345 -361 -386 1254 0
-345 -361 -387 1257 0
-345 -361 -389 1259 0
-345 -362 -382 1203 0
-345 -362 -383 1224 0
-345 -362 -384 1239 0
-345 -362 -385 1249 0
-345 -362 -386 1255 0
-345 -362 -387 1258 0
-345 -362 -388 1259 0
-1260 -337 -356 -384 253 0
-1260 -337 -356 -385 254 0
-1260 -337 -356 -386 255 0
-1260 -337 -356 -387 256 0
-1260 -337 -356 -388 257 0
-1260 -337 -356 -389 258 0
-1260 -337 -356 -390 259 0
-1260 -337 -357 -383 253 0
-1260 -337 -357 -385 260 0
-1260 -337 -357 -386 261 0
-1260 -337 -357 -387 262 0
-1260 -337 -357 -388 263 0
-1260 -337 -357 -389 264 0
-1260 -337 -357 -390 265 0
-1260 -337 -358 -383 254 0
-1260 -337 -358 -384 260 0
-1260 -337 -358 -386 266 0
-1260 -337 -358 -387 267 0
-1260 -337 -358 -388 268 0
-1260 -337 -358 -389 269 0
-1260 -337 -358 -390 270 0
-1260 -337 -359 -383 255 0
-1260 -337 -359 -384 261 0
-1260 -337 -359 -385 266 0
-1260 -337 -359 -387 271 0
-1260 -337 -359 -388 272 0
-1260 -337 -359 -389 273 0
-1260 -337 -359 -390 274 0
-1260 -337 -360 -383 256 0
-1260 -337 -360 -384 262 0
-1260 -337 -360 -385 267 0
-1260 -337 -360 -386 271 0
-1260 -337 -360 -388 275 0
-1260 -337 -360 -389 276 0
-1260 -337 -360 -390 277 0
-1260 -337 -361 -383 257 0
-1260 -337 -361 -384 263 0
-1260 -337 -361 -385 268 0
-1260 -337 -361 -386 272 0
-1260 -337 -361 -387 275 0
-1260 -337 -361 -389 278 0
-1260 -337 -361 -390 279 0
-1260 -337 -362 -383 258 0
-1260 -337 -362 -384 264 0
-1260 -337 -362 -385 269 0
-1260 -337 -362 -386 273 0
-1260 -337 -362 -387 276 0
-1260 -337 -362 -388 278 0
-1260 -337 -362 -390 280 0
-1260 -337 -363 -383 259 0
-1260 -337 -363 -384 265 0
-1260 -337 -363 -385 270 0
-1260 -337 -363 -386 274 0
-1260 -337 -363 -387 277 0
-1260 -337 -363 -388 279 0
-1260 -337 -363 -389 280 0
-1260 -338 -355 -384 253 0
-1260 -338 -355 -385 254 0
-1260 -338 -355 -386 255 0
-1260 -338 -355 -387 256 0
-1260 -338 -355 -388 257 0
-1260 -338 -355 -389 258 0
-1260 -338 -355 -390 259 0
-1260 -338 -357 -382 253 0
-1260 -338 -357 -385 281 0
-1260 -338 -357 -386 282 0
-1260 -338 -357 -387 283 0
-1260 -338 -357 -388 284 0
-1260 -338 -357 -389 285 0
-1260 -338 -357 -390 286 0
-1260 -338 -358 -382 254 0
-1260 -338 -358 -384 281 0
-1260 -338 -358 -386 287 0
-1260 -338 -358 -387 288 0
-1260 -338 -358 -388 289 0
-1260 -338 -358 -389 290 0
-1260 -338 -358 -390 291 0
-1260 -338 -359 -382 255 0
-1260 -338 -359 -384 282 0
-1260 -338 -359 -385 287 0
-1260 -338 -359 -387 292 0
-1260 -338 -359 -388 293 0
-1260 -338 -359 -389 294 0
-1260 -338 -359 -390 295 0
-1260 -338 -360 -382 256 0
-1260 -338 -360 -384 283 0
-1260 -338 -360 -385 288 0
-1260 -338 -360 -386 292 0
-1260 -338 -360 -388 296 0
-1260 -338 -360 -389 297 0
-1260 -338 -360 -390 298 0
-1260 -338 -361 -382 257 0
-1260 -338 -361 -384 284 0
-1260 -338 -361 -385 289 0
-1260 -338 -361 -386 293 0
-1260 -338 -361 -387 296 0
-1260 -338 -361 -389 299 0
-1260 -338 -361 -390 300 0
-1260 -338 -362 -382 258 0
-1260 -338 -362 -384 285 0
-1260 -338 -362 -385 290 0
-1260 -338 -362 -386 294 0
-1260 -338 -362 -387 297 0
-1260 -338 -362 -388 299 0
-1260 -338 -362 -390 301 0
-1260 -338 -363 -382 259 0
-1260 -338 -363 -384 286 0
-1260 -338 -363 -385 291 0
-1260 -338 -363 -386 295 0
-1260 -338 -363 -387 298 0
-1260 -338 -363 -388 300 0
-1260 -338 -363 -389 301 0
-1260 -339 -355 -383 253 0
-1260 -339 -355 -385 260 0
-1260 -339 -355 -386 261 0
-1260 -339 -355 -387 262 0
-1260 -339 -355 -388 263 0
-1260 -339 -355 -389 264 0
-1260 -339 -355 -390 265 0
-1260 -339 -356 -382 253 0
-1260 -339 -356 -385 281 0
-1260 -339 -356 -386 282 0
-1260 -339 -356 -387 283 0
-1260 -339 -356 -388 284 0
-1260 -339 -356 -389 285 0
-1260 -339 -356 -390 286 0
-1260 -339 -358 -382 260 0
-1260 -339 -358 -383 281 0
-1260 -339 -358 -386 302 0
-1260 -339 -358 -387 303 0
-1260 -339 -358 -388 304 0
-1260 -339 -358 -389 305 0
-1260 -339 -358 -390 306 0
-1260 -339 -359 -382 261 0
-1260 -339 -359 -383 282 0
-1260 -339 -359 -385 302 0
-1260 -339 -359 -387 307 0
-1260 -339 -359 -388 308 0
-1260 -339 -359 -389 309 0
-1260 -339 -359 -390 310 0
-1260 -339 -360 -382 262 0
-1260 -339 -360 -383 283 0
-1260 -339 -360 -385 303 0
-1260 -339 -360 -386 307 0
-1260 -339 -360 -388 311 0
-1260 -339 -360 -389 312 0
-1260 -339 -360 -390 313 0
-1260 -339 -361 -382 263 0
-1260 -339 -361 -383 284 0
-1260 -339 -361 -385 304 0
-1260 -339 -361 -386 308 0
-1260 -339 -361 -387 311 0
-1260 -339 -361 -389 314 0
-1260 -339 -361 -390 315 0
-1260 -339 -362 -382 264 0
-1260 -339 -362 -383 285 0
-1260 -339 -362 -385 305 0
-1260 -339 -362 -386 309 0
-1260 -339 -362 -387 312 0
-1260 -339 -362 -388 314 0
-1260 -339 -362 -390 316 0
-1260 -339 -363 -382 265 0
-1260 -339 -363 -383 286 0
-1260 -339 -363 -385 306 0
-1260 -339 -363 -386 310 0
-1260 -339 -363 -387 313 0
-1260 -339 -363 -388 315 0
-1260 -339 -363 -389 316 0
-1260 -340 -355 -383 254 0
-1260 -340 -355 -384 260 0
-1260 -340 -355 -386 266 0
-1260 -340 -355 -387 267 0
-1260 -340 -355 -388 268 0
-1260 -340 -355 -389 269 0
-1260 -340 -355 -390 270 0
-1260 -340 -356 -382 254 0
-1260 -340 -356 -384 281 0
-1260 -340 -356 -386 287 0
-1260 -340 -356 -387 288 0
-1260 -340 -356 -388 289 0
-1260 -340 -356 -389 290 0
-1260 -340 -356 -390 291 0
-1260 -340 -357 -382 260 0
-1260 -340 -357 -383 281 0
-1260 -340 -357 -386 302 0
-1260 -340 -357 -387 303 0
-1260 -340 -357 -388 304 0
-1260 -340 -357 -389 305 0
-1260 -340 -357 -390 306 0
-1260 -340 -359 -382 266 0
-1260 -340 -359 -383 287 0
-1260 -340 -359 -384 302 0
-1260 -340 -359 -387 317 0
-1260 -340 -359 -388 318 0
-1260 -340 -359 -389 319 0
-1260 -340 -359 -390 320 0
-1260 -340 -360 -382 267 0
-1260 -340 -360 -383 288 0
-1260 -340 -360 -384 303 0
-1260 -340 -360 -386 317 0
-1260 -340 -360 -388 321 0
-1260 -340 -360 -389 322 0
-1260 -340 -360 -390 323 0
-1260 -340 -361 -382 268 0
-1260 -340 -361 -383 289 0
-1260 -340 -361 -384 304 0
-1260 -340 -361 -386 318 0
-1260 -340 -361 -387 321 0
-1260 -340 -361 -389 324 0
-1260 -340 -361 -390 325 0
-1260 -340 -362 -382 269 0
-1260 -340 -362 -383 290 0
-1260 -340 -362 -384 305 0
-1260 -340 -362 -386 319 0
-1260 -340 -362 -387 322 0
-1260 -340 -362 -388 324 0
-1260 -340 -362 -390 326 0
-1260 -340 -363 -382 270 0
-1260 -340 -363 -383 291 0
-1260 -340 -363 -384 306 0
-1260 -340 -363 -386 320 0
-1260 -340 -363 -387 323 0
-1260 -340 -363 -388 325 0
-1260 -340 -363 -389 326 0
-1260 -341 -355 -383 255 0
-1260 -341 -355 -384 261 0
-1260 -341 -355 -385 266 0
-1260 -341 -355 -387 271 0
-1260 -341 -355 -388 272 0
-1260 -341 -355 -389 273 0
-1260 -341 -355 -390 274 0
-1260 -341 -356 -382 255 0
-1260 -341 -356 -384 282 0
-1260 -341 -356 -385 287 0
-1260 -341 -356 -387 292 0
-1260 -341 -356 -388 293 0
-1260 -341 -356 -389 294 0
-1260 -341 -356 -390 295 0
-1260 -341 -357 -382 261 0
-1260 -341 -357 -383 282 0
-1260 -341 -357 -385 302 0
-1260 -341 -357 -387 307 0
-1260 -341 -357 -388 308 0
-1260 -341 -357 -389 309 0
-1260 -341 -357 -390 310 0
-1260 -341 -358 -382 266 0
-1260 -341 -358 -383 287 0
-1260 -341 -358 -384 302 0
-1260 -341 -358 -387 317 0
-1260 -341 -358 -388 318 0
-1260 -341 -358 -389 319 0
-1260 -341 -358 -390 320 0
-1260 -341 -360 -382 271 0
-1260 -341 -360 -383 292 0
-1260 -341 -360 -384 307 0
-1260 -341 -360 -385 317 0
-1260 -341 -360 -388 327 0
-1260 -341 -360 -389 328 0
-1260 -341 -360 -390 329 0
-1260 -341 -361 -382 272 0
-1260 -341 -361 -383 293 0
-1260 -341 -361 -384 308 0
-1260 -341 -361 -385 318 0
-1260 -341 -361 -387 327 0
-1260 -341 -361 -389 330 0
-1260 -341 -361 -390 331 0
-1260 -341 -362 -382 273 0
-1260 -341 -362 -383 294 0
-1260 -341 -362 -384 309 0
-1260 -341 -362 -385 319 0
-1260 -341 -362 -387 328 0
-1260 -341 -362 -388 330 0
-1260 -341 -362 -390 332 0
-1260 -341 -363 -382 274 0
-1260 -341 -363 -383 295 0
-1260 -341 -363 -384 310 0
-1260 -341 -363 -385 320 0
-1260 -341 -363 -387 329 0
-1260 -341 -363 -388 331 0
-1260 -341 -363 -389 332 0
-1260 -342 -355 -383 256 0
-1260 -342 -355 -384 262 0
-1260 -342 -355 -385 267 0
-1260 -342 -355 -386 271 0
-1260 -342 -355 -388 275 0
-1260 -342 -355 -389 276 0
-1260 -342 -355 -390 277 0
-1260 -342 -356 -382 256 0
-1260 -342 -356 -384 283 0
-1260 -342 -356 -385 288 0
-1260 -342 -356 -386 292 0
-1260 -342 -356 -388 296 0
-1260 -342 -356 -389 297 0
-1260 -342 -356 -390 298 0
-1260 -342 -357 -382 262 0
-1260 -342 -357 -383 283 0
-1260 -342 -357 -385 303 0
-1260 -342 -357 -386 307 0
-1260 -342 -357 -388 311 0
-1260 -342 -357 -389 312 0
-1260 -342 -357 -390 313 0
-1260 -342 -358 -382 267 0
-1260 -342 -358 -383 288 0
-1260 -342 -358 -384 303 0
-1260 -342 -358 -386 317 0
-1260 -342 -358 -388 321 0
-1260 -342 -358 -389 322 0
-1260 -342 -358 -390 323 0
-1260 -342 -359 -382 271 0
-1260 -342 -359 -383 292 0
-1260 -342 -359 -384 307 0
-1260 -342 -359 -385 317 0
-1260 -342 -359 -388 327 0
-1260 -342 -359 -389 328 0
-1260 -342 -359 -390 329 0
-1260 -342 -361 -382 275 0
-1260 -342 -361 -383 296 0
-1260 -342 -361 -384 311 0
-1260 -342 -361 -385 321 0
-1260 -342 -361 -386 327 0
-1260 -342 -361 -389 333 0
-1260 -342 -361 -390 334 0
-1260 -342 -362 -382 276 0
-1260 -342 -362 -383 297 0
-1260 -342 -362 -384 312 0
-1260 -342 -362 -385 322 0
-1260 -342 -362 -386 328 0
-1260 -342 -362 -388 333 0
-1260 -342 -362 -390 335 0
-1260 -342 -363 -382 277 0
-1260 -342 -363 -383 298 0
-1260 -342 -363 -384 313 0
-1260 -342 -363 -385 323 0
-1260 -342 -363 -386 329 0
-1260 -342 -363 -388 334 0
-1260 -342 -363 -389 335 0
-1260 -343 -355 -383 257 0
-1260 -343 -355 -384 263 0
-1260 -343 -355 -385 268 0
-1260 -343 -355 -386 272 0
-1260 -343 -355 -387 275 0
-1260 -343 -355 -389 278 0
-1260 -343 -355 -390 279 0
-1260 -343 -356 -382 257 0
-1260 -343 -356 -384 284 0
-1260 -343 -356 -385 289 0
-1260 -343 -356 -386 293 0
-1260 -343 -356 -387 296 0
-1260 -343 -356 -389 299 0
-1260 -343 -356 -390 300 0
-1260 -343 -357 -382 263 0
-1260 -343 -357 -383 284 0
-1260 -343 -357 -385 304 0
-1260 -343 -357 -386 308 0
-1260 -343 -357 -387 311 0
-1260 -343 -357 -389 314 0
-1260 -343 -357 -390 315 0
-1260 -343 -358 -382 268 0
-1260 -343 -358 -383 289 0
-1260 -343 -358 -384 304 0
-1260 -343 -358 -386 318 0
-1260 -343 -358 -387 321 0
-1260 -343 -358 -389 324 0
-1260 -343 -358 -390 325 0
-1260 -343 -359 -382 272 0
-1260 -343 -359 -383 293 0
-1260 -343 -359 -384 308 0
-1260 -343 -359 -385 318 0
-1260 -343 -359 -387 327 0
-1260 -343 -359 -389 330 0
-1260 -343 -359 -390 331 0
-1260 -343 -360 -382 275 0
-1260 -343 -360 -383 296 0
-1260 -343 -360 -384 311 0
-1260 -343 -360 -385 321 0
-1260 -343 -360 -386 327 0
-1260 -343 -360 -389 333 0
-1260 -343 -360 -390 334 0
-1260 -343 -362 -382 278 0
-1260 -343 -362 -383 299 0
-1260 -343 -362 -384 314 0
-1260 -343 -362 -385 324 0
-1260 -343 -362 -386 330 0
-1260 -343 -362 -387 333 0
-1260 -343 -362 -390 336 0
-1260 -343 -363 -382 279 0
-1260 -343 -363 -383 300 0
-1260 -343 -363 -384 315 0
-1260 -343 -363 -385 325 0
-1260 -343 -363 -386 331 0
-1260 -343 -363 -387 334 0
-1260 -343 -363 -389 336 0
-1260 -344 -355 -383 258 0
-1260 -344 -355 -384 264 0
-1260 -344 -355 -385 269 0
-1260 -344 -355 -386 273 0
-1260 -344 -355 -387 276 0
-1260 -344 -355 -388 278 0
-1260 -344 -355 -390 280 0
-1260 -344 -356 -382 258 0
-1260 -344 -356 -384 285 0
-1260 -344 -356 -385 290 0
-1260 -344 -356 -386 294 0
-1260 -344 -356 -387 297 0
-1260 -344 -356 -388 299 0
-1260 -344 -356 -390 301 0
-1260 -344 -357 -382 264 0
-1260 -344 -357 -383 285 0
-1260 -344 -357 -385 305 0
-1260 -344 -357 -386 309 0
-1260 -344 -357 -387 312 0
-1260 -344 -357 -388 314 0
-1260 -344 -357 -390 316 0
-1260 -344 -358 -382 269 0
-1260 -344 -358 -383 290 0
-1260 -344 -358 -384 305 0
-1260 -344 -358 -386 319 0
-1260 -344 -358 -387 322 0
-1260 -344 -358 -388 324 0
-1260 -344 -358 -390 326 0
-1260 -344 -359 -382 273 0
-1260 -344 -359 -383 294 0
-1260 -344 -359 -384 309 0
-1260 -344 -359 -385 319 0
-1260 -344 -359 -387 328 0
-1260 -344 -359 -388 330 0
-1260 -344 -359 -390 332 0
-1260 -344 -360 -382 276 0
-1260 -344 -360 -383 297 0
-1260 -344 -360 -384 312 0
-1260 -344 -360 -385 322 0
-1260 -344 -360 -386 328 0
-1260 -344 -360 -388 333 0
-1260 -344 -360 -390 335 0
-1260 -344 -361 -382 278 0
-1260 -344 -361 -383 299 0
-1260 -344 -361 -384 314 0
-1260 -344 -361 -385 324 0
-1260 -344 -361 -386 330 0
-1260 -344 -361 -387 333 0
-1260 -344 -361 -390 336 0
-1260 -344 -363 -382 280 0
-1260 -344 -363 -383 301 0
-1260 -344 -363 -384 316 0
-1260 -344 -363 -385 326 0
-1260 -344 -363 -386 332 0
-1260 -344 -363 -387 335 0
-1260 -344 -363 -388 336 0
-1260 -345 -355 -383 259 0
-1260 -345 -355 -384 265 0
-1260 -345 -355 -385 270 0
-1260 -345 -355 -386 274 0
-1260 -345 -355 -387 277 0
-1260 -345 -355 -388 279 0
-1260 -345 -355 -389 280 0
-1260 -345 -356 -382 259 0
-1260 -345 -356 -384 286 0
-1260 -345 -356 -385 291 0
-1260 -345 -356 -386 295 0
-1260 -345 -356 -387 298 0
-1260 -345 -356 -388 300 0
-1260 -345 -356 -389 301 0
-1260 -345 -357 -382 265 0
-1260 -345 -357 -383 286 0
-1260 -345 -357 -385 306 0
-1260 -345 -357 -386 310 0
-1260 -345 -357 -387 313 0
-1260 -345 -357 -388 315 0
-1260 -345 -357 -389 316 0
-1260 -345 -358 -382 270 0
-1260 -345 -358 -383 291 0
-1260 -345 -358 -384 306 0
-1260 -345 -358 -386 320 0
-1260 -345 -358 -387 323 0
-1260 -345 -358 -388 325 0
-1260 -345 -358 -389 326 0
-1260 -345 -359 -382 274 0
-1260 -345 -359 -383 295 0
-1260 -345 -359 -384 310 0
-1260 -345 -359 -385 320 0
-1260 -345 -359 -387 329 0
-1260 -345 -359 -388 331 0
-1260 -345 -359 -389 332 0
-1260 -345 -360 -382 277 0
-1260 -345 -360 -383 298 0
-1260 -345 -360 -384 313 0
-1260 -345 -360 -385 323 0
-1260 -345 -360 -386 329 0
-1260 -345 -360 -388 334 0
-1260 -345 -360 -389 335 0
-1260 -345 -361 -382 279 0
-1260 -345 -361 -383 300 0
-1260 -345 -361 -384 315 0
-1260 -345 -361 -385 325 0
-1260 -345 -361 -386 331 0
-1260 -345 -361 -387 334 0
-1260 -345 -361 -389 336 0
-1260 -345 -362 -382 280 0
-1260 -345 -362 -383 301 0
-1260 -345 -362 -384 316 0
-1260 -345 -362 -385 326 0
-1260 -345 -362 -386 332 0
-1260 -345 -362 -387 335 0
-1260 -345 -362 -388 336 0
1260 0
-337 -347 -393 1261 0
-337 -347 -394 1262 0
-337 -347 -395 1263 0
-337 -347 -396 1264 0
-337 -347 -397 1265 0
-337 -347 -398 1266 0
-337 -347 -399 1267 0
-337 -348 -392 1261 0
-337 -348 -394 1268 0
-337 -348 -395 1269 0
-337 -348 -396 1270 0
-337 -348 -397 1271 0
-337 -348 -398 1272 0
-337 -348 -399 1273 0
-337 -349 -392 1262 0
-337 -349 -393 1268 0
-337 -349 -395 1274 0
-337 -349 -396 1275 0
-337 -349 -397 1276 0
-337 -349 -398 1277 0
-337 -349 -399 1278 0
-337 -350 -392 1263 0
-337 -350 -393 1269 0
-337 -350 -394 1274 0
-337 -350 -396 1279 0
-337 -350 -397 1280 0
-337 -350 -398 1281 0
-337 -350 -399 1282 0
-337 -351 -392 1264 0
-337 -351 -393 1270 0
-337 -351 -394 1275 0
-337 -351 -395 1279 0
-337 -351 -397 1283 0
-337 -351 -398 1284 0
-337 -351 -399 1285 0
-337 -352 -392 1265 0
-337 -352 -393 1271 0
-337 -352 -394 1276 0
-337 -352 -395 1280 0
-337 -352 -396 1283 0
-337 -352 -398 1286 0
-337 -352 -399 1287 0
-337 -353 -392 1266 0
-337 -353 -393 1272 0
-337 -353 -394 1277 0
-337 -353 -395 1281 0
-337 -353 -396 1284 0
-337 -353 -397 1286 0
-337 -353 -399 1288 0
-337 -354 -392 1267 0
-337 -354 -393 1273 0
-337 -354 -394 1278 0
-337 -354 -395 1282 0
-337 -354 -396 1285 0
-337 -354 -397 1287 0
-337 -354 -398 1288 0
-338 -346 -393 1261 0
-338 -346 -394 1262 0
-338 -346 -395 1263 0
-338 -346 -396 1264 0
-338 -346 -397 1265 0
-338 -346 -398 1266 0
-338 -346 -399 1267 0
-338 -348 -391 1261 0
-338 -348 -394 1289 0
-338 -348 -395 1290 0
-338 -348 -396 1291 0
-338 -348 -397 1292 0
-338 -348 -398 1293 0
-338 -348 -399 1294 0
-338 -349 -391 1262 0
-338 -349 -393 1289 0
-338 -349 -395 1295 0
-338 -349 -396 1296 0
-338 -349 -397 1297 0
-338 -349 -398 1298 0
-338 -349 -399 1299 0
-338 -350 -391 1263 0
-338 -350 -393 1290 0
-338 -350 -394 1295 0
-338 -350 -396 1300 0
-338 -350 -397 1301 0
-338 -350 -398 1302 0
-338 -350 -399 1303 0
-338 -351 -391 1264 0
-338 -351 -393 1291 0
-338 -351 -394 1296 0
-338 -351 -395 1300 0
-338 -351 -397 1304 0
-338 -351 -398 1305 0
-338 -351 -399 1306 0
-338 -352 -391 1265 0
-338 -352 -393 1292 0
-338 -352 -394 1297 0
-338 -352 -395 1301 0
-338 -352 -396 1304 0
-338 -352 -398 1307 0
-338 -352 -399 1308 0
-338 -353 -391 1266 0
-338 -353 -393 1293 0
-338 -353 -394 1298 0
-338 -353 -395 1302 0
-338 -353 -396 1305 0
-338 -353 -397 1307 0
-338 -353 -399 1309 0
-338 -354 -391 1267 0
-338 -354 -393 1294 0
-338 -354 -394 1299 0
-338 -354 -395 1303 0
-338 -354 -396 1306 0
-338 -354 -397 1308 0
-338 -354 -398 1309 0
-339 -346 -392 1261 0
-339 -346 -394 1268 0
-339 -346 -395 1269 0
-339 -346 -396 1270 0
-339 -346 -397 1271 0
-339 -346 -398 1272 0
-339 -346 -399 1273 0
-339 -347 -391 1261 0
-339 -347 -394 1289 0
-339 -347 -395 1290 0
-339 -347 -396 1291 0
-339 -347 -397 1292 0
-339 -347 -398 1293 0
-339 -347 -399 1294 0
-339 -349 -391 1268 0
-339 -349 -392 1289 0
-339 -349 -395 1310 0
-339 -349 -396 1311 0
-339 -349 -397 1312 0
-339 -349 -398 1313 0
-339 -349 -399 1314 0
-339 -350 -391 1269 0
-339 -350 -392 1290 0
-339 -350 -394 1310 0
-339 -350 -396 1315 0
-339 -350 -397 1316 0
-339 -350 -398 1317 0
-339 -350 -399 1318 0
-339 -351 -391 1270 0
-339 -351 -392 1291 0
-339 -351 -394 1311 0
-339 -351 -395 1315 0
-339 -351 -397 1319 0
-339 -351 -398 1320 0
-339 -351 -399 1321 0
-339 -352 -391 1271 0
-339 -352 -392 1292 0
-339 -352 -394 1312 0
-339 -352 -395 1316 0
-339 -352 -396 1319 0
-339 -352 -398 1322 0
-339 -352 -399 1323 0
-339 -353 -391 1272 0
-339 -353 -392 1293 0
-339 -353 -394 1313 0
-339 -353 -395 1317 0
-339 -353 -396 1320 0
-339 -353 -397 1322 0
-339 -353 -399 1324 0
-339 -354 -391 1273 0
-339 -354 -392 1294 0
-339 -354 -394 1314 0
-339 -354 -395 1318 0
-339 -354 -396 1321 0
-339 -354 -397 1323 0
-339 -354 -398 1324 0
-340 -346 -392 1262 0
-340 -346 -393 1268 0
-340 -346 -395 1274 0
-340 -346 -396 1275 0
-340 -346 -397 1276 0
-340 -346 -398 1277 0
-340 -346 -399 1278 0
-340 -347 -391 1262 0
-340 -347 -393 1289 0
-340 -347 -395 1295 0
-340 -347 -396 1296 0
-340 -347 -397 1297 0
-340 -347 -398 1298 0
-340 -347 -399 1299 0
-340 -348 -391 1268 0
-340 -348 -392 1289 0
-340 -348 -395 1310 0
-340 -348 -396 1311 0
-340 -348 -397 1312 0
-340 -348 -398 1313 0
-340 -348 -399 1314 0
-340 -350 -391 1274 0
-340 -350 -392 1295 0
-340 -350 -393 1310 0
-340 -350 -396 1325 0
-340 -350 -397 1326 0
-340 -350 -398 1327 0
-340 -350 -399 1328 0
-340 -351 -391 1275 0
-340 -351 -392 1296 0
-340 -351 -393 1311 0
-340 -351 -395 1325 0
-340 -351 -397 1329 0
-340 -351 -398 1330 0
-340 -351 -399 1331 0
-340 -352 -391 1276 0
-340 -352 -392 1297 0
-340 -352 -393 1312 0
-340 -352 -395 1326 0
-340 -352 -396 1329 0
-340 -352 -398 1332 0
-340 -352 -399 1333 0
-340 -353 -391 1277 0
-340 -353 -392 1298 0
-340 -353 -393 1313 0
-340 -353 -395 1327 0
-340 -353 -396 1330 0
-340 -353 -397 1332 0
-340 -353 -399 1334 0
-340 -354 -391 1278 0
-340 -354 -392 1299 0
-340 -354 -393 1314 0
-340 -354 -395 1328 0
-340 -354 -396 1331 0
-340 -354 -397 1333 0
-340 -354 -398 1334 0
-341 -346 -392 1263 0
-341 -346 -393 1269 0
-341 -346 -394 1274 0
-341 -346 -396 1279 0
-341 -346 -397 1280 0
-341 -346 -398 1281 0
-341 -346 -399 1282 0
-341 -347 -391 1263 0
-341 -347 -393 1290 0
-341 -347 -394 1295 0
-341 -347 -396 1300 0
-341 -347 -397 1301 0
-341 -347 -398 1302 0
-341 -347 -399 1303 0
-341 -348 -391 1269 0
-341 -348 -392 1290 0
-341 -348 -394 1310 0
-341 -348 -396 1315 0
-341 -348 -397 1316 0
-341 -348 -398 1317 0
-341 -348 -399 1318 0
-341 -349 -391 1274 0
-341 -349 -392 1295 0
-341 -349 -393 1310 0
-341 -349 -396 1325 0
-341 -349 -397 1326 0
-341 -349 -398 1327 0
-341 -349 -399 1328 0
-341 -351 -391 1279 0
-341 -351 -392 1300 0
-341 -351 -393 1315 0
-341 -351 -394 1325 0
-341 -351 -397 1335 0
-341 -351 -398 1336 0
-341 -351 -399 1337 0
-341 -352 -391 1280 0
-341 -352 -392 1301 0
-341 -352 -393 1316 0
-341 -352 -394 1326 0
-341 -352 -396 1335 0
-341 -352 -398 1338 0
-341 -352 -399 1339 0
-341 -353 -391 1281 0
-341 -353 -392 1302 0
-341 -353 -393 1317 0
-341 -353 -394 1327 0
-341 -353 -396 1336 0
-341 -353 -397 1338 0
-341 -353 -399 1340 0
-341 -354 -391 1282 0
-341 -354 -392 1303 0
-341 -354 -393 1318 0
-341 -354 -394 1328 0
-341 -354 -396 1337 0
-341 -354 -397 1339 0
-341 -354 -398 1340 0
-342 -346 -392 1264 0
-342 -346 -393 1270 0
-342 -346 -394 1275 0
-342 -346 -395 1279 0
-342 -346 -397 1283 0
-342 -346 -398 1284 0
-342 -346 -399 1285 0
-342 -347 -391 1264 0
-342 -347 -393 1291 0
-342 -347 -394 1296 0
-342 -347 -395 1300 0
-342 -347 -397 1304 0
-342 -347 -398 1305 0
-342 -347 -399 1306 0
-342 -348 -391 1270 0
-342 -348 -392 1291 0
-342 -348 -394 1311 0
-342 -348 -395 1315 0
-342 -348 -397 1319 0
-342 -348 -398 1320 0
-342 -348 -399 1321 0
-342 -349 -391 1275 0
-342 -349 -392 1296 0
-342 -349 -393 1311 0
-342 -349 -395 1325 0
-342 -349 -397 1329 0
-342 -349 -398 1330 0
-342 -349 -399 1331 0
-342 -350 -391 1279 0
-342 -350 -392 1300 0
-342 -350 -393 1315 0
-342 -350 -394 1325 0
-342 -350 -397 1335 0
-342 -350 -398 1336 0
-342 -350 -399 1337 0
-342 -352 -391 1283 0
-342 -352 -392 1304 0
-342 -352 -393 1319 0
-342 -352 -394 1329 0
-342 -352 -395 1335 0
-342 -352 -398 1341 0
-342 -352 -399 1342 0
-342 -353 -391 1284 0
-342 -353 -392 1305 0
-342 -353 -393 1320 0
-342 -353 -394 1330 0
-342 -353 -395 1336 0
-342 -353 -397 1341 0
-342 -353 -399 1343 0
-342 -354 -391 1285 0
-342 -354 -392 1306 0
-342 -354 -393 1321 0
-342 -354 -394 1331 0
-342 -354 -395 1337 0
-342 -354 -397 1342 0
-342 -354 -398 1343 0
-343 -346 -392 1265 0
-343 -346 -393 1271 0
-343 -346 -394 1276 0
-343 -346 -395 1280 0
-343 -346 -396 1283 0
-343 -346 -398 1286 0
-343 -346 -399 1287 0
-343 -347 -391 1265 0
-343 -347 -393 1292 0
-343 -347 -394 1297 0
-343 -347 -395 1301 0
-343 -347 -396 1304 0
-343 -347 -398 1307 0
-343 -347 -399 1308 0
-343 -348 -391 1271 0
-343 -348 -392 1292 0
-343 -348 -394 1312 0
-343 -348 -395 1316 0
-343 -348 -396 1319 0
-343 -348 -398 1322 0
-343 -348 -399 1323 0
-343 -349 -391 1276 0
-343 -349 -392 1297 0
-343 -349 -393 1312 0
-343 -349 -395 1326 0
-343 -349 -396 1329 0
-343 -349 -398 1332 0
-343 -349 -399 1333 0
-343 -350 -391 1280 0
-343 -350 -392 1301 0
-343 -350 -393 1316 0
-343 -350 -394 1326 0
-343 -350 -396 1335 0
-343 -350 -398 1338 0
-343 -350 -399 1339 0
-343 -351 -391 1283 0
-343 -351 -392 1304 0
-343 -351 -393 1319 0
-343 -351 -394 1329 0
-343 -351 -395 1335 0
-343 -351 -398 1341 0
-343 -351 -399 1342 0
-343 -353 -391 1286 0
-343 -353 -392 1307 0
-343 -353 -393 1322 0
-343 -353 -394 1332 0
-343 -353 -395 1338 0
-343 -353 -396 1341 0
-343 -353 -399 1344 0
-343 -354 -391 1287 0
-343 -354 -392 1308 0
-343 -354 -393 1323 0
-343 -354 -394 1333 0
-343 -354 -395 1339 0
-343 -354 -396 1342 0
-343 -354 -398 1344 0
-344 -346 -392 1266 0
-344 -346 -393 1272 0
-344 -346 -394 1277 0
-344 -346 -395 1281 0
-344 -346 -396 1284 0
-344 -346 -397 1286 0
-344 -346 -399 1288 0
-344 -347 -391 1266 0
-344 -347 -393 1293 0
-344 -347 -394 1298 0
-344 -347 -395 1302 0
-344 -347 -396 1305 0
-344 -347 -397 1307 0
-344 -347 -399 1309 0
-344 -348 -391 1272 0
-344 -348 -392 1293 0
-344 -348 -394 1313 0
-344 -348 -395 1317 0
-344 -348 -396 1320 0
-344 -348 -397 1322 0
-344 -348 -399 1324 0
-344 -349 -391 1277 0
-344 -349 -392 1298 0
-344 -349 -393 1313 0
-344 -349 -395 1327 0
-344 -349 -396 1330 0
-344 -349 -397 1332 0
-344 -349 -399 1334 0
-344 -350 -391 1281 0
-344 -350 -392 1302 0
-344 -350 -393 1317 0
-344 -350 -394 1327 0
-344 -350 -396 1336 0
-344 -350 -397 1338 0
-344 -350 -399 1340 0
-344 -351 -391 1284 0
-344 -351 -392 1305 0
-344 -351 -393 1320 0
-344 -351 -394 1330 0
-344 -351 -395 1336 0
-344 -351 -397 1341 0
-344 -351 -399 1343 0
-344 -352 -391 1286 0
-344 -352 -392 1307 0
-344 -352 -393 1322 0
-344 -352 -394 1332 0
-344 -352 -395 1338 0
-344 -352 -396 1341 0
-344 -352 -399 1344 0
-344 -354 -391 1288 0
-344 -354 -392 1309 0
-344 -354 -393 1324 0
-344 -354 -394 1334 0
-344 -354 -395 1340 0
-344 -354 -396 1343 0
-344 -354 -397 1344 0
-345 -346 -392 1267 0
-345 -346 -393 1273 0
-345 -346 -394 1278 0
-345 -346 -395 1282 0
-345 -346 -396 1285 0
-345 -346 -397 1287 0
-345 -346 -398 1288 0
-345 -347 -391 1267 0
-345 -347 -393 1294 0
-345 -347 -394 1299 0
-345 -347 -395 1303 0
-345 -347 -396 1306 0
-345 -347 -397 1308 0
-345 -347 -398 1309 0
-345 -348 -391 1273 0
-345 -348 -392 1294 0
-345 -348 -394 1314 0
-345 -348 -395 1318 0
-345 -348 -396 1321 0
-345 -348 -397 1323 0
-345 -348 -398 1324 0
-345 -349 -391 1278 0
-345 -349 -392 1299 0
-345 -349 -393 1314 0
-345 -349 -395 1328 0
-345 -349 -396 1331 0
-345 -349 -397 1333 0
-345 -349 -398 1334 0
-345 -350 -391 1282 0
-345 -350 -392 1303 0
-345 -350 -393 1318 0
-345 -350 -394 1328 0
-345 -350 -396 1337 0
-345 -350 -397 1339 0
-345 -350 -398 1340 0
-345 -351 -391 1285 0
-345 -351 -392 1306 0
-345 -351 -393 1321 0
-345 -351 -394 1331 0
-345 -351 -395 1337 0
-345 -351 -397 1342 0
-345 -351 -398 1343 0
-345 -352 -391 1287 0
-345 -352 -392 1308 0
-345 -352 -393 1323 0
-345 -352 -394 1333 0
-345 -352 -395 1339 0
-345 -352 -396 1342 0
-345 -352 -398 1344 0
-345 -353 -391 1288 0
-345 -353 -392 1309 0
-345 -353 -393 1324 0
-345 -353 -394 1334 0
-345 -353 -395 1340 0
-345 -353 -396 1343 0
-345 -353 -397 1344 0
-1345 -337 -347 -393 253 0
-1345 -337 -347 -394 254 0
-1345 -337 -347 -395 255 0
-1345 -337 -347 -396 256 0
-1345 -337 -347 -397 257 0
-1345 -337 -347 -398 258 0
-1345 -337 -347 -399 259 0
-1345 -337 -348 -392 253 0
-1345 -337 -348 -394 260 0
-1345 -337 -348 -395 261 0
-1345 -337 -348 -396 262 0
-1345 -337 -348 -397 263 0
-1345 -337 -348 -398 264 0
-1345 -337 -348 -399 265 0
-1345 -337 -349 -392 254 0
-1345 -337 -349 -393 260 0
-1345 -337 -349 -395 266 0
-1345 -337 -349 -396 267 0
-1345 -337 -349 -397 268 0
-1345 -337 -349 -398 269 0
-1345 -337 -349 -399 270 0
-1345 -337 -350 -392 255 0
-1345 -337 -350 -393 261 0
-1345 -337 -350 -394 266 0
-1345 -337 -350 -396 271 0
-1345 -337 -350 -397 272 0
-1345 -337 -350 -398 273 0
-1345 -337 -350 -399 274 0
-1345 -337 -351 -392 256 0
-1345 -337 -351 -393 262 0
-1345 -337 -351 -394 267 0
-1345 -337 -351 -395 271 0
-1345 -337 -351 -397 275 0
-1345 -337 -351 -398 276 0
-1345 -337 -351 -399 277 0
-1345 -337 -352 -392 257 0
-1345 -337 -352 -393 263 0
-1345 -337 -352 -394 268 0
-1345 -337 -352 -395 272 0
-1345 -337 -352 -396 275 0
-1345 -337 -352 -398 278 0
-1345 -337 -352 -399 279 0
-1345 -337 -353 -392 258 0
-1345 -337 -353 -393 264 0
-1345 -337 -353 -394 269 0
-1345 -337 -353 -395 273 0
-1345 -337 -353 -396 276 0
-1345 -337 -353 -397 278 0
-1345 -337 -353 -399 280 0
-1345 -337 -354 -392 259 0
-1345 -337 -354 -393 265 0
-1345 -337 -354 -394 270 0
-1345 -337 -354 -395 274 0
-1345 -337 -354 -396 277 0
-1345 -337 -354 -397 279 0
-1345 -337 -354 -398 280 0
-1345 -338 -346 -393 253 0
-1345 -338 -346 -394 254 0
-1345 -338 -346 -395 255 0
-1345 -338 -346 -396 256 0
-1345 -338 -346 -397 257 0
-1345 -338 -346 -398 258 0
-1345 -338 -346 -399 259 0
-1345 -338 -348 -391 253 0
-1345 -338 -348 -394 281 0
-1345 -338 -348 -395 282 0
-1345 -338 -348 -396 283 0
-1345 -338 -348 -397 284 0
-1345 -338 -348 -398 285 0
-1345 -338 -348 -399 286 0
-1345 -338 -349 -391 254 0
-1345 -338 -349 -393 281 0
-1345 -338 -349 -395 287 0
-1345 -338 -349 -396 288 0
-1345 -338 -349 -397 289 0
-1345 -338 -349 -398 290 0
-1345 -338 -349 -399 291 0
-1345 -338 -350 -391 255 0
-1345 -338 -350 -393 282 0
-1345 -338 -350 -394 287 0
-1345 -338 -350 -396 292 0
-1345 -338 -350 -397 293 0
-1345 -338 -350 -398 294 0
-1345 -338 -350 -399 295 0
-1345 -338 -351 -391 256 0
-1345 -338 -351 -393 283 0
-1345 -338 -351 -394 288 0
-1345 -338 -351 -395 292 0
-1345 -338 -351 -397 296 0
-1345 -338 -351 -398 297 0
-1345 -338 -351 -399 298 0
-1345 -338 -352 -391 257 0
-1345 -338 -352 -393 284 0
-1345 -338 -352 -394 289 0
-1345 -338 -352 -395 293 0
-1345 -338 -352 -396 296 0
-1345 -338 -352 -398 299 0
-1345 -338 -352 -399 300 0
-1345 -338 -353 -391 258 0
-1345 -338 -353 -393 285 0
-1345 -338 -353 -394 290 0
-1345 -338 -353 -395 294 0
-1345 -338 -353 -396 297 0
-1345 -338 -353 -397 299 0
-1345 -338 -353 -399 301 0
-1345 -338 -354 -391 259 0
-1345 -338 -354 -393 286 0
-1345 -338 -354 -394 291 0
-1345 -338 -354 -395 295 0
-1345 -338 -354 -396 298 0
-1345 -338 -354 -397 300 0
-1345 -338 -354 -398 301 0
-1345 -339 -346 -392 253 0
-1345 -339 -346 -394 260 0
-1345 -339 -346 -395 261 0
-1345 -339 -346 -396 262 0
-1345 -339 -346 -397 263 0
-1345 -339 -346 -398 264 0
-1345 -339 -346 -399 265 0
-1345 -339 -347 -391 253 0
-1345 -339 -347 -394 281 0
-1345 -339 -347 -395 282 0
-1345 -339 -347 -396 283 0
-1345 -339 -347 -397 284 0
-1345 -339 -347 -398 285 0
-1345 -339 -347 -399 286 0
-1345 -339 -349 -391 260 0
-1345 -339 -349 -392 281 0
-1345 -339 -349 -395 302 0
-1345 -339 -349 -396 303 0
-1345 -339 -349 -397 304 0
-1345 -339 -349 -398 305 0
-1345 -339 -349 -399 306 0
-1345 -339 -350 -391 261 0
-1345 -339 -350 -392 282 0
-1345 -339 -350 -394 302 0
-1345 -339 -350 -396 307 0
-1345 -339 -350 -397 308 0
-1345 -339 -350 -398 309 0
-1345 -339 -350 -399 310 0
-1345 -339 -351 -391 262 0
-1345 -339 -351 -392 283 0
-1345 -339 -351 -394 303 0
-1345 -339 -351 -395 307 0
-1345 -339 -351 -397 311 0
-1345 -339 -351 -398 312 0
-1345 -339 -351 -399 313 0
-1345 -339 -352 -391 263 0
-1345 -339 -352 -392 284 0
-1345 -339 -352 -394 304 0
-1345 -339 -352 -395 308 0
-1345 -339 -352 -396 311 0
-1345 -339 -352 -398 314 0
-1345 -339 -352 -399 315 0
-1345 -339 -353 -391 264 0
-1345 -339 -353 -392 285 0
-1345 -339 -353 -394 305 0
-1345 -339 -353 -395 309 0
-1345 -339 -353 -396 312 0
-1345 -339 -353 -397 314 0
-1345 -339 -353 -399 316 0
-1345 -339 -354 -391 265 0
-1345 -339 -354 -392 286 0
-1345 -339 -354 -394 306 0
-1345 -339 -354 -395 310 0
-1345 -339 -354 -396 313 0
-1345 -339 -354 -397 315 0
-1345 -339 -354 -398 316 0
-1345 -340 -346 -392 254 0
-1345 -340 -346 -393 260 0
-1345 -340 -346 -395 266 0
-1345 -340 -346 -396 267 0
-1345 -340 -346 -397 268 0
-1345 -340 -346 -398 269 0
-1345 -340 -346 -399 270 0
-1345 -340 -347 -391 254 0
-1345 -340 -347 -393 281 0
-1345 -340 -347 -395 287 0
-1345 -340 -347 -396 288 0
-1345 -340 -347 -397 289 0
-1345 -340 -347 -398 290 0
-1345 -340 -347 -399 291 0
-1345 -340 -348 -391 260 0
-1345 -340 -348 -392 281 0
-1345 -340 -348 -395 302 0
-1345 -340 -348 -396 303 0
-1345 -340 -348 -397 304 0
-1345 -340 -348 -398 305 0
-1345 -340 -348 -399 306 0
-1345 -340 -350 -391 266 0
-1345 -340 -350 -392 287 0
-1345 -340 -350 -393 302 0
-1345 -340 -350 -396 317 0
-1345 -340 -350 -397 318 0
-1345 -340 -350 -398 319 0
-1345 -340 -350 -399 320 0
-1345 -340 -351 -391 267 0
-1345 -340 -351 -392 288 0
-1345 -340 -351 -393 303 0
-1345 -340 -351 -395 317 0
-1345 -340 -351 -397 321 0
-1345 -340 -351 -398 322 0
-1345 -340 -351 -399 323 0
-1345 -340 -352 -391 268 0
-1345 -340 -352 -392 289 0
-1345 -340 -352 -393 304 0
-1345 -340 -352 -395 318 0
-1345 -340 -352 -396 321 0
-1345 -340 -352 -398 324 0
-1345 -340 -352 -399 325 0
-1345 -340 -353 -391 269 0
-1345 -340 -353 -392 290 0
-1345 -340 -353 -393 305 0
-1345 -340 -353 -395 319 0
-1345 -340 -353 -396 322 0
-1345 -340 -353 -397 324 0
-1345 -340 -353 -399 326 0
-1345 -340 -354 -391 270 0
-1345 -340 -354 -392 291 0
-1345 -340 -354 -393 306 0
-1345 -340 -354 -395 320 0
-1345 -340 -354 -396 323 0
-1345 -340 -354 -397 325 0
-1345 -340 -354 -398 326 0
-1345 -341 -346 -392 255 0
-1345 -341 -346 -393 261 0
-1345 -341 -346 -394 266 0
-1345 -341 -346 -396 271 0
-1345 -341 -346 -397 272 0
-1345 -341 -346 -398 273 0
-1345 -341 -346 -399 274 0
-1345 -341 -347 -391 255 0
-1345 -341 -347 -393 282 0
-1345 -341 -347 -394 287 0
-1345 -341 -347 -396 292 0
-1345 -341 -347 -397 293 0
-1345 -341 -347 -398 294 0
-1345 -341 -347 -399 295 0
-1345 -341 -348 -391 261 0
-1345 -341 -348 -392 282 0
-1345 -341 -348 -394 302 0
-1345 -341 -348 -396 307 0
-1345 -341 -348 -397 308 0
-1345 -341 -348 -398 309 0
-1345 -341 -348 -399 310 0
-1345 -341 -349 -391 266 0
-1345 -341 -349 -392 287 0
-1345 -341 -349 -393 302 0
-1345 -341 -349 -396 317 0
-1345 -341 -349 -397 318 0
-1345 -341 -349 -398 319 0
-1345 -341 -349 -399 320 0
-1345 -341 -351 -391 271 0
-1345 -341 -351 -392 292 0
-1345 -341 -351 -393 307 0
-1345 -341 -351 -394 317 0
-1345 -341 -351 -397 327 0
-1345 -341 -351 -398 328 0
-1345 -341 -351 -399 329 0
-1345 -341 -352 -391 272 0
-1345 -341 -352 -392 293 0
-1345 -341 -352 -393 308 0
-1345 -341 -352 -394 318 0
-1345 -341 -352 -396 327 0
-1345 -341 -352 -398 330 0
-1345 -341 -352 -399 331 0
-1345 -341 -353 -391 273 0
-1345 -341 -353 -392 294 0
-1345 -341 -353 -393 309 0
-1345 -341 -353 -394 319 0
-1345 -341 -353 -396 328 0
-1345 -341 -353 -397 330 0
-1345 -341 -353 -399 332 0
-1345 -341 -354 -391 274 0
-1345 -341 -354 -392 295 0
-1345 -341 -354 -393 310 0
-1345 -341 -354 -394 320 0
-1345 -341 -354 -396 329 0
-1345 -341 -354 -397 331 0
-1345 -341 -354 -398 332 0
-1345 -342 -346 -392 256 0
-1345 -342 -346 -393 262 0
-1345 -342 -346 -394 267 0
-1345 -342 -346 -395 271 0
-1345 -342 -346 -397 275 0
-1345 -342 -346 -398 276 0
-1345 -342 -346 -399 277 0
-1345 -342 -347 -391 256 0
-1345 -342 -347 -393 283 0
-1345 -342 -347 -394 288 0
-1345 -342 -347 -395 292 0
-1345 -342 -347 -397 296 0
-1345 -342 -347 -398 297 0
-1345 -342 -347 -399 298 0
-1345 -342 -348 -391 262 0
-1345 -342 -348 -392 283 0
-1345 -342 -348 -394 303 0
-1345 -342 -348 -395 307 0
-1345 -342 -348 -397 311 0
-1345 -342 -348 -398 312 0
-1345 -342 -348 -399 313 0
-1345 -342 -349 -391 267 0
-1345 -342 -349 -392 288 0
-1345 -342 -349 -393 303 0
-1345 -342 -349 -395 317 0
-1345 -342 -349 -397 321 0
-1345 -342 -349 -398 322 0
-1345 -342 -349 -399 323 0
-1345 -342 -350 -391 271 0
-1345 -342 -350 -392 292 0
-1345 -342 -350 -393 307 0
-1345 -342 -350 -394 317 0
-1345 -342 -350 -397 327 0
-1345 -342 -350 -398 328 0
-1345 -342 -350 -399 329 0
-1345 -342 -352 -391 275 0
-1345 -342 -352 -392 296 0
-1345 -342 -352 -393 311 0
-1345 -342 -352 -394 321 0
-1345 -342 -352 -395 327 0
-1345 -342 -352 -398 333 0
-1345 -342 -352 -399 334 0
-1345 -342 -353 -391 276 0
-1345 -342 -353 -392 297 0
-1345 -342 -353 -393 312 0
-1345 -342 -353 -394 322 0
-1345 -342 -353 -395 328 0
-1345 -342 -353 -397 333 0
-1345 -342 -353 -399 335 0
-1345 -342 -354 -391 277 0
-1345 -342 -354 -392 298 0
-1345 -342 -354 -393 313 0
-1345 -342 -354 -394 323 0
-1345 -342 -354 -395 329 0
-1345 -342 -354 -397 334 0
-1345 -342 -354 -398 335 0
-1345 -343 -346 -392 257 0
-1345 -343 -346 -393 263 0
-1345 -343 -346 -394 268 0
-1345 -343 -346 -395 272 0
-1345 -343 -346 -396 275 0
-1345 -343 -346 -398 278 0
-1345 -343 -346 -399 279 0
-1345 -343 -347 -391 257 0
-1345 -343 -347 -393 284 0
-1345 -343 -347 -394 289 0
-1345 -343 -347 -395 293 0
-1345 -343 -347 -396 296 0
-1345 -343 -347 -398 299 0
-1345 -343 -347 -399 300 0
-1345 -343 -348 -391 263 0
-1345 -343 -348 -392 284 0
-1345 -343 -348 -394 304 0
-1345 -343 -348 -395 308 0
-1345 -343 -348 -396 311 0
-1345 -343 -348 -398 314 0
-1345 -343 -348 -399 315 0
-1345 -343 -349 -391 268 0
-1345 -343 -349 -392 289 0
-1345 -343 -349 -393 304 0
-1345 -343 -349 -395 318 0
-1345 -343 -349 -396 321 0
-1345 -343 -349 -398 324 0
-1345 -343 -349 -399 325 0
-1345 -343 -350 -391 272 0
-1345 -343 -350 -392 293 0
-1345 -343 -350 -393 308 0
-1345 -343 -350 -394 318 0
-1345 -343 -350 -396 327 0
-1345 -343 -350 -398 330 0
-1345 -343 -350 -399 331 0
-1345 -343 -351 -391 275 0
-1345 -343 -351 -392 296 0
-1345 -343 -351 -393 311 0
-1345 -343 -351 -394 321 0
-1345 -343 -351 -395 327 0
-1345 -343 -351 -398 333 0
-1345 -343 -351 -399 334 0
-1345 -343 -353 -391 278 0
-1345 -343 -353 -392 299 0
-1345 -343 -353 -393 314 0
-1345 -343 -353 -394 324 0
-1345 -343 -353 -395 330 0
-1345 -343 -353 -396 333 0
-1345 -343 -353 -399 336 0
-1345 -343 -354 -391 279 0
-1345 -343 -354 -392 300 0
-1345 -343 -354 -393 315 0
-1345 -343 -354 -394 325 0
-1345 -343 -354 -395 331 0
-1345 -343 -354 -396 334 0
-1345 -343 -354 -398 336 0
-1345 -344 -346 -392 258 0
-1345 -344 -346 -393 264 0
-1345 -344 -346 -394 269 0
-1345 -344 -346 -395 273 0
-1345 -344 -346 -396 276 0
-1345 -344 -346 -397 278 0
-1345 -344 -346 -399 280 0
-1345 -344 -347 -391 258 0
-1345 -344 -347 -393 285 0
-1345 -344 -347 -394 290 0
-1345 -344 -347 -395 294 0
-1345 -344 -347 -396 297 0
-1345 -344 -347 -397 299 0
-1345 -344 -347 -399 301 0
-1345 -344 -348 -391 264 0
-1345 -344 -348 -392 285 0
-1345 -344 -348 -394 305 0
-1345 -344 -348 -395 309 0
-1345 -344 -348 -396 312 0
-1345 -344 -348 -397 314 0
-1345 -344 -348 -399 316 0
-1345 -344 -349 -391 269 0
-1345 -344 -349 -392 290 0
-1345 -344 -349 -393 305 0
-1345 -344 -349 -395 319 0
-1345 -344 -349 -396 322 0
-1345 -344 -349 -397 324 0
-1345 -344 -349 -399 326 0
-1345 -344 -350 -391 273 0
-1345 -344 -350 -392 294 0
-1345 -344 -350 -393 309 0
-1345 -344 -350 -394 319 0
-1345 -344 -350 -396 328 0
-1345 -344 -350 -397 330 0
-1345 -344 -350 -399 332 0
-1345 -344 -351 -391 276 0
-1345 -344 -351 -392 297 0
-1345 -344 -351 -393 312 0
-1345 -344 -351 -394 322 0
-1345 -344 -351 -395 328 0
-1345 -344 -351 -397 333 0
-1345 -344 -351 -399 335 0
-1345 -344 -352 -391 278 0
-1345 -344 -352 -392 299 0
-1345 -344 -352 -393 314 0
-1345 -344 -352 -394 324 0
-1345 -344 -352 -395 330 0
-1345 -344 -352 -396 333 0
-1345 -344 -352 -399 336 0
-1345 -344 -354 -391 280 0
-1345 -344 -354 -392 301 0
-1345 -344 -354 -393 316 0
-1345 -344 -354 -394 326 0
-1345 -344 -354 -395 332 0
-1345 -344 -354 -396 335 0
-1345 -344 -354 -397 336 0
-1345 -345 -346 -392 259 0
-1345 -345 -346 -393 265 0
-1345 -345 -346 -394 270 0
-1345 -345 -346 -395 274 0
-1345 -345 -346 -396 277 0
-1345 -345 -346 -397 279 0
-1345 -345 -346 -398 280 0
-1345 -345 -347 -391 259 0
-1345 -345 -347 -393 286 0
-1345 -345 -347 -394 291 0
-1345 -345 -347 -395 295 0
-1345 -345 -347 -396 298 0
-1345 -345 -347 -397 300 0
-1345 -345 -347 -398 301 0
-1345 -345 -348 -391 265 0
-1345 -345 -348 -392 286 0
-1345 -345 -348 -394 306 0
-1345 -345 -348 -395 310 0
-1345 -345 -348 -396 313 0
-1345 -345 -348 -397 315 0
-1345 -345 -348 -398 316 0
-1345 -345 -349 -391 270 0
-1345 -345 -349 -392 291 0
-1345 -345 -349 -393 306 0
-1345 -345 -349 -395 320 0
-1345 -345 -349 -396 323 0
-1345 -345 -349 -397 325 0
-1345 -345 -349 -398 326 0
-1345 -345 -350 -391 274 0
-1345 -345 -350 -392 295 0
-1345 -345 -350 -393 310 0
-1345 -345 -350 -394 320 0
-1345 -345 -350 -396 329 0
-1345 -345 -350 -397 331 0
-1345 -345 -350 -398 332 0
-1345 -345 -351 -391 277 0
-1345 -345 -351 -392 298 0
-1345 -345 -351 -393 313 0
-1345 -345 -351 -394 323 0
-1345 -345 -351 -395 329 0
-1345 -345 -351 -397 334 0
-1345 -345 -351 -398 335 0
-1345 -345 -352 -391 279 0
-1345 -345 -352 -392 300 0
-1345 -345 -352 -393 315 0
-1345 -345 -352 -394 325 0
-1345 -345 -352 -395 331 0
-1345 -345 -352 -396 334 0
-1345 -345 -352 -398 336 0
-1345 -345 -353 -391 280 0
-1345 -345 -353 -392 301 0
-1345 -345 -353 -393 316 0
-1345 -345 -353 -394 326 0
-1345 -345 -353 -395 332 0
-1345 -345 -353 -396 335 0
-1345 -345 -353 -397 336 0
1345 0
-346 -356 -402 1346 0
-346 -356 -403 1347 0
-346 -356 -404 1348 0
-346 -356 -405 1349 0
-346 -356 -406 1350 0
-346 -356 -407 1351 0
-346 -356 -408 1352 0
-346 -357 -401 1346 0
-346 -357 -403 1353 0
-346 -357 -404 1354 0
-346 -357 -405 1355 0
-346 -357 -406 1356 0
-346 -357 -407 1357 0
-346 -357 -408 1358 0
-346 -358 -401 1347 0
-346 -358 -402 1353 0
-346 -358 -404 1359 0
-346 -358 -405 1360 0
-346 -358 -406 1361 0
-346 -358 -407 1362 0
-346 -358 -408 1363 0
-346 -359 -401 1348 0
-346 -359 -402 1354 0
-346 -359 -403 1359 0
-346 -359 -405 1364 0
-346 -359 -406 1365 0
-346 -359 -407 1366 0
-346 -359 -408 1367 0
-346 -360 -401 1349 0
-346 -360 -402 1355 0
-346 -360 -403 1360 0
-346 -360 -404 1364 0
-346 -360 -406 1368 0
-346 -360 -407 1369 0
-346 -360 -408 1370 0
-346 -361 -401 1350 0
-346 -361 -402 1356 0
-346 -361 -403 1361 0
-346 -361 -404 1365 0
-346 -361 -405 1368 0
-346 -361 -407 1371 0
-346 -361 -408 1372 0
-346 -362 -401 1351 0
-346 -362 -402 1357 0
-346 -362 -403 1362 0
-346 -362 -404 1366 0
-346 -362 -405 1369 0
-346 -362 -406 1371 0
-346 -362 -408 1373 0
-346 -363 -401 1352 0
-346 -363 -402 1358 0
-346 -363 -403 1363 0
-346 -363 -404 1367 0
-346 -363 -405 1370 0
-346 -363 -406 1372 0
-346 -363 -407 1373 0
-347 -355 -402 1346 0
-347 -355 -403 1347 0
-347 -355 -404 1348 0
-347 -355 -405 1349 0
-347 -355 -406 1350 0
-347 -355 -407 1351 0
-347 -355 -408 1352 0
-347 -357 -400 1346 0
-347 -357 -403 1374 0
-347 -357 -404 1375 0
-347 -357 -405 1376 0
-347 -357 -406 1377 0
-347 -357 -407 1378 0
-347 -357 -408 1379 0
-347 -358 -400 1347 0
-347 -358 -402 1374 0
-347 -358 -404 1380 0
-347 -358 -405 1381 0
-347 -358 -406 1382 0
-347 -358 -407 1383 0
-347 -358 -408 1384 0
-347 -359 -400 1348 0
-347 -359 -402 1375 0
-347 -359 -403 1380 0
-347 -359 -405 1385 0
-347 -359 -406 1386 0
-347 -359 -407 1387 0
-347 -359 -408 1388 0
-347 -360 -400 1349 0
-347 -360 -402 1376 0
-347 -360 -403 1381 0
-347 -360 -404 1385 0
-347 -360 -406 1389 0
-347 -360 -407 1390 0
-347 -360 -408 1391 0
-347 -361 -400 1350 0
-347 -361 -402 1377 0
-347 -361 -403 1382 0
-347 -361 -404 1386 0
-347 -361 -405 1389 0
-347 -361 -407 1392 0
-347 -361 -408 1393 0
-347 -362 -400 1351 0
-347 -362 -402 1378 0
-347 -362 -403 1383 0
-347 -362 -404 1387 0
-347 -362 -405 1390 0
-347 -362 -406 1392 0
-347 -362 -408 1394 0
-347 -363 -400 1352 0
-347 -363 -402 1379 0
-347 -363 -403 1384 0
-347 -363 -404 1388 0
-347 -363 -405 1391 0
-347 -363 -406 1393 0
-347 -363 -407 1394 0
-348 -355 -401 1346 0
-348 -355 -403 1353 0
-348 -355 -404 1354 0
-348 -355 -405 1355 0
-348 -355 -406 1356 0
-348 -355 -407 1357 0
-348 -355 -408 1358 0
-348 -356 -400 1346 0
-348 -356 -403 1374 0
-348 -356 -404 1375 0
-348 -356 -405 1376 0
-348 -356 -406 1377 0
-348 -356 -407 1378 0
-348 -356 -408 1379 0
-348 -358 -400 1353 0
-348 -358 -401 1374 0
-348 -358 -404 1395 0
-348 -358 -405 1396 0
-348 -358 -406 1397 0
-348 -358 -407 1398 0
-348 -358 -408 1399 0
-348 -359 -400 1354 0
-348 -359 -401 1375 0
-348 -359 -403 1395 0
-348 -359 -405 1400 0
-348 -359 -406 1401 0
-348 -359 -407 1402 0
-348 -359 -408 1403 0
-348 -360 -400 1355 0
-348 -360 -401 1376 0
-348 -360 -403 1396 0
-348 -360 -404 1400 0
-348 -360 -406 1404 0
-348 -360 -407 1405 0
-348 -360 -408 1406 0
-348 -361 -400 1356 0
-348 -361 -401 1377 0
-348 -361 -403 1397 0
-348 -361 -404 1401 0
-348 -361 -405 1404 0
-348 -361 -407 1407 0
-348 -361 -408 1408 0
-348 -362 -400 1357 0
-348 -362 -401 1378 0
-348 -362 -403 1398 0
-348 -362 -404 1402 0
-348 -362 -405 1405 0
-348 -362 -406 1407 0
-348 -362 -408 1409 0
-348 -363 -400 1358 0
-348 -363 -401 1379 0
-348 -363 -403 1399 0
-348 -363 -404 1403 0
-348 -363 -405 1406 0
-348 -363 -406 1408 0
-348 -363 -407 1409 0
-349 -355 -401 1347 0
-349 -355 -402 1353 0
-349 -355 -404 1359 0
-349 -355 -405 1360 0
-349 -355 -406 1361 0
-349 -355 -407 1362 0
-349 -355 -408 1363 0
-349 -356 -400 1347 0
-349 -356 -402 1374 0
-349 -356 -404 1380 0
-349 -356 -405 1381 0
-349 -356 -406 1382 0
-349 -356 -407 1383 0
-349 -356 -408 1384 0
-349 -357 -400 1353 0
-349 -357 -401 1374 0
-349 -357 -404 1395 0
-349 -357 -405 1396 0
-349 -357 -406 1397 0
-349 -357 -407 1398 0
-349 -357 -408 1399 0
-349 -359 -400 1359 0
-349 -359 -401 1380 0
-349 -359 -402 1395 0
-349 -359 -405 1410 0
-349 -359 -406 1411 0
-349 -359 -407 1412 0
-349 -359 -408 1413 0
-349 -360 -400 1360 0
-349 -360 -401 1381 0
-349 -360 -402 1396 0
-349 -360 -404 1410 0
-349 -360 -406 1414 0
-349 -360 -407 1415 0
-349 -360 -408 1416 0
-349 -361 -400 1361 0
-349 -361 -401 1382 0
-349 -361 -402 1397 0
-349 -361 -404 1411 0
-349 -361 -405 1414 0
-349 -361 -407 1417 0
-349 -361 -408 1418 0
-349 -362 -400 1362 0
-349 -362 -401 1383 0
-349 -362 -402 1398 0
-349 -362 -404 1412 0
-349 -362 -405 1415 0
-349 -362 -406 1417 0
-349 -362 -408 1419 0
-349 -363 -400 1363 0
-349 -363 -401 1384 0
-349 -363 -402 1399 0
-349 -363 -404 1413 0
-349 -363 -405 1416 0
-349 -363 -406 1418 0
-349 -363 -407 1419 0
-350 -355 -401 1348 0
-350 -355 -402 1354 0
-350 -355 -403 1359 0
-350 -355 -405 1364 0
-350 -355 -406 1365 0
-350 -355 -407 1366 0
-350 -355 -408 1367 0
-350 -356 -400 1348 0
-350 -356 -402 1375 0
-350 -356 -403 1380 0
-350 -356 -405 1385 0
-350 -356 -406 1386 0
-350 -356 -407 1387 0
-350 -356 -408 1388 0
-350 -357 -400 1354 0
-350 -357 -401 1375 0
-350 -357 -403 1395 0
-350 -357 -405 1400 0
-350 -357 -406 1401 0
-350 -357 -407 1402 0
-350 -357 -408 1403 0
-350 -358 -400 1359 0
-350 -358 -401 1380 0
-350 -358 -402 1395 0
-350 -358 -405 1410 0
-350 -358 -406 1411 0
-350 -358 -407 1412 0
-350 -358 -408 1413 0
-350 -360 -400 1364 0
-350 -360 -401 1385 0
-350 -360 -402 1400 0
-350 -360 -403 1410 0
-350 -360 -406 1420 0
-350 -360 -407 1421 0
-350 -360 -408 1422 0
-350 -361 -400 1365 0
-350 -361 -401 1386 0
-350 -361 -402 1401 0
-350 -361 -403 1411 0
-350 -361 -405 1420 0
-350 -361 -407 1423 0
-350 -361 -408 1424 0
-350 -362 -400 1366 0
-350 -362 -401 1387 0
-350 -362 -402 1402 0
-350 -362 -403 1412 0
-350 -362 -405 1421 0
-350 -362 -406 1423 0
-350 -362 -408 1425 0
-350 -363 -400 1367 0
-350 -363 -401 1388 0
-350 -363 -402 1403 0
-350 -363 -403 1413 0
-350 -363 -405 1422 0
-350 -363 -406 1424 0
-350 -363 -407 1425 0
-351 -355 -401 1349 0
-351 -355 -402 1355 0
-351 -355 -403 1360 0
-351 -355 -404 1364 0
-351 -355 -406 1368 0
-351 -355 -407 1369 0
-351 -355 -408 1370 0
-351 -356 -400 1349 0
-351 -356 -402 1376 0
-351 -356 -403 1381 0
-351 -356 -404 1385 0
-351 -356 -406 1389 0
-351 -356 -407 1390 0
-351 -356 -408 1391 0
-351 -357 -400 1355 0
-351 -357 -401 1376 0
-351 -357 -403 1396 0
-351 -357 -404 1400 0
-351 -357 -406 1404 0
-351 -357 -407 1405 0
-351 -357 -408 1406 0
-351 -358 -400 1360 0
-351 -358 -401 1381 0
-351 -358 -402 1396 0
-351 -358 -404 1410 0
-351 -358 -406 1414 0
-351 -358 -407 1415 0
-351 -358 -408 1416 0
-351 -359 -400 1364 0
-351 -359 -401 1385 0
-351 -359 -402 1400 0
-351 -359 -403 1410 0
-351 -359 -406 1420 0
-351 -359 -407 1421 0
-351 -359 -408 1422 0
-351 -361 -400 1368 0
-351 -361 -401 1389 0
-351 -361 -402 1404 0
-351 -361 -403 1414 0
-351 -361 -404 1420 0
-351 -361 -407 1426 0
-351 -361 -408 1427 0
-351 -362 -400 1369 0
-351 -362 -401 1390 0
-351 -362 -402 1405 0
-351 -362 -403 1415 0
-351 -362 -404 1421 0
-351 -362 -406 1426 0
-351 -362 -408 1428 0
-351 -363 -400 1370 0
-351 -363 -401 1391 0
-351 -363 -402 1406 0
-351 -363 -403 1416 0
-351 -363 -404 1422 0
-351 -363 -406 1427 0
-351 -363 -407 1428 0
-352 -355 -401 1350 0
-352 -355 -402 1356 0
-352 -355 -403 1361 0
-352 -355 -404 1365 0
-352 -355 -405 1368 0
-352 -355 -407 1371 0
-352 -355 -408 1372 0
-352 -356 -400 1350 0
-352 -356 -402 1377 0
-352 -356 -403 1382 0
-352 -356 -404 1386 0
-352 -356 -405 1389 0
-352 -356 -407 1392 0
-352 -356 -408 1393 0
-352 -357 -400 1356 0
-352 -357 -401 1377 0
-352 -357 -403 1397 0
-352 -357 -404 1401 0
-352 -357 -405 1404 0
-352 -357 -407 1407 0
-352 -357 -408 1408 0
-352 -358 -400 1361 0
-352 -358 -401 1382 0
-352 -358 -402 1397 0
-352 -358 -404 1411 0
-352 -358 -405 1414 0
-352 -358 -407 1417 0
-352 -358 -408 1418 0
-352 -359 -400 1365 0
-352 -359 -401 1386 0
-352 -359 -402 1401 0
-352 -359 -403 1411 0
-352 -359 -405 1420 0
-352 -359 -407 1423 0
-352 -359 -408 1424 0
-352 -360 -400 1368 0
-352 -360 -401 1389 0
-352 -360 -402 1404 0
-352 -360 -403 1414 0
-352 -360 -404 1420 0
-352 -360 -407 1426 0
-352 -360 -408 1427 0
-352 -362 -400 1371 0
-352 -362 -401 1392 0
-352 -362 -402 1407 0
-352 -362 -403 1417 0
-352 -362 -404 1423 0
-352 -362 -405 1426 0
-352 -362 -408 1429 0
-352 -363 -400 1372 0
-352 -363 -401 1393 0
-352 -363 -402 1408 0
-352 -363 -403 1418 0
-352 -363 -404 1424 0
-352 -363 -405 1427 0
-352 -363 -407 1429 0
-353 -355 -401 1351 0
-353 -355 -402 1357 0
-353 -355 -403 1362 0
-353 -355 -404 1366 0
-353 -355 -405 1369 0
-353 -355 -406 1371 0
-353 -355 -408 1373 0
-353 -356 -400 1351 0
-353 -356 -402 1378 0
-353 -356 -403 1383 0
-353 -356 -404 1387 0
-353 -356 -405 1390 0
-353 -356 -406 1392 0
-353 -356 -408 1394 0
-353 -357 -400 1357 0
-353 -357 -401 1378 0
-353 -357 -403 1398 0
-353 -357 -404 1402 0
-353 -357 -405 1405 0
-353 -357 -406 1407 0
-353 -357 -408 1409 0
-353 -358 -400 1362 0
-353 -358 -401 1383 0
-353 -358 -402 1398 0
-353 -358 -404 1412 0
-353 -358 -405 1415 0
-353 -358 -406 1417 0
-353 -358 -408 1419 0
-353 -359 -400 1366 0
-353 -359 -401 1387 0
-353 -359 -402 1402 0
-353 -359 -403 1412 0
-353 -359 -405 1421 0
-353 -359 -406 1423 0
-353 -359 -408 1425 0
-353 -360 -400 1369 0
-353 -360 -401 1390 0
-353 -360 -402 1405 0
-353 -360 -403 1415 0
-353 -360 -404 1421 0
-353 -360 -406 1426 0
-353 -360 -408 1428 0
-353 -361 -400 1371 0
-353 -361 -401 1392 0
-353 -361 -402 1407 0
-353 -361 -403 1417 0
-353 -361 -404 1423 0
-353 -361 -405 1426 0
-353 -361 -408 1429 0
-353 -363 -400 1373 0
-353 -363 -401 1394 0
-353 -363 -402 1409 0
-353 -363 -403 1419 0
-353 -363 -404 1425 0
-353 -363 -405 1428 0
-353 -363 -406 1429 0
-354 -355 -401 1352 0
-354 -355 -402 1358 0
-354 -355 -403 1363 0
-354 -355 -404 1367 0
-354 -355 -405 1370 0
-354 -355 -406 1372 0
-354 -355 -407 1373 0
-354 -356 -400 1352 0
-354 -356 -402 1379 0
-354 -356 -403 1384 0
-354 -356 -404 1388 0
-354 -356 -405 1391 0
-354 -356 -406 1393 0
-354 -356 -407 1394 0
-354 -357 -400 1358 0
-354 -357 -401 1379 0
-354 -357 -403 1399 0
-354 -357 -404 1403 0
-354 -357 -405 1406 0
-354 -357 -406 1408 0
-354 -357 -407 1409 0
-354 -358 -400 1363 0
-354 -358 -401 1384 0
-354 -358 -402 1399 0
-354 -358 -404 1413 0
-354 -358 -405 1416 0
-354 -358 -406 1418 0
-354 -358 -407 1419 0
-354 -359 -400 1367 0
-354 -359 -401 1388 0
-354 -359 -402 1403 0
-354 -359 -403 1413 0
-354 -359 -405 1422 0
-354 -359 -406 1424 0
-354 -359 -407 1425 0
-354 -360 -400 1370 0
-354 -360 -401 1391 0
-354 -360 -402 1406 0
-354 -360 -403 1416 0
-354 -360 -404 1422 0
-354 -360 -406 1427 0
-354 -360 -407 1428 0
-354 -361 -400 1372 0
-354 -361 -401 1393 0
-354 -361 -402 1408 0
-354 -361 -403 1418 0
-354 -361 -404 1424 0
-354 -361 -405 1427 0
-354 -361 -407 1429 0
-354 -362 -400 1373 0
-354 -362 -401 1394 0
-354 -362 -402 1409 0
-354 -362 -403 1419 0
-354 -362 -404 1425 0
-354 -362 -405 1428 0
-354 -362 -406 1429 0
-1430 -346 -356 -402 253 0
-1430 -346 -356 -403 254 0
-1430 -346 -356 -404 255 0
-1430 -346 -356 -405 256 0
-1430 -346 -356 -406 257 0
-1430 -346 -356 -407 258 0
-1430 -346 -356 -408 259 0
-1430 -346 -357 -401 253 0
-1430 -346 -357 -403 260 0
-1430 -346 -357 -404 261 0
-1430 -346 -357 -405 262 0
-1430 -346 -357 -406 263 0
-1430 -346 -357 -407 264 0
-1430 -346 -357 -408 265 0
-1430 -346 -358 -401 254 0
-1430 -346 -358 -402 260 0
-1430 -346 -358 -404 266 0
-1430 -346 -358 -405 267 0
-1430 -346 -358 -406 268 0
-1430 -346 -358 -407 269 0
-1430 -346 -358 -408 270 0
-1430 -346 -359 -401 255 0
-1430 -346 -359 -402 261 0
-1430 -346 -359 -403 266 0
-1430 -346 -359 -405 271 0
-1430 -346 -359 -406 272 0
-1430 -346 -359 -407 273 0
-1430 -346 -359 -408 274 0
-1430 -346 -360 -401 256 0
-1430 -346 -360 -402 262 0
-1430 -346 -360 -403 267 0
-1430 -346 -360 -404 271 0
-1430 -346 -360 -406 275 0
-1430 -346 -360 -407 276 0
-1430 -346 -360 -408 277 0
-1430 -346 -361 -401 257 0
-1430 -346 -361 -402 263 0
-1430 -346 -361 -403 268 0
-1430 -346 -361 -404 272 0
-1430 -346 -361 -405 275 0
-1430 -346 -361 -407 278 0
-1430 -346 -361 -408 279 0
-1430 -346 -362 -401 258 0
-1430 -346 -362 -402 264 0
-1430 -346 -362 -403 269 0
-1430 -346 -362 -404 273 0
-1430 -346 -362 -405 276 0
-1430 -346 -362 -406 278 0
-1430 -346 -362 -408 280 0
-1430 -346 -363 -401 259 0
-1430 -346 -363 -402 265 0
-1430 -346 -363 -403 270 0
-1430 -346 -363 -404 274 0
-1430 -346 -363 -405 277 0
-1430 -346 -363 -406 279 0
-1430 -346 -363 -407 280 0
-1430 -347 -355 -402 253 0
-1430 -347 -355 -403 254 0
-1430 -347 -355 -404 255 0
-1430 -347 -355 -405 256 0
-1430 -347 -355 -406 257 0
-1430 -347 -355 -407 258 0
-1430 -347 -355 -408 259 0
-1430 -347 -357 -400 253 0
-1430 -347 -357 -403 281 0
-1430 -347 -357 -404 282 0
-1430 -347 -357 -405 283 0
-1430 -347 -357 -406 284 0
-1430 -347 -357 -407 285 0
-1430 -347 -357 -408 286 0
-1430 -347 -358 -400 254 0
-1430 -347 -358 -402 281 0
-1430 -347 -358 -404 287 0
-1430 -347 -358 -405 288 0
-1430 -347 -358 -406 289 0
-1430 -347 -358 -407 290 0
-1430 -347 -358 -408 291 0
-1430 -347 -359 -400 255 0
-1430 -347 -359 -402 282 0
-1430 -347 -359 -403 287 0
-1430 -347 -359 -405 292 0
-1430 -347 -359 -406 293 0
-1430 -347 -359 -407 294 0
-1430 -347 -359 -408 295 0
-1430 -347 -360 -400 256 0
-1430 -347 -360 -402 283 0
-1430 -347 -360 -403 288 0
-1430 -347 -360 -404 292 0
-1430 -347 -360 -406 296 0
-1430 -347 -360 -407 297 0
-1430 -347 -360 -408 298 0
-1430 -347 -361 -400 257 0
-1430 -347 -361 -402 284 0
-1430 -347 -361 -403 289 0
-1430 -347 -361 -404 293 0
-1430 -347 -361 -405 296 0
-1430 -347 -361 -407 299 0
-1430 -347 -361 -408 300 0
-1430 -347 -362 -400 258 0
-1430 -347 -362 -402 285 0
-1430 -347 -362 -403 290 0
-1430 -347 -362 -404 294 0
-1430 -347 -362 -405 297 0
-1430 -347 -362 -406 299 0
-1430 -347 -362 -408 301 0
-1430 -347 -363 -400 259 0
-1430 -347 -363 -402 286 0
-1430 -347 -363 -403 291 0
-1430 -347 -363 -404 295 0
-1430 -347 -363 -405 298 0
-1430 -347 -363 -406 300 0
-1430 -347 -363 -407 301 0
-1430 -348 -355 -401 253 0
-1430 -348 -355 -403 260 0
-1430 -348 -355 -404 261 0
-1430 -348 -355 -405 262 0
-1430 -348 -355 -406 263 0
-1430 -348 -355 -407 264 0
-1430 -348 -355 -408 265 0
-1430 -348 -356 -400 253 0
-1430 -348 -356 -403 281 0
-1430 -348 -356 -404 282 0
-1430 -348 -356 -405 283 0
-1430 -348 -356 -406 284 0
-1430 -348 -356 -407 285 0
-1430 -348 -356 -408 286 0
-1430 -348 -358 -400 260 0
-1430 -348 -358 -401 281 0
-1430 -348 -358 -404 302 0
-1430 -348 -358 -405 303 0
-1430 -348 -358 -406 304 0
-1430 -348 -358 -407 305 0
-1430 -348 -358 -408 306 0
-1430 -348 -359 -400 261 0
-1430 -348 -359 -401 282 0
-1430 -348 -359 -403 302 0
-1430 -348 -359 -405 307 0
-1430 -348 -359 -406 308 0
-1430 -348 -359 -407 309 0
-1430 -348 -359 -408 310 0
-1430 -348 -360 -400 262 0
-1430 -348 -360 -401 283 0
-1430 -348 -360 -403 303 0
-1430 -348 -360 -404 307 0
-1430 -348 -360 -406 311 0
-1430 -348 -360 -407 312 0
-1430 -348 -360 -408 313 0
-1430 -348 -361 -400 263 0
-1430 -348 -361 -401 284 0
-1430 -348 -361 -403 304 0
-1430 -348 -361 -404 308 0
-1430 -348 -361 -405 311 0
-1430 -348 -361 -407 314 0
-1430 -348 -361 -408 315 0
-1430 -348 -362 -400 264 0
-1430 -348 -362 -401 285 0
-1430 -348 -362 -403 305 0
-1430 -348 -362 -404 309 0
-1430 -348 -362 -405 312 0
-1430 -348 -362 -406 314 0
-1430 -348 -362 -408 316 0
-1430 -348 -363 -400 265 0
-1430 -348 -363 -401 286 0
-1430 -348 -363 -403 306 0
-1430 -348 -363 -404 310 0
-1430 -348 -363 -405 313 0
-1430 -348 -363 -406 315 0
-1430 -348 -363 -407 316 0
-1430 -349 -355 -401 254 0
-1430 -349 -355 -402 260 0
-1430 -349 -355 -404 266 0
-1430 -349 -355 -405 267 0
-1430 -349 -355 -406 268 0
-1430 -349 -355 -407 269 0
-1430 -349 -355 -408 270 0
-1430 -349 -356 -400 254 0
-1430 -349 -356 -402 281 0
-1430 -349 -356 -404 287 0
-1430 -349 -356 -405 288 0
-1430 -349 -356 -406 289 0
-1430 -349 -356 -407 290 0
-1430 -349 -356 -408 291 0
-1430 -349 -357 -400 260 0
-1430 -349 -357 -401 281 0
-1430 -349 -357 -404 302 0
-1430 -349 -357 -405 303 0
-1430 -349 -357 -406 304 0
-1430 -349 -357 -407 305 0
-1430 -349 -357 -408 306 0
-1430 -349 -359 -400 266 0
-1430 -349 -359 -401 287 0
-1430 -349 -359 -402 302 0
-1430 -349 -359 -405 317 0
-1430 -349 -359 -406 318 0
-1430 -349 -359 -407 319 0
-1430 -349 -359 -408 320 0
-1430 -349 -360 -400 267 0
-1430 -349 -360 -401 288 0
-1430 -349 -360 -402 303 0
-1430 -349 -360 -404 317 0
-1430 -349 -360 -406 321 0
-1430 -349 -360 -407 322 0
-1430 -349 -360 -408 323 0
-1430 -349 -361 -400 268 0
-1430 -349 -361 -401 289 0
-1430 -349 -361 -402 304 0
-1430 -349 -361 -404 318 0
-1430 -349 -361 -405 321 0
-1430 -349 -361 -407 324 0
-1430 -349 -361 -408 325 0
-1430 -349 -362 -400 269 0
-1430 -349 -362 -401 290 0
-1430 -349 -362 -402 305 0
-1430 -349 -362 -404 319 0
-1430 -349 -362 -405 322 0
-1430 -349 -362 -406 324 0
-1430 -349 -362 -408 326 0
-1430 -349 -363 -400 270 0
-1430 -349 -363 -401 291 0
-1430 -349 -363 -402 306 0
-1430 -349 -363 -404 320 0
-1430 -349 -363 -405 323 0
-1430 -349 -363 -406 325 0
-1430 -349 -363 -407 326 0
-1430 -350 -355 -401 255 0
-1430 -350 -355 -402 261 0
-1430 -350 -355 -403 266 0
-1430 -350 -355 -405 271 0
-1430 -350 -355 -406 272 0
-1430 -350 -355 -407 273 0
-1430 -350 -355 -408 274 0
-1430 -350 -356 -400 255 0
-1430 -350 -356 -402 282 0
-1430 -350 -356 -403 287 0
-1430 -350 -356 -405 292 0
-1430 -350 -356 -406 293 0
-1430 -350 -356 -407 294 0
-1430 -350 -356 -408 295 0
-1430 -350 -357 -400 261 0
-1430 -350 -357 -401 282 0
-1430 -350 -357 -403 302 0
-1430 -350 -357 -405 307 0
-1430 -350 -357 -406 308 0
-1430 -350 -357 -407 309 0
-1430 -350 -357 -408 310 0
-1430 -350 -358 -400 266 0
-1430 -350 -358 -401 287 0
-1430 -350 -358 -402 302 0
-1430 -350 -358 -405 317 0
-1430 -350 -358 -406 318 0
-1430 -350 -358 -407 319 0
-1430 -350 -358 -408 320 0
-1430 -350 -360 -400 271 0
-1430 -350 -360 -401 292 0
-1430 -350 -360 -402 307 0
-1430 -350 -360 -403 317 0
-1430 -350 -360 -406 327 0
-1430 -350 -360 -407 328 0
-1430 -350 -360 -408 329 0
-1430 -350 -361 -400 272 0
-1430 -350 -361 -401 293 0
-1430 -350 -361 -402 308 0
-1430 -350 -361 -403 318 0
-1430 -350 -361 -405 327 0
-1430 -350 -361 -407 330 0
-1430 -350 -361 -408 331 0
-1430 -350 -362 -400 273 0
-1430 -350 -362 -401 294 0
-1430 -350 -362 -402 309 0
-1430 -350 -362 -403 319 0
-1430 -350 -362 -405 328 0
-1430 -350 -362 -406 330 0
-1430 -350 -362 -408 332 0
-1430 -350 -363 -400 274 0
-1430 -350 -363 -401 295 0
-1430 -350 -363 -402 310 0
-1430 -350 -363 -403 320 0
-1430 -350 -363 -405 329 0
-1430 -350 -363 -406 331 0
-1430 -350 -363 -407 332 0
-1430 -351 -355 -401 256 0
-1430 -351 -355 -402 262 0
-1430 -351 -355 -403 267 0
-1430 -351 -355 -404 271 0
-1430 -351 -355 -406 275 0
-1430 -351 -355 -407 276 0
-1430 -351 -355 -408 277 0
-1430 -351 -356 -400 256 0
-1430 -351 -356 -402 283 0
-1430 -351 -356 -403 288 0
-1430 -351 -356 -404 292 0
-1430 -351 -356 -406 296 0
-1430 -351 -356 -407 297 0
-1430 -351 -356 -408 298 0
-1430 -351 -357 -400 262 0
-1430 -351 -357 -401 283 0
-1430 -351 -357 -403 303 0
-1430 -351 -357 -404 307 0
-1430 -351 -357 -406 311 0
-1430 -351 -357 -407 312 0
-1430 -351 -357 -408 313 0
-1430 -351 -358 -400 267 0
-1430 -351 -358 -401 288 0
-1430 -351 -358 -402 303 0
-1430 -351 -358 -404 317 0
-1430 -351 -358 -406 321 0
-1430 -351 -358 -407 322 0
-1430 -351 -358 -408 323 0
-1430 -351 -359 -400 271 0
-1430 -351 -359 -401 292 0
-1430 -351 -359 -402 307 0
-1430 -351 -359 -403 317 0
-1430 -351 -359 -406 327 0
-1430 -351 -359 -407 328 0
-1430 -351 -359 -408 329 0
-1430 -351 -361 -400 275 0
-1430 -351 -361 -401 296 0
-1430 -351 -361 -402 311 0
-1430 -351 -361 -403 321 0
-1430 -351 -361 -404 327 0
-1430 -351 -361 -407 333 0
-1430 -351 -361 -408 334 0
-1430 -351 -362 -400 276 0
-1430 -351 -362 -401 297 0
-1430 -351 -362 -402 312 0
-1430 -351 -362 -403 322 0
-1430 -351 -362 -404 328 0
-1430 -351 -362 -406 333 0
-1430 -351 -362 -408 335 0
-1430 -351 -363 -400 277 0
-1430 -351 -363 -401 298 0
-1430 -351 -363 -402 313 0
-1430 -351 -363 -403 323 0
-1430 -351 -363 -404 329 0
-1430 -351 -363 -406 334 0
-1430 -351 -363 -407 335 0
-1430 -352 -355 -401 257 0
-1430 -352 -355 -402 263 0
-1430 -352 -355 -403 268 0
-1430 -352 -355 -404 272 0
-1430 -352 -355 -405 275 0
-1430 -352 -355 -407 278 0
-1430 -352 -355 -408 279 0
-1430 -352 -356 -400 257 0
-1430 -352 -356 -402 284 0
-1430 -352 -356 -403 289 0
-1430 -352 -356 -404 293 0
-1430 -352 -356 -405 296 0
-1430 -352 -356 -407 299 0
-1430 -352 -356 -408 300 0
-1430 -352 -357 -400 263 0
-1430 -352 -357 -401 284 0
-1430 -352 -357 -403 304 0
-1430 -352 -357 -404 308 0
-1430 -352 -357 -405 311 0
-1430 -352 -357 -407 314 0
-1430 -352 -357 -408 315 0
-1430 -352 -358 -400 268 0
-1430 -352 -358 -401 289 0
-1430 -352 -358 -402 304 0
-1430 -352 -358 -404 318 0
-1430 -352 -358 -405 321 0
-1430 -352 -358 -407 324 0
-1430 -352 -358 -408 325 0
-1430 -352 -359 -400 272 0
-1430 -352 -359 -401 293 0
-1430 -352 -359 -402 308 0
-1430 -352 -359 -403 318 0
-1430 -352 -359 -405 327 0
-1430 -352 -359 -407 330 0
-1430 -352 -359 -408 331 0
-1430 -352 -360 -400 275 0
-1430 -352 -360 -401 296 0
-1430 -352 -360 -402 311 0
-1430 -352 -360 -403 321 0
-1430 -352 -360 -404 327 0
-1430 -352 -360 -407 333 0
-1430 -352 -360 -408 334 0
-1430 -352 -362 -400 278 0
-1430 -352 -362 -401 299 0
-1430 -352 -362 -402 314 0
-1430 -352 -362 -403 324 0
-1430 -352 -362 -404 330 0
-1430 -352 -362 -405 333 0
-1430 -352 -362 -408 336 0
-1430 -352 -363 -400 279 0
-1430 -352 -363 -401 300 0
-1430 -352 -363 -402 315 0
-1430 -352 -363 -403 325 0
-1430 -352 -363 -404 331 0
-1430 -352 -363 -405 334 0
-1430 -352 -363 -407 336 0
-1430 -353 -355 -401 258 0
-1430 -353 -355 -402 264 0
-1430 -353 -355 -403 269 0
-1430 -353 -355 -404 273 0
-1430 -353 -355 -405 276 0
-1430 -353 -355 -406 278 0
-1430 -353 -355 -408 280 0
-1430 -353 -356 -400 258 0
-1430 -353 -356 -402 285 0
-1430 -353 -356 -403 290 0
-1430 -353 -356 -404 294 0
-1430 -353 -356 -405 297 0
-1430 -353 -356 -406 299 0
-1430 -353 -356 -408 301 0
-1430 -353 -357 -400 264 0
-1430 -353 -357 -401 285 0
-1430 -353 -357 -403 305 0
-1430 -353 -357 -404 309 0
-1430 -353 -357 -405 312 0
-1430 -353 -357 -406 314 0
-1430 -353 -357 -408 316 0
-1430 -353 -358 -400 269 0
-1430 -353 -358 -401 290 0
-1430 -353 -358 -402 305 0
-1430 -353 -358 -404 319 0
-1430 -353 -358 -405 322 0
-1430 -353 -358 -406 324 0
-1430 -353 -358 -408 326 0
-1430 -353 -359 -400 273 0
-1430 -353 -359 -401 294 0
-1430 -353 -359 -402 309 0
-1430 -353 -359 -403 319 0
-1430 -353 -359 -405 328 0
-1430 -353 -359 -406 330 0
-1430 -353 -359 -408 332 0
-1430 -353 -360 -400 276 0
-1430 -353 -360 -401 297 0
-1430 -353 -360 -402 312 0
-1430 -353 -360 -403 322 0
-1430 -353 -360 -404 328 0
-1430 -353 -360 -406 333 0
-1430 -353 -360 -408 335 0
-1430 -353 -361 -400 278 0
-1430 -353 -361 -401 299 0
-1430 -353 -361 -402 314 0
-1430 -353 -361 -403 324 0
-1430 -353 -361 -404 330 0
-1430 -353 -361 -405 333 0
-1430 -353 -361 -408 336 0
-1430 -353 -363 -400 280 0
-1430 -353 -363 -401 301 0
-1430 -353 -363 -402 316 0
-1430 -353 -363 -403 326 0
-1430 -353 -363 -404 332 0
-1430 -353 -363 -405 335 0
-1430 -353 -363 -406 336 0
-1430 -354 -355 -401 259 0
-1430 -354 -355 -402 265 0
-1430 -354 -355 -403 270 0
-1430 -354 -355 -404 274 0
-1430 -354 -355 -405 277 0
-1430 -354 -355 -406 279 0
-1430 -354 -355 -407 280 0
-1430 -354 -356 -400 259 0
-1430 -354 -356 -402 286 0
-1430 -354 -356 -403 291 0
-1430 -354 -356 -404 295 0
-1430 -354 -356 -405 298 0
-1430 -354 -356 -406 300 0
-1430 -354 -356 -407 301 0
-1430 -354 -357 -400 265 0
-1430 -354 -357 -401 286 0
-1430 -354 -357 -403 306 0
-1430 -354 -357 -404 310 0
-1430 -354 -357 -405 313 0
-1430 -354 -357 -406 315 0
-1430 -354 -357 -407 316 0
-1430 -354 -358 -400 270 0
-1430 -354 -358 -401 291 0
-1430 -354 -358 -402 306 0
-1430 -354 -358 -404 320 0
-1430 -354 -358 -405 323 0
-1430 -354 -358 -406 325 0
-1430 -354 -358 -407 326 0
-1430 -354 -359 -400 274 0
-1430 -354 -359 -401 295 0
-1430 -354 -359 -402 310 0
-1430 -354 -359 -403 320 0
-1430 -354 -359 -405 329 0
-1430 -354 -359 -406 331 0
-1430 -354 -359 -407 332 0
-1430 -354 -360 -400 277 0
-1430 -354 -360 -401 298 0
-1430 -354 -360 -402 313 0
-1430 -354 -360 -403 323 0
-1430 -354 -360 -404 329 0
-1430 -354 -360 -406 334 0
-1430 -354 -360 -407 335 0
-1430 -354 -361 -400 279 0
-1430 -354 -361 -401 300 0
-1430 -354 -361 -402 315 0
-1430 -354 -361 -403 325 0
-1430 -354 -361 -404 331 0
-1430 -354 -361 -405 334 0
-1430 -354 -361 -407 336 0
-1430 -354 -362 -400 280 0
-1430 -354 -362 -401 301 0
-1430 -354 -362 -402 316 0
-1430 -354 -362 -403 326 0
-1430 -354 -362 -404 332 0
-1430 -354 -362 -405 335 0
-1430 -354 -362 -406 336 0
1430 0
-337 -356 -411 1431 0
-337 -356 -412 1432 0
-337 -356 -413 1433 0
-337 -356 -414 1434 0
-337 -356 -415 1435 0
-337 -356 -416 1436 0
-337 -356 -417 1437 0
-337 -357 -410 1431 0
-337 -357 -412 1438 0
-337 -357 -413 1439 0
-337 -357 -414 1440 0
-337 -357 -415 1441 0
-337 -357 -416 1442 0
-337 -357 -417 1443 0
-337 -358 -410 1432 0
-337 -358 -411 1438 0
-337 -358 -413 1444 0
-337 -358 -414 1445 0
-337 -358 -415 1446 0
-337 -358 -416 1447 0
-337 -358 -417 1448 0
-337 -359 -410 1433 0
-337 -359 -411 1439 0
-337 -359 -412 1444 0
-337 -359 -414 1449 0
-337 -359 -415 1450 0
-337 -359 -416 1451 0
-337 -359 -417 1452 0
-337 -360 -410 1434 0
-337 -360 -411 1440 0
-337 -360 -412 1445 0
-337 -360 -413 1449 0
-337 -360 -415 1453 0
-337 -360 -416 1454 0
-337 -360 -417 1455 0
-337 -361 -410 1435 0
-337 -361 -411 1441 0
-337 -361 -412 1446 0
-337 -361 -413 1450 0
-337 -361 -414 1453 0
-337 -361 -416 1456 0
-337 -361 -417 1457 0
-337 -362 -410 1436 0
-337 -362 -411 1442 0
-337 -362 -412 1447 0
-337 -362 -413 1451 0
-337 -362 -414 1454 0
-337 -362 -415 1456 0
-337 -362 -417 1458 0
-337 -363 -410 1437 0
-337 -363 -411 1443 0
-337 -363 -412 1448 0
-337 -363 -413 1452 0
-337 -363 -414 1455 0
-337 -363 -415 1457 0
-337 -363 -416 1458 0
-338 -355 -411 1431 0
-338 -355 -412 1432 0
-338 -355 -413 1433 0
-338 -355 -414 1434 0
-338 -355 -415 1435 0
-338 -355 -416 1436 0
-338 -355 -417 1437 0
-338 -357 -409 1431 0
-338 -357 -412 1459 0
-338 -357 -413 1460 0
-338 -357 -414 1461 0
-338 -357 -415 1462 0
-338 -357 -416 1463 0
-338 -357 -417 1464 0
-338 -358 -409 1432 0
-338 -358 -411 1459 0
-338 -358 -413 1465 0
-338 -358 -414 1466 0
-338 -358 -415 1467 0
-338 -358 -416 1468 0
-338 -358 -417 1469 0
-338 -359 -409 1433 0
-338 -359 -411 1460 0
-338 -359 -412 1465 0
-338 -359 -414 1470 0
-338 -359 -415 1471 0
-338 -359 -416 1472 0
-338 -359 -417 1473 0
-338 -360 -409 1434 0
-338 -360 -411 1461 0
-338 -360 -412 1466 0
-338 -360 -413 1470 0
-338 -360 -415 1474 0
-338 -360 -416 1475 0
-338 -360 -417 1476 0
-338 -361 -409 1435 0
-338 -361 -411 1462 0
-338 -361 -412 1467 0
-338 -361 -413 1471 0
-338 -361 -414 1474 0
-338 -361 -416 1477 0
-338 -361 -417 1478 0
-338 -362 -409 1436 0
-338 -362 -411 1463 0
-338 -362 -412 1468 0
-338 -362 -413 1472 0
-338 -362 -414 1475 0
-338 -362 -415 1477 0
-338 -362 -417 1479 0
-338 -363 -409 1437 0
-338 -363 -411 1464 0
-338 -363 -412 1469 0
-338 -363 -413 1473 0
-338 -363 -414 1476 0
-338 -363 -415 1478 0
-338 -363 -416 1479 0
-339 -355 -410 1431 0
-339 -355 -412 1438 0
-339 -355 -413 1439 0
-339 -355 -414 1440 0
-339 -355 -415 1441 0
-339 -355 -416 1442 0
-339 -355 -417 1443 0
-339 -356 -409 1431 0
-339 -356 -412 1459 0
-339 -356 -413 1460 0
-339 -356 -414 1461 0
-339 -356 -415 1462 0
-339 -356 -416 1463 0
-339 -356 -417 1464 0
-339 -358 -409 1438 0
-339 -358 -410 1459 0
-339 -358 -413 1480 0
-339 -358 -414 1481 0
-339 -358 -415 1482 0
-339 -358 -416 1483 0
-339 -358 -417 1484 0
-339 -359 -409 1439 0
-339 -359 -410 1460 0
-339 -359 -412 1480 0
-339 -359 -414 1485 0
-339 -359 -415 1486 0
-339 -359 -416 1487 0
-339 -359 -417 1488 0
-339 -360 -409 1440 0
-339 -360 -410 1461 0
-339 -360 -412 1481 0
-339 -360 -413 1485 0
-339 -360 -415 1489 0
-339 -360 -416 1490 0
-339 -360 -417 1491 0
-339 -361 -409 1441 0
-339 -361 -410 1462 0
-339 -361 -412 1482 0
-339 -361 -413 1486 0
-339 -361 -414 1489 0
-339 -361 -416 1492 0
-339 -361 -417 1493 0
-339 -362 -409 1442 0
-339 -362 -410 1463 0
-339 -362 -412 1483 0
-339 -362 -413 1487 0
-339 -362 -414 1490 0
-339 -362 -415 1492 0
-339 -362 -417 1494 0
-339 -363 -409 1443 0
-339 -363 -410 1464 0
-339 -363 -412 1484 0
-339 -363 -413 1488 0
-339 -363 -414 1491 0
-339 -363 -415 1493 0
-339 -363 -416 1494 0
-340 -355 -410 1432 0
-340 -355 -411 1438 0
-340 -355 -413 1444 0
-340 -355 -414 1445 0
-340 -355 -415 1446 0
-340 -355 -416 1447 0
-340 -355 -417 1448 0
-340 -356 -409 1432 0
-340 -356 -411 1459 0
-340 -356 -413 1465 0
-340 -356 -414 1466 0
-340 -356 -415 1467 0
-340 -356 -416 1468 0
-340 -356 -417 1469 0
-340 -357 -409 1438 0
-340 -357 -410 1459 0
-340 -357 -413 1480 0
-340 -357 -414 1481 0
-340 -357 -415 1482 0
-340 -357 -416 1483 0
-340 -357 -417 1484 0
-340 -359 -409 1444 0
-340 -359 -410 1465 0
-340 -359 -411 1480 0
-340 -359 -414 1495 0
-340 -359 -415 1496 0
-340 -359 -416 1497 0
-340 -359 -417 1498 0
-340 -360 -409 1445 0
-340 -360 -410 1466 0
-340 -360 -411 1481 0
-340 -360 -413 1495 0
-340 -360 -415 1499 0
-340 -360 -416 1500 0
-340 -360 -417 1501 0
-340 -361 -409 1446 0
-340 -361 -410 1467 0
-340 -361 -411 1482 0
-340 -361 -413 1496 0
-340 -361 -414 1499 0
-340 -361 -416 1502 0
-340 -361 -417 1503 0
-340 -362 -409 1447 0
-340 -362 -410 1468 0
-340 -362 -411 1483 0
-340 -362 -413 1497 0
-340 -362 -414 1500 0
-340 -362 -415 1502 0
-340 -362 -417 1504 0
-340 -363 -409 1448 0
-340 -363 -410 1469 0
-340 -363 -411 1484 0
-340 -363 -413 1498 0
-340 -363 -414 1501 0
-340 -363 -415 1503 0
-340 -363 -416 1504 0
-341 -355 -410 1433 0
-341 -355 -411 1439 0
-341 -355 -412 1444 0
-341 -355 -414 1449 0
-341 -355 -415 1450 0
-341 -355 -416 1451 0
-341 -355 -417 1452 0
-341 -356 -409 1433 0
-341 -356 -411 1460 0
-341 -356 -412 1465 0
-341 -356 -414 1470 0
-341 -356 -415 1471 0
-341 -356 -416 1472 0
-341 -356 -417 1473 0
-341 -357 -409 1439 0
-341 -357 -410 1460 0
-341 -357 -412 1480 0
-341 -357 -414 1485 0
-341 -357 -415 1486 0
-341 -357 -416 1487 0
-341 -357 -417 1488 0
-341 -358 -409 1444 0
-341 -358 -410 1465 0
-341 -358 -411 1480 0
-341 -358 -414 1495 0
-341 -358 -415 1496 0
-341 -358 -416 1497 0
-341 -358 -417 1498 0
-341 -360 -409 1449 0
-341 -360 -410 1470 0
-341 -360 -411 1485 0
-341 -360 -412 1495 0
-341 -360 -415 1505 0
-341 -360 -416 1506 0
-341 -360 -417 1507 0
-341 -361 -409 1450 0
-341 -361 -410 1471 0
-341 -361 -411 1486 0
-341 -361 -412 1496 0
-341 -361 -414 1505 0
-341 -361 -416 1508 0
-341 -361 -417 1509 0
-341 -362 -409 1451 0
-341 -362 -410 1472 0
-341 -362 -411 1487 0
-341 -362 -412 1497 0
-341 -362 -414 1506 0
-341 -362 -415 1508 0
-341 -362 -417 1510 0
-341 -363 -409 1452 0
-341 -363 -410 1473 0
-341 -363 -411 1488 0
-341 -363 -412 1498 0
-341 -363 -414 1507 0
-341 -363 -415 1509 0
-341 -363 -416 1510 0
-342 -355 -410 1434 0
-342 -355 -411 1440 0
-342 -355 -412 1445 0
-342 -355 -413 1449 0
-342 -355 -415 1453 0
-342 -355 -416 1454 0
-342 -355 -417 1455 0
-342 -356 -409 1434 0
-342 -356 -411 1461 0
-342 -356 -412 1466 0
-342 -356 -413 1470 0
-342 -356 -415 1474 0
-342 -356 -416 1475 0
-342 -356 -417 1476 0
-342 -357 -409 1440 0
-342 -357 -410 1461 0
-342 -357 -412 1481 0
-342 -357 -413 1485 0
-342 -357 -415 1489 0
-342 -357 -416 1490 0
-342 -357 -417 1491 0
-342 -358 -409 1445 0
-342 -358 -410 1466 0
-342 -358 -411 1481 0
-342 -358 -413 1495 0
-342 -358 -415 1499 0
-342 -358 -416 1500 0
-342 -358 -417 1501 0
-342 -359 -409 1449 0
-342 -359 -410 1470 0
-342 -359 -411 1485 0
-342 -359 -412 1495 0
-342 -359 -415 1505 0
-342 -359 -416 1506 0
-342 -359 -417 1507 0
-342 -361 -409 1453 0
-342 -361 -410 1474 0
-342 -361 -411 1489 0
-342 -361 -412 1499 0
-342 -361 -413 1505 0
-342 -361 -416 1511 0
-342 -361 -417 1512 0
-342 -362 -409 1454 0
-342 -362 -410 1475 0
-342 -362 -411 1490 0
-342 -362 -412 1500 0
-342 -362 -413 1506 0
-342 -362 -415 1511 0
-342 -362 -417 1513 0
-342 -363 -409 1455 0
-342 -363 -410 1476 0
-342 -363 -411 1491 0
-342 -363 -412 1501 0
-342 -363 -413 1507 0
-342 -363 -415 1512 0
-342 -363 -416 1513 0
-343 -355 -410 1435 0
-343 -355 -411 1441 0
-343 -355 -412 1446 0
-343 -355 -413 1450 0
-343 -355 -414 1453 0
-343 -355 -416 1456 0
-343 -355 -417 1457 0
-343 -356 -409 1435 0
-343 -356 -411 1462 0
-343 -356 -412 1467 0
-343 -356 -413 1471 0
-343 -356 -414 1474 0
-343 -356 -416 1477 0
-343 -356 -417 1478 0
-343 -357 -409 1441 0
-343 -357 -410 1462 0
-343 -357 -412 1482 0
-343 -357 -413 1486 0
-343 -357 -414 1489 0
-343 -357 -416 1492 0
-343 -357 -417 1493 0
-343 -358 -409 1446 0
-343 -358 -410 1467 0
-343 -358 -411 1482 0
-343 -358 -413 1496 0
-343 -358 -414 1499 0
-343 -358 -416 1502 0
-343 -358 -417 1503 0
-343 -359 -409 1450 0
-343 -359 -410 1471 0
-343 -359 -411 1486 0
-343 -359 -412 1496 0
-343 -359 -414 1505 0
-343 -359 -416 1508 0
-343 -359 -417 1509 0
-343 -360 -409 1453 0
-343 -360 -410 1474 0
-343 -360 -411 1489 0
-343 -360 -412 1499 0
-343 -360 -413 1505 0
-343 -360 -416 1511 0
-343 -360 -417 1512 0
-343 -362 -409 1456 0
-343 -362 -410 1477 0
-343 -362 -411 1492 0
-343 -362 -412 1502 0
-343 -362 -413 1508 0
-343 -362 -414 1511 0
-343 -362 -417 1514 0
-343 -363 -409 1457 0
-343 -363 -410 1478 0
-343 -363 -411 1493 0
-343 -363 -412 1503 0
-343 -363 -413 1509 0
-343 -363 -414 1512 0
-343 -363 -416 1514 0
-344 -355 -410 1436 0
-344 -355 -411 1442 0
-344 -355 -412 1447 0
-344 -355 -413 1451 0
-344 -355 -414 1454 0
-344 -355 -415 1456 0
-344 -355 -417 1458 0
-344 -356 -409 1436 0
-344 -356 -411 1463 0
-344 -356 -412 1468 0
-344 -356 -413 1472 0
-344 -356 -414 1475 0
-344 -356 -415 1477 0
-344 -356 -417 1479 0
-344 -357 -409 1442 0
-344 -357 -410 1463 0
-344 -357 -412 1483 0
-344 -357 -413 1487 0
-344 -357 -414 1490 0
-344 -357 -415 1492 0
-344 -357 -417 1494 0
-344 -358 -409 1447 0
-344 -358 -410 1468 0
-344 -358 -411 1483 0
-344 -358 -413 1497 0
-344 -358 -414 1500 0
-344 -358 -415 1502 0
-344 -358 -417 1504 0
-344 -359 -409 1451 0
-344 -359 -410 1472 0
-344 -359 -411 1487 0
-344 -359 -412 1497 0
-344 -359 -414 1506 0
-344 -359 -415 1508 0
-344 -359 -417 1510 0
-344 -360 -409 1454 0
-344 -360 -410 1475 0
-344 -360 -411 1490 0
-344 -360 -412 1500 0
-344 -360 -413 1506 0
-344 -360 -415 1511 0
-344 -360 -417 1513 0
-344 -361 -409 1456 0
-344 -361 -410 1477 0
-344 -361 -411 1492 0
-344 -361 -412 1502 0
-344 -361 -413 1508 0
-344 -361 -414 1511 0
-344 -361 -417 1514 0
-344 -363 -409 1458 0
-344 -363 -410 1479 0
-344 -363 -411 1494 0
-344 -363 -412 1504 0
-344 -363 -413 1510 0
-344 -363 -414 1513 0
-344 -363 -415 1514 0
-345 -355 -410 1437 0
-345 -355 -411 1443 0
-345 -355 -412 1448 0
-345 -355 -413 1452 0
-345 -355 -414 1455 0
-345 -355 -415 1457 0
-345 -355 -416 1458 0
-345 -356 -409 1437 0
-345 -356 -411 1464 0
-345 -356 -412 1469 0
-345 -356 -413 1473 0
-345 -356 -414 1476 0
-345 -356 -415 1478 0
-345 -356 -416 1479 0
-345 -357 -409 1443 0
-345 -357 -410 1464 0
-345 -357 -412 1484 0
-345 -357 -413 1488 0
-345 -357 -414 1491 0
-345 -357 -415 1493 0
-345 -357 -416 1494 0
-345 -358 -409 1448 0
-345 -358 -410 1469 0
-345 -358 -411 1484 0
-345 -358 -413 1498 0
-345 -358 -414 1501 0
-345 -358 -415 1503 0
-345 -358 -416 1504 0
-345 -359 -409 1452 0
-345 -359 -410 1473 0
-345 -359 -411 1488 0
-345 -359 -412 1498 0
-345 -359 -414 1507 0
-345 -359 -415 1509 0
-345 -359 -416 1510 0
-345 -360 -409 1455 0
-345 -360 -410 1476 0
-345 -360 -411 1491 0
-345 -360 -412 1501 0
-345 -360 -413 1507 0
-345 -360 -415 1512 0
-345 -360 -416 1513 0
-345 -361 -409 1457 0
-345 -361 -410 1478 0
-345 -361 -411 1493 0
-345 -361 -412 1503 0
-345 -361 -413 1509 0
-345 -361 -414 1512 0
-345 -361 -416 1514 0
-345 -362 -409 1458 0
-345 -362 -410 1479 0
-345 -362 -411 1494 0
-345 -362 -412 1504 0
-345 -362 -413 1510 0
-345 -362 -414 1513 0
-345 -362 -415 1514 0
-1515 -337 -356 -411 253 0
-1515 -337 -356 -412 254 0
-1515 -337 -356 -413 255 0
-1515 -337 -356 -414 256 0
-1515 -337 -356 -415 257 0
-1515 -337 -356 -416 258 0
-1515 -337 -356 -417 259 0
-1515 -337 -357 -410 253 0
-1515 -337 -357 -412 260 0
-1515 -337 -357 -413 261 0
-1515 -337 -357 -414 262 0
-1515 -337 -357 -415 263 0
-1515 -337 -357 -416 264 0
-1515 -337 -357 -417 265 0
-1515 -337 -358 -410 254 0
-1515 -337 -358 -411 260 0
-1515 -337 -358 -413 266 0
-1515 -337 -358 -414 267 0
-1515 -337 -358 -415 268 0
-1515 -337 -358 -416 269 0
-1515 -337 -358 -417 270 0
-1515 -337 -359 -410 255 0
-1515 -337 -359 -411 261 0
-1515 -337 -359 -412 266 0
-1515 -337 -359 -414 271 0
-1515 -337 -359 -415 272 0
-1515 -337 -359 -416 273 0
-1515 -337 -359 -417 274 0
-1515 -337 -360 -410 256 0
-1515 -337 -360 -411 262 0
-1515 -337 -360 -412 267 0
-1515 -337 -360 -413 271 0
-1515 -337 -360 -415 275 0
-1515 -337 -360 -416 276 0
-1515 -337 -360 -417 277 0
-1515 -337 -361 -410 257 0
-1515 -337 -361 -411 263 0
-1515 -337 -361 -412 268 0
-1515 -337 -361 -413 272 0
-1515 -337 -361 -414 275 0
-1515 -337 -361 -416 278 0
-1515 -337 -361 -417 279 0
-1515 -337 -362 -410 258 0
-1515 -337 -362 -411 264 0
-1515 -337 -362 -412 269 0
-1515 -337 -362 -413 273 0
-1515 -337 -362 -414 276 0
-1515 -337 -362 -415 278 0
-1515 -337 -362 -417 280 0
-1515 -337 -363 -410 259 0
-1515 -337 -363 -411 265 0
-1515 -337 -363 -412 270 0
-1515 -337 -363 -413 274 0
-1515 -337 -363 -414 277 0
-1515 -337 -363 -415 279 0
-1515 -337 -363 -416 280 0
-1515 -338 -355 -411 253 0
-1515 -338 -355 -412 254 0
-1515 -338 -355 -413 255 0
-1515 -338 -355 -414 256 0
-1515 -338 -355 -415 257 0
-1515 -338 -355 -416 258 0
-1515 -338 -355 -417 259 0
-1515 -338 -357 -409 253 0
-1515 -338 -357 -412 281 0
-1515 -338 -357 -413 282 0
-1515 -338 -357 -414 283 0
-1515 -338 -357 -415 284 0
-1515 -338 -357 -416 285 0
-1515 -338 -357 -417 286 0
-1515 -338 -358 -409 254 0
-1515 -338 -358 -411 281 0
-1515 -338 -358 -413 287 0
-1515 -338 -358 -414 288 0
-1515 -338 -358 -415 289 0
-1515 -338 -358 -416 290 0
-1515 -338 -358 -417 291 0
-1515 -338 -359 -409 255 0
-1515 -338 -359 -411 282 0
-1515 -338 -359 -412 287 0
-1515 -338 -359 -414 292 0
-1515 -338 -359 -415 293 0
-1515 -338 -359 -416 294 0
-1515 -338 -359 -417 295 0
-1515 -338 -360 -409 256 0
-1515 -338 -360 -411 283 0
-1515 -338 -360 -412 288 0
-1515 -338 -360 -413 292 0
-1515 -338 -360 -415 296 0
-1515 -338 -360 -416 297 0
-1515 -338 -360 -417 298 0
-1515 -338 -361 -409 257 0
-1515 -338 -361 -411 284 0
-1515 -338 -361 -412 289 0
-1515 -338 -361 -413 293 0
-1515 -338 -361 -414 296 0
-1515 -338 -361 -416 299 0
-1515 -338 -361 -417 300 0
-1515 -338 -362 -409 258 0
-1515 -338 -362 -411 285 0
-1515 -338 -362 -412 290 0
-1515 -338 -362 -413 294 0
-1515 -338 -362 -414 297 0
-1515 -338 -362 -415 299 0
-1515 -338 -362 -417 301 0
-1515 -338 -363 -409 259 0
-1515 -338 -363 -411 286 0
-1515 -338 -363 -412 291 0
-1515 -338 -363 -413 295 0
-1515 -338 -363 -414 298 0
-1515 -338 -363 -415 300 0
-1515 -338 -363 -416 301 0
-1515 -339 -355 -410 253 0
-1515 -339 -355 -412 260 0
-1515 -339 -355 -413 261 0
-1515 -339 -355 -414 262 0
-1515 -339 -355 -415 263 0
-1515 -339 -355 -416 264 0
-1515 -339 -355 -417 265 0
-1515 -339 -356 -409 253 0
-1515 -339 -356 -412 281 0
-1515 -339 -356 -413 282 0
-1515 -339 -356 -414 283 0
-1515 -339 -356 -415 284 0
-1515 -339 -356 -416 285 0
-1515 -339 -356 -417 286 0
-1515 -339 -358 -409 260 0
-1515 -339 -358 -410 281 0
-1515 -339 -358 -413 302 0
-1515 -339 -358 -414 303 0
-1515 -339 -358 -415 304 0
-1515 -339 -358 -416 305 0
-1515 -339 -358 -417 306 0
-1515 -339 -359 -409 261 0
-1515 -339 -359 -410 282 0
-1515 -339 -359 -412 302 0
-1515 -339 -359 -414 307 0
-1515 -339 -359 -415 308 0
-1515 -339 -359 -416 309 0
-1515 -339 -359 -417 310 0
-1515 -339 -360 -409 262 0
-1515 -339 -360 -410 283 0
-1515 -339 -360 -412 303 0
-1515 -339 -360 -413 307 0
-1515 -339 -360 -415 311 0
-1515 -339 -360 -416 312 0
-1515 -339 -360 -417 313 0
-1515 -339 -361 -409 263 0
-1515 -339 -361 -410 284 0
-1515 -339 -361 -412 304 0
-1515 -339 -361 -413 308 0
-1515 -339 -361 -414 311 0
-1515 -339 -361 -416 314 0
-1515 -339 -361 -417 315 0
-1515 -339 -362 -409 264 0
-1515 -339 -362 -410 285 0
-1515 -339 -362 -412 305 0
-1515 -339 -362 -413 309 0
-1515 -339 -362 -414 312 0
-1515 -339 -362 -415 314 0
-1515 -339 -362 -417 316 0
-1515 -339 -363 -409 265 0
-1515 -339 -363 -410 286 0
-1515 -339 -363 -412 306 0
-1515 -339 -363 -413 310 0
-1515 -339 -363 -414 313 0
-1515 -339 -363 -415 315 0
-1515 -339 -363 -416 316 0
-1515 -340 -355 -410 254 0
-1515 -340 -355 -411 260 0
-1515 -340 -355 -413 266 0
-1515 -340 -355 -414 267 0
-1515 -340 -355 -415 268 0
-1515 -340 -355 -416 269 0
-1515 -340 -355 -417 270 0
-1515 -340 -356 -409 254 0
-1515 -340 -356 -411 281 0
-1515 -340 -356 -413 287 0
-1515 -340 -356 -414 288 0
-1515 -340 -356 -415 289 0
-1515 -340 -356 -416 290 0
-1515 -340 -356 -417 291 0
-1515 -340 -357 -409 260 0
-1515 -340 -357 -410 281 0
-1515 -340 -357 -413 302 0
-1515 -340 -357 -414 303 0
-1515 -340 -357 -415 304 0
-1515 -340 -357 -416 305 0
-1515 -340 -357 -417 306 0
-1515 -340 -359 -409 266 0
-1515 -340 -359 -410 287 0
-1515 -340 -359 -411 302 0
-1515 -340 -359 -414 317 0
-1515 -340 -359 -415 318 0
-1515 -340 -359 -416 319 0
-1515 -340 -359 -417 320 0
-1515 -340 -360 -409 267 0
-1515 -340 -360 -410 288 0
-1515 -340 -360 -411 303 0
-1515 -340 -360 -413 317 0
-1515 -340 -360 -415 321 0
-1515 -340 -360 -416 322 0
-1515 -340 -360 -417 323 0
-1515 -340 -361 -409 268 0
-1515 -340 -361 -410 289 0
-1515 -340 -361 -411 304 0
-1515 -340 -361 -413 318 0
-1515 -340 -361 -414 321 0
-1515 -340 -361 -416 324 0
-1515 -340 -361 -417 325 0
-1515 -340 -362 -409 269 0
-1515 -340 -362 -410 290 0
-1515 -340 -362 -411 305 0
-1515 -340 -362 -413 319 0
-1515 -340 -362 -414 322 0
-1515 -340 -362 -415 324 0
-1515 -340 -362 -417 326 0
-1515 -340 -363 -409 270 0
-1515 -340 -363 -410 291 0
-1515 -340 -363 -411 306 0
-1515 -340 -363 -413 320 0
-1515 -340 -363 -414 323 0
-1515 -340 -363 -415 325 0
-1515 -340 -363 -416 326 0
-1515 -341 -355 -410 255 0
-1515 -341 -355 -411 261 0
-1515 -341 -355 -412 266 0
-1515 -341 -355 -414 271 0
-1515 -341 -355 -415 272 0
-1515 -341 -355 -416 273 0
-1515 -341 -355 -417 274 0
-1515 -341 -356 -409 255 0
-1515 -341 -356 -411 282 0
-1515 -341 -356 -412 287 0
-1515 -341 -356 -414 292 0
-1515 -341 -356 -415 293 0
-1515 -341 -356 -416 294 0
-1515 -341 -356 -417 295 0
-1515 -341 -357 -409 261 0
-1515 -341 -357 -410 282 0
-1515 -341 -357 -412 302 0
-1515 -341 -357 -414 307 0
-1515 -341 -357 -415 308 0
-1515 -341 -357 -416 309 0
-1515 -341 -357 -417 310 0
-1515 -341 -358 -409 266 0
-1515 -341 -358 -410 287 0
-1515 -341 -358 -411 302 0
-1515 -341 -358 -414 317 0
-1515 -341 -358 -415 318 0
-1515 -341 -358 -416 319 0
-1515 -341 -358 -417 320 0
-1515 -341 -360 -409 271 0
-1515 -341 -360 -410 292 0
-1515 -341 -360 -411 307 0
-1515 -341 -360 -412 317 0
-1515 -341 -360 -415 327 0
-1515 -341 -360 -416 328 0
-1515 -341 -360 -417 329 0
-1515 -341 -361 -409 272 0
-1515 -341 -361 -410 293 0
-1515 -341 -361 -411 308 0
-1515 -341 -361 -412 318 0
-1515 -341 -361 -414 327 0
-1515 -341 -361 -416 330 0
-1515 -341 -361 -417 331 0
-1515 -341 -362 -409 273 0
-1515 -341 -362 -410 294 0
-1515 -341 -362 -411 309 0
-1515 -341 -362 -412 319 0
-1515 -341 -362 -414 328 0
-1515 -341 -362 -415 330 0
-1515 -341 -362 -417 332 0
-1515 -341 -363 -409 274 0
-1515 -341 -363 -410 295 0
-1515 -341 -363 -411 310 0
-1515 -341 -363 -412 320 0
-1515 -341 -363 -414 329 0
-1515 -341 -363 -415 331 0
-1515 -341 -363 -416 332 0
-1515 -342 -355 -410 256 0
-1515 -342 -355 -411 262 0
-1515 -342 -355 -412 267 0
-1515 -342 -355 -413 271 0
-1515 -342 -355 -415 275 0
-1515 -342 -355 -416 276 0
-1515 -342 -355 -417 277 0
-1515 -342 -356 -409 256 0
-1515 -342 -356 -411 283 0
-1515 -342 -356 -412 288 0
-1515 -342 -356 -413 292 0
-1515 -342 -356 -415 296 0
-1515 -342 -356 -416 297 0
-1515 -342 -356 -417 298 0
-1515 -342 -357 -409 262 0
-1515 -342 -357 -410 283 0
-1515 -342 -357 -412 303 0
-1515 -342 -357 -413 307 0
-1515 -342 -357 -415 311 0
-1515 -342 -357 -416 312 0
-1515 -342 -357 -417 313 0
-1515 -342 -358 -409 267 0
-1515 -342 -358 -410 288 0
-1515 -342 -358 -411 303 0
-1515 -342 -358 -413 317 0
-1515 -342 -358 -415 321 0
-1515 -342 -358 -416 322 0
-1515 -342 -358 -417 323 0
-1515 -342 -359 -409 271 0
-1515 -342 -359 -410 292 0
-1515 -342 -359 -411 307 0
-1515 -342 -359 -412 317 0
-1515 -342 -359 -415 327 0
-1515 -342 -359 -416 328 0
-1515 -342 -359 -417 329 0
-1515 -342 -361 -409 275 0
-1515 -342 -361 -410 296 0
-1515 -342 -361 -411 311 0
-1515 -342 -361 -412 321 0
-1515 -342 -361 -413 327 0
-1515 -342 -361 -416 333 0
-1515 -342 -361 -417 334 0
-1515 -342 -362 -409 276 0
-1515 -342 -362 -410 297 0
-1515 -342 -362 -411 312 0
-1515 -342 -362 -412 322 0
-1515 -342 -362 -413 328 0
-1515 -342 -362 -415 333 0
-1515 -342 -362 -417 335 0
-1515 -342 -363 -409 277 0
-1515 -342 -363 -410 298 0
-1515 -342 -363 -411 313 0
-1515 -342 -363 -412 323 0
-1515 -342 -363 -413 329 0
-1515 -342 -363 -415 334 0
-1515 -342 -363 -416 335 0
-1515 -343 -355 -410 257 0
-1515 -343 -355 -411 263 0
-1515 -343 -355 -412 268 0
-1515 -343 -355 -413 272 0
-1515 -343 -355 -414 275 0
-1515 -343 -355 -416 278 0
-1515 -343 -355 -417 279 0
-1515 -343 -356 -409 257 0
-1515 -343 -356 -411 284 0
-1515 -343 -356 -412 289 0
-1515 -343 -356 -413 293 0
-1515 -343 -356 -414 296 0
-1515 -343 -356 -416 299 0
-1515 -343 -356 -417 300 0
-1515 -343 -357 -409 263 0
-1515 -343 -357 -410 284 0
-1515 -343 -357 -412 304 0
-1515 -343 -357 -413 308 0
-1515 -343 -357 -414 311 0
-1515 -343 -357 -416 314 0
-1515 -343 -357 -417 315 0
-1515 -343 -358 -409 268 0
-1515 -343 -358 -410 289 0
-1515 -343 -358 -411 304 0
-1515 -343 -358 -413 318 0
-1515 -343 -358 -414 321 0
-1515 -343 -358 -416 324 0
-1515 -343 -358 -417 325 0
-1515 -343 -359 -409 272 0
-1515 -343 -359 -410 293 0
-1515 -343 -359 -411 308 0
-1515 -343 -359 -412 318 0
-1515 -343 -359 -414 327 0
-1515 -343 -359 -416 330 0
-1515 -343 -359 -417 331 0
-1515 -343 -360 -409 275 0
-1515 -343 -360 -410 296 0
-1515 -343 -360 -411 311 0
-1515 -343 -360 -412 321 0
-1515 -343 -360 -413 327 0
-1515 -343 -360 -416 333 0
-1515 -343 -360 -417 334 0
-1515 -343 -362 -409 278 0
-1515 -343 -362 -410 299 0
-1515 -343 -362 -411 314 0
-1515 -343 -362 -412 324 0
-1515 -343 -362 -413 330 0
-1515 -343 -362 -414 333 0
-1515 -343 -362 -417 336 0
-1515 -343 -363 -409 279 0
-1515 -343 -363 -410 300 0
-1515 -343 -363 -411 315 0
-1515 -343 -363 -412 325 0
-1515 -343 -363 -413 331 0
-1515 -343 -363 -414 334 0
-1515 -343 -363 -416 336 0
-1515 -344 -355 -410 258 0
-1515 -344 -355 -411 264 0
-1515 -344 -355 -412 269 0
-1515 -344 -355 -413 273 0
-1515 -344 -355 -414 276 0
-1515 -344 -355 -415 278 0
-1515 -344 -355 -417 280 0
-1515 -344 -356 -409 258 0
-1515 -344 -356 -411 285 0
-1515 -344 -356 -412 290 0
-1515 -344 -356 -413 294 0
-1515 -344 -356 -414 297 0
-1515 -344 -356 -415 299 0
-1515 -344 -356 -417 301 0
-1515 -344 -357 -409 264 0
-1515 -344 -357 -410 285 0
-1515 -344 -357 -412 305 0
-1515 -344 -357 -413 309 0
-1515 -344 -357 -414 312 0
-1515 -344 -357 -415 314 0
-1515 -344 -357 -417 316 0
-1515 -344 -358 -409 269 0
-1515 -344 -358 -410 290 0
-1515 -344 -358 -411 305 0
-1515 -344 -358 -413 319 0
-1515 -344 -358 -414 322 0
-1515 -344 -358 -415 324 0
-1515 -344 -358 -417 326 0
-1515 -344 -359 -409 273 0
-1515 -344 -359 -410 294 0
-1515 -344 -359 -411 309 0
-1515 -344 -359 -412 319 0
-1515 -344 -359 -414 328 0
-1515 -344 -359 -415 330 0
-1515 -344 -359 -417 332 0
-1515 -344 -360 -409 276 0
-1515 -344 -360 -410 297 0
-1515 -344 -360 -411 312 0
-1515 -344 -360 -412 322 0
-1515 -344 -360 -413 328 0
-1515 -344 -360 -415 333 0
-1515 -344 -360 -417 335 0
-1515 -344 -361 -409 278 0
-1515 -344 -361 -410 299 0
-1515 -344 -361 -411 314 0
-1515 -344 -361 -412 324 0
-1515 -344 -361 -413 330 0
-1515 -344 -361 -414 333 0
-1515 -344 -361 -417 336 0
-1515 -344 -363 -409 280 0
-1515 -344 -363 -410 301 0
-1515 -344 -363 -411 316 0
-1515 -344 -363 -412 326 0
-1515 -344 -363 -413 332 0
-1515 -344 -363 -414 335 0
-1515 -344 -363 -415 336 0
-1515 -345 -355 -410 259 0
-1515 -345 -355 -411 265 0
-1515 -345 -355 -412 270 0
-1515 -345 -355 -413 274 0
-1515 -345 -355 -414 277 0
-1515 -345 -355 -415 279 0
-1515 -345 -355 -416 280 0
-1515 -345 -356 -409 259 0
-1515 -345 -356 -411 286 0
-1515 -345 -356 -412 291 0
-1515 -345 -356 -413 295 0
-1515 -345 -356 -414 298 0
-1515 -345 -356 -415 300 0
-1515 -345 -356 -416 301 0
-1515 -345 -357 -409 265 0
-1515 -345 -357 -410 286 0
-1515 -345 -357 -412 306 0
-1515 -345 -357 -413 310 0
-1515 -345 -357 -414 313 0
-1515 -345 -357 -415 315 0
-1515 -345 -357 -416 316 0
-1515 -345 -358 -409 270 0
-1515 -345 -358 -410 291 0
-1515 -345 -358 -411 306 0
-1515 -345 -358 -413 320 0
-1515 -345 -358 -414 323 0
-1515 -345 -358 -415 325 0
-1515 -345 -358 -416 326 0
-1515 -345 -359 -409 274 0
-1515 -345 -359 -410 295 0
-1515 -345 -359 -411 310 0
-1515 -345 -359 -412 320 0
-1515 -345 -359 -414 329 0
-1515 -345 -359 -415 331 0
-1515 -345 -359 -416 332 0
-1515 -345 -360 -409 277 0
-1515 -345 -360 -410 298 0
-1515 -345 -360 -411 313 0
-1515 -345 -360 -412 323 0
-1515 -345 -360 -413 329 0
-1515 -345 -360 -415 334 0
-1515 -345 -360 -416 335 0
-1515 -345 -361 -409 279 0
-1515 -345 -361 -410 300 0
-1515 -345 -361 -411 315 0
-1515 -345 -361 -412 325 0
-1515 -345 -361 -413 331 0
-1515 -345 -361 -414 334 0
-1515 -345 -361 -416 336 0
-1515 -345 -362 -409 280 0
-1515 -345 -362 -410 301 0
-1515 -345 -362 -411 316 0
-1515 -345 -362 -412 326 0
-1515 -345 -362 -413 332 0
-1515 -345 -362 -414 335 0
-1515 -345 -362 -415 336 0
1515 0
-1516 -85 0
-1516 -86 0
-1516 -87 0
-1516 -88 0
-1516 -89 0
-1516 -90 0
-1516 -91 0
-1517 -169 0
-1517 -170 0
-1517 -171 0
-1517 -172 0
-1517 -173 0
-1517 -174 0
-1517 -175 0
-1518 -85 0
-1518 -86 0
-1518 -87 0
-1518 -88 0
-1518 -89 0
-1518 -90 0
-1518 -91 0
-1519 -169 0
-1519 -170 0
-1519 -171 0
-1519 -172 0
-1519 -173 0
-1519 -174 0
-1519 -175 0
-409 -374 1518 1519 0
-1520 -169 0
-1520 -92 0
-1520 -93 0
-1520 -94 0
-1520 -95 0
-1520 -96 0
-1520 -97 0
-1521 -85 0
-1521 -176 0
-1521 -177 0
-1521 -178 0
-1521 -179 0
-1521 -180 0
-1521 -181 0
-1522 -85 0
-1522 -92 0
-1522 -93 0
-1522 -94 0
-1522 -95 0
-1522 -96 0
-1522 -97 0
-1523 -169 0
-1523 -176 0
-1523 -177 0
-1523 -178 0
-1523 -179 0
-1523 -180 0
-1523 -181 0
-409 -375 1522 1523 0
-1524 -170 0
-1524 -176 0
-1524 -98 0
-1524 -99 0
-1524 -100 0
-1524 -101 0
-1524 -102 0
-1525 -86 0
-1525 -92 0
-1525 -182 0
-1525 -183 0
-1525 -184 0
-1525 -185 0
-1525 -186 0
-1526 -86 0
-1526 -92 0
-1526 -98 0
-1526 -99 0
-1526 -100 0
-1526 -101 0
-1526 -102 0
-1527 -170 0
-1527 -176 0
-1527 -182 0
-1527 -183 0
-1527 -184 0
-1527 -185 0
-1527 -186 0
-409 -376 1526 1527 0
-1528 -171 0
-1528 -177 0
-1528 -182 0
-1528 -103 0
-1528 -104 0
-1528 -105 0
-1528 -106 0
-1529 -87 0
-1529 -93 0
-1529 -98 0
-1529 -187 0
-1529 -188 0
-1529 -189 0
-1529 -190 0
-1530 -87 0
-1530 -93 0
-1530 -98 0
-1530 -103 0
-1530 -104 0
-1530 -105 0
-1530 -106 0
-1531 -171 0
-1531 -177 0
-1531 -182 0
-1531 -187 0
-1531 -188 0
-1531 -189 0
-1531 -190 0
-409 -377 1530 1531 0
-1532 -172 0
-1532 -178 0
-1532 -183 0
-1532 -187 0
-1532 -107 0
-1532 -108 0
-1532 -109 0
-1533 -88 0
-1533 -94 0
-1533 -99 0
-1533 -103 0
-1533 -191 0
-1533 -192 0
-1533 -193 0
-1534 -88 0
-1534 -94 0
-1534 -99 0
-1534 -103 0
-1534 -107 0
-1534 -108 0
-1534 -109 0
-1535 -172 0
-1535 -178 0
-1535 -183 0
-1535 -187 0
-1535 -191 0
-1535 -192 0
-1535 -193 0
-409 -378 1534 1535 0
-1536 -173 0
-1536 -179 0
-1536 -184 0
-1536 -188 0
-1536 -191 0
-1536 -110 0
-1536 -111 0
-1537 -89 0
-1537 -95 0
-1537 -100 0
-1537 -104 0
-1537 -107 0
-1537 -194 0
-1537 -195 0
-1538 -89 0
-1538 -95 0
-1538 -100 0
-1538 -104 0
-1538 -107 0
-1538 -110 0
-1538 -111 0
-1539 -173 0
-1539 -179 0
-1539 -184 0
-1539 -188 0
-1539 -191 0
-1539 -194 0
-1539 -195 0
-409 -379 1538 1539 0
-1540 -174 0
-1540 -180 0
-1540 -185 0
-1540 -189 0
-1540 -192 0
-1540 -194 0
-1540 -112 0
-1541 -90 0
-1541 -96 0
-1541 -101 0
-1541 -105 0
-1541 -108 0
-1541 -110 0
-1541 -196 0
-1542 -90 0
-1542 -96 0
-1542 -101 0
-1542 -105 0
-1542 -108 0
-1542 -110 0
-1542 -112 0
-1543 -174 0
-1543 -180 0
-1543 -185 0
-1543 -189 0
-1543 -192 0
-1543 -194 0
-1543 -196 0
-409 -380 1542 1543 0
-1544 -175 0
-1544 -181 0
-1544 -186 0
-1544 -190 0
-1544 -193 0
-1544 -195 0
-1544 -196 0
-1545 -91 0
-1545 -97 0
-1545 -102 0
-1545 -106 0
-1545 -109 0
-1545 -111 0
-1545 -112 0
-1546 -91 0
-1546 -97 0
-1546 -102 0
-1546 -106 0
-1546 -109 0
-1546 -111 0
-1546 -112 0
-1547 -175 0
-1547 -181 0
-1547 -186 0
-1547 -190 0
-1547 -193 0
-1547 -195 0
-1547 -196 0
-409 -381 1546 1547 0
-410 -373 1516 1517 0
-1548 -169 0
-1548 -113 0
-1548 -114 0
-1548 -115 0
-1548 -116 0
-1548 -117 0
-1548 -118 0
-1549 -85 0
-1549 -197 0
-1549 -198 0
-1549 -199 0
-1549 -200 0
-1549 -201 0
-1549 -202 0
-1550 -169 0
-1550 -113 0
-1550 -114 0
-1550 -115 0
-1550 -116 0
-1550 -117 0
-1550 -118 0
-1551 -85 0
-1551 -197 0
-1551 -198 0
-1551 -199 0
-1551 -200 0
-1551 -201 0
-1551 -202 0
-410 -375 1550 1551 0
-1552 -170 0
-1552 -197 0
-1552 -119 0
-1552 -120 0
-1552 -121 0
-1552 -122 0
-1552 -123 0
-1553 -86 0
-1553 -113 0
-1553 -203 0
-1553 -204 0
-1553 -205 0
-1553 -206 0
-1553 -207 0
-1554 -170 0
-1554 -113 0
-1554 -119 0
-1554 -120 0
-1554 -121 0
-1554 -122 0
-1554 -123 0
-1555 -86 0
-1555 -197 0
-1555 -203 0
-1555 -204 0
-1555 -205 0
-1555 -206 0
-1555 -207 0
-410 -376 1554 1555 0
-1556 -171 0
-1556 -198 0
-1556 -203 0
-1556 -124 0
-1556 -125 0
-1556 -126 0
-1556 -127 0
-1557 -87 0
-1557 -114 0
-1557 -119 0
-1557 -208 0
-1557 -209 0
-1557 -210 0
-1557 -211 0
-1558 -171 0
-1558 -114 0
-1558 -119 0
-1558 -124 0
-1558 -125 0
-1558 -126 0
-1558 -127 0
-1559 -87 0
-1559 -198 0
-1559 -203 0
-1559 -208 0
-1559 -209 0
-1559 -210 0
-1559 -211 0
-410 -377 1558 1559 0
-1560 -172 0
-1560 -199 0
-1560 -204 0
-1560 -208 0
-1560 -128 0
-1560 -129 0
-1560 -130 0
-1561 -88 0
-1561 -115 0
-1561 -120 0
-1561 -124 0
-1561 -212 0
-1561 -213 0
-1561 -214 0
-1562 -172 0
-1562 -115 0
-1562 -120 0
-1562 -124 0
-1562 -128 0
-1562 -129 0
-1562 -130 0
-1563 -88 0
-1563 -199 0
-1563 -204 0
-1563 -208 0
-1563 -212 0
-1563 -213 0
-1563 -214 0
-410 -378 1562 1563 0
-1564 -173 0
-1564 -200 0
-1564 -205 0
-1564 -209 0
-1564 -212 0
-1564 -131 0
-1564 -132 0
-1565 -89 0
-1565 -116 0
-1565 -121 0
-1565 -125 0
-1565 -128 0
-1565 -215 0
-1565 -216 0
-1566 -173 0
-1566 -116 0
-1566 -121 0
-1566 -125 0
-1566 -128 0
-1566 -131 0
-1566 -132 0
-1567 -89 0
-1567 -200 0
-1567 -205 0
-1567 -209 0
-1567 -212 0
-1567 -215 0
-1567 -216 0
-410 -379 1566 1567 0
-1568 -174 0
-1568 -201 0
-1568 -206 0
-1568 -210 0
-1568 -213 0
-1568 -215 0
-1568 -133 0
-1569 -90 0
-1569 -117 0
-1569 -122 0
-1569 -126 0
-1569 -129 0
-1569 -131 0
-1569 -217 0
-1570 -174 0
-1570 -117 0
-1570 -122 0
-1570 -126 0
-1570 -129 0
-1570 -131 0
-1570 -133 0
-1571 -90 0
-1571 -201 0
-1571 -206 0
-1571 -210 0
-1571 -213 0
-1571 -215 0
-1571 -217 0
-410 -380 1570 1571 0
-1572 -175 0
-1572 -202 0
-1572 -207 0
-1572 -211 0
-1572 -214 0
-1572 -216 0
-1572 -217 0
-1573 -91 0
-1573 -118 0
-1573 -123 0
-1573 -127 0
-1573 -130 0
-1573 -132 0
-1573 -133 0
-1574 -175 0
-1574 -118 0
-1574 -123 0
-1574 -127 0
-1574 -130 0
-1574 -132 0
-1574 -133 0
-1575 -91 0
-1575 -202 0
-1575 -207 0
-1575 -211 0
-1575 -214 0
-1575 -216 0
-1575 -217 0
-410 -381 1574 1575 0
-411 -373 1520 1521 0
-411 -374 1548 1549 0
-1576 -176 0
-1576 -197 0
-1576 -134 0
-1576 -135 0
-1576 -136 0
-1576 -137 0
-1576 -138 0
-1577 -92 0
-1577 -113 0
-1577 -218 0
-1577 -219 0
-1577 -220 0
-1577 -221 0
-1577 -222 0
-1578 -176 0
-1578 -197 0
-1578 -134 0
-1578 -135 0
-1578 -136 0
-1578 -137 0
-1578 -138 0
-1579 -92 0
-1579 -113 0
-1579 -218 0
-1579 -219 0
-1579 -220 0
-1579 -221 0
-1579 -222 0
-411 -376 1578 1579 0
-1580 -177 0
-1580 -198 0
-1580 -218 0
-1580 -139 0
-1580 -140 0
-1580 -141 0
-1580 -142 0
-1581 -93 0
-1581 -114 0
-1581 -134 0
-1581 -223 0
-1581 -224 0
-1581 -225 0
-1581 -226 0
-1582 -177 0
-1582 -198 0
-1582 -134 0
-1582 -139 0
-1582 -140 0
-1582 -141 0
-1582 -142 0
-1583 -93 0
-1583 -114 0
-1583 -218 0
-1583 -223 0
-1583 -224 0
-1583 -225 0
-1583 -226 0
-411 -377 1582 1583 0
-1584 -178 0
-1584 -199 0
-1584 -219 0
-1584 -223 0
-1584 -143 0
-1584 -144 0
-1584 -145 0
-1585 -94 0
-1585 -115 0
-1585 -135 0
-1585 -139 0
-1585 -227 0
-1585 -228 0
-1585 -229 0
-1586 -178 0
-1586 -199 0
-1586 -135 0
-1586 -139 0
-1586 -143 0
-1586 -144 0
-1586 -145 0
-1587 -94 0
-1587 -115 0
-1587 -219 0
-1587 -223 0
-1587 -227 0
-1587 -228 0
-1587 -229 0
-411 -378 1586 1587 0
-1588 -179 0
-1588 -200 0
-1588 -220 0
-1588 -224 0
-1588 -227 0
-1588 -146 0
-1588 -147 0
-1589 -95 0
-1589 -116 0
-1589 -136 0
-1589 -140 0
-1589 -143 0
-1589 -230 0
-1589 -231 0
-1590 -179 0
-1590 -200 0
-1590 -136 0
-1590 -140 0
-1590 -143 0
-1590 -146 0
-1590 -147 0
-1591 -95 0
-1591 -116 0
-1591 -220 0
-1591 -224 0
-1591 -227 0
-1591 -230 0
-1591 -231 0
-411 -379 1590 1591 0
-1592 -180 0
-1592 -201 0
-1592 -221 0
-1592 -225 0
-1592 -228 0
-1592 -230 0
-1592 -148 0
-1593 -96 0
-1593 -117 0
-1593 -137 0
-1593 -141 0
-1593 -144 0
-1593 -146 0
-1593 -232 0
-1594 -180 0
-1594 -201 0
-1594 -137 0
-1594 -141 0
-1594 -144 0
-1594 -146 0
-1594 -148 0
-1595 -96 0
-1595 -117 0
-1595 -221 0
-1595 -225 0
-1595 -228 0
-1595 -230 0
-1595 -232 0
-411 -380 1594 1595 0
-1596 -181 0
-1596 -202 0
-1596 -222 0
-1596 -226 0
-1596 -229 0
-1596 -231 0
-1596 -232 0
-1597 -97 0
-1597 -118 0
-1597 -138 0
-1597 -142 0
-1597 -145 0
-1597 -147 0
-1597 -148 0
-1598 -181 0
-1598 -202 0
-1598 -138 0
-1598 -142 0
-1598 -145 0
-1598 -147 0
-1598 -148 0
-1599 -97 0
-1599 -118 0
-1599 -222 0
-1599 -226 0
-1599 -229 0
-1599 -231 0
-1599 -232 0
-411 -381 1598 1599 0
-412 -373 1524 1525 0
-412 -374 1552 1553 0
-412 -375 1576 1577 0
-1600 -182 0
-1600 -203 0
-1600 -218 0
-1600 -149 0
-1600 -150 0
-1600 -151 0
-1600 -152 0
-1601 -98 0
-1601 -119 0
-1601 -134 0
-1601 -233 0
-1601 -234 0
-1601 -235 0
-1601 -236 0
-1602 -182 0
-1602 -203 0
-1602 -218 0
-1602 -149 0
-1602 -150 0
-1602 -151 0
-1602 -152 0
-1603 -98 0
-1603 -119 0
-1603 -134 0
-1603 -233 0
-1603 -234 0
-1603 -235 0
-1603 -236 0
-412 -377 1602 1603 0
-1604 -183 0
-1604 -204 0
-1604 -219 0
-1604 -233 0
-1604 -153 0
-1604 -154 0
-1604 -155 0
-1605 -99 0
-1605 -120 0
-1605 -135 0
-1605 -149 0
-1605 -237 0
-1605 -238 0
-1605 -239 0
-1606 -183 0
-1606 -204 0
-1606 -219 0
-1606 -149 0
-1606 -153 0
-1606 -154 0
-1606 -155 0
-1607 -99 0
-1607 -120 0
-1607 -135 0
-1607 -233 0
-1607 -237 0
-1607 -238 0
-1607 -239 0
-412 -378 1606 1607 0
-1608 -184 0
-1608 -205 0
-1608 -220 0
-1608 -234 0
-1608 -237 0
-1608 -156 0
-1608 -157 0
-1609 -100 0
-1609 -121 0
-1609 -136 0
-1609 -150 0
-1609 -153 0
-1609 -240 0
-1609 -241 0
-1610 -184 0
-1610 -205 0
-1610 -220 0
-1610 -150 0
-1610 -153 0
-1610 -156 0
-1610 -157 0
-1611 -100 0
-1611 -121 0
-1611 -136 0
-1611 -234 0
-1611 -237 0
-1611 -240 0
-1611 -241 0
-412 -379 1610 1611 0
-1612 -185 0
-1612 -206 0
-1612 -221 0
-1612 -235 0
-1612 -238 0
-1612 -240 0
-1612 -158 0
-1613 -101 0
-1613 -122 0
-1613 -137 0
-1613 -151 0
-1613 -154 0
-1613 -156 0
-1613 -242 0
-1614 -185 0
-1614 -206 0
-1614 -221 0
-1614 -151 0
-1614 -154 0
-1614 -156 0
-1614 -158 0
-1615 -101 0
-1615 -122 0
-1615 -137 0
-1615 -235 0
-1615 -238 0
-1615 -240 0
-1615 -242 0
-412 -380 1614 1615 0
-1616 -186 0
-1616 -207 0
-1616 -222 0
-1616 -236 0
-1616 -239 0
-1616 -241 0
-1616 -242 0
-1617 -102 0
-1617 -123 0
-1617 -138 0
-1617 -152 0
-1617 -155 0
-1617 -157 0
-1617 -158 0
-1618 -186 0
-1618 -207 0
-1618 -222 0
-1618 -152 0
-1618 -155 0
-1618 -157 0
-1618 -158 0
-1619 -102 0
-1619 -123 0
-1619 -138 0
-1619 -236 0
-1619 -239 0
-1619 -241 0
-1619 -242 0
-412 -381 1618 1619 0
-413 -373 1528 1529 0
-413 -374 1556 1557 0
-413 -375 1580 1581 0
-413 -376 1600 1601 0
-1620 -187 0
-1620 -208 0
-1620 -223 0
-1620 -233 0
-1620 -159 0
-1620 -160 0
-1620 -161 0
-1621 -103 0
-1621 -124 0
-1621 -139 0
-1621 -149 0
-1621 -243 0
-1621 -244 0
-1621 -245 0
-1622 -187 0
-1622 -208 0
-1622 -223 0
-1622 -233 0
-1622 -159 0
-1622 -160 0
-1622 -161 0
-1623 -103 0
-1623 -124 0
-1623 -139 0
-1623 -149 0
-1623 -243 0
-1623 -244 0
-1623 -245 0
-413 -378 1622 1623 0
-1624 -188 0
-1624 -209 0
-1624 -224 0
-1624 -234 0
-1624 -243 0
-1624 -162 0
-1624 -163 0
-1625 -104 0
-1625 -125 0
-1625 -140 0
-1625 -150 0
-1625 -159 0
-1625 -246 0
-1625 -247 0
-1626 -188 0
-1626 -209 0
-1626 -224 0
-1626 -234 0
-1626 -159 0
-1626 -162 0
-1626 -163 0
-1627 -104 0
-1627 -125 0
-1627 -140 0
-1627 -150 0
-1627 -243 0
-1627 -246 0
-1627 -247 0
-413 -379 1626 1627 0
-1628 -189 0
-1628 -210 0
-1628 -225 0
-1628 -235 0
-1628 -244 0
-1628 -246 0
-1628 -164 0
-1629 -105 0
-1629 -126 0
-1629 -141 0
-1629 -151 0
-1629 -160 0
-1629 -162 0
-1629 -248 0
-1630 -189 0
-1630 -210 0
-1630 -225 0
-1630 -235 0
-1630 -160 0
-1630 -162 0
-1630 -164 0
-1631 -105 0
-1631 -126 0
-1631 -141 0
-1631 -151 0
-1631 -244 0
-1631 -246 0
-1631 -248 0
-413 -380 1630 1631 0
-1632 -190 0
-1632 -211 0
-1632 -226 0
-1632 -236 0
-1632 -245 0
-1632 -247 0
-1632 -248 0
-1633 -106 0
-1633 -127 0
-1633 -142 0
-1633 -152 0
-1633 -161 0
-1633 -163 0
-1633 -164 0
-1634 -190 0
-1634 -211 0
-1634 -226 0
-1634 -236 0
-1634 -161 0
-1634 -163 0
-1634 -164 0
-1635 -106 0
-1635 -127 0
-1635 -142 0
-1635 -152 0
-1635 -245 0
-1635 -247 0
-1635 -248 0
-413 -381 1634 1635 0
-414 -373 1532 1533 0
-414 -374 1560 1561 0
-414 -375 1584 1585 0
-414 -376 1604 1605 0
-414 -377 1620 1621 0
-1636 -191 0
-1636 -212 0
-1636 -227 0
-1636 -237 0
-1636 -243 0
-1636 -165 0
-1636 -166 0
-1637 -107 0
-1637 -128 0
-1637 -143 0
-1637 -153 0
-1637 -159 0
-1637 -249 0
-1637 -250 0
-1638 -191 0
-1638 -212 0
-1638 -227 0
-1638 -237 0
-1638 -243 0
-1638 -165 0
-1638 -166 0
-1639 -107 0
-1639 -128 0
-1639 -143 0
-1639 -153 0
-1639 -159 0
-1639 -249 0
-1639 -250 0
-414 -379 1638 1639 0
-1640 -192 0
-1640 -213 0
-1640 -228 0
-1640 -238 0
-1640 -244 0
-1640 -249 0
-1640 -167 0
-1641 -108 0
-1641 -129 0
-1641 -144 0
-1641 -154 0
-1641 -160 0
-1641 -165 0
-1641 -251 0
-1642 -192 0
-1642 -213 0
-1642 -228 0
-1642 -238 0
-1642 -244 0
-1642 -165 0
-1642 -167 0
-1643 -108 0
-1643 -129 0
-1643 -144 0
-1643 -154 0
-1643 -160 0
-1643 -249 0
-1643 -251 0
-414 -380 1642 1643 0
-1644 -193 0
-1644 -214 0
-1644 -229 0
-1644 -239 0
-1644 -245 0
-1644 -250 0
-1644 -251 0
-1645 -109 0
-1645 -130 0
-1645 -145 0
-1645 -155 0
-1645 -161 0
-1645 -166 0
-1645 -167 0
-1646 -193 0
-1646 -214 0
-1646 -229 0
-1646 -239 0
-1646 -245 0
-1646 -166 0
-1646 -167 0
-1647 -109 0
-1647 -130 0
-1647 -145 0
-1647 -155 0
-1647 -161 0
-1647 -250 0
-1647 -251 0
-414 -381 1646 1647 0
-415 -373 1536 1537 0
-415 -374 1564 1565 0
-415 -375 1588 1589 0
-415 -376 1608 1609 0
-415 -377 1624 1625 0
-415 -378 1636 1637 0
-1648 -194 0
-1648 -215 0
-1648 -230 0
-1648 -240 0
-1648 -246 0
-1648 -249 0
-1648 -168 0
-1649 -110 0
-1649 -131 0
-1649 -146 0
-1649 -156 0
-1649 -162 0
-1649 -165 0
-1649 -252 0
-1650 -194 0
-1650 -215 0
-1650 -230 0
-1650 -240 0
-1650 -246 0
-1650 -249 0
-1650 -168 0
-1651 -110 0
-1651 -131 0
-1651 -146 0
-1651 -156 0
-1651 -162 0
-1651 -165 0
-1651 -252 0
-415 -380 1650 1651 0
-1652 -195 0
-1652 -216 0
-1652 -231 0
-1652 -241 0
-1652 -247 0
-1652 -250 0
-1652 -252 0
-1653 -111 0
-1653 -132 0
-1653 -147 0
-1653 -157 0
-1653 -163 0
-1653 -166 0
-1653 -168 0
-1654 -195 0
-1654 -216 0
-1654 -231 0
-1654 -241 0
-1654 -247 0
-1654 -250 0
-1654 -168 0
-1655 -111 0
-1655 -132 0
-1655 -147 0
-1655 -157 0
-1655 -163 0
-1655 -166 0
-1655 -252 0
-415 -381 1654 1655 0
-416 -373 1540 1541 0
-416 -374 1568 1569 0
-416 -375 1592 1593 0
-416 -376 1612 1613 0
-416 -377 1628 1629 0
-416 -378 1640 1641 0
-416 -379 1648 1649 0
-1656 -196 0
-1656 -217 0
-1656 -232 0
-1656 -242 0
-1656 -248 0
-1656 -251 0
-1656 -252 0
-1657 -112 0
-1657 -133 0
-1657 -148 0
-1657 -158 0
-1657 -164 0
-1657 -167 0
-1657 -168 0
-1658 -196 0
-1658 -217 0
-1658 -232 0
-1658 -242 0
-1658 -248 0
-1658 -251 0
-1658 -252 0
-1659 -112 0
-1659 -133 0
-1659 -148 0
-1659 -158 0
-1659 -164 0
-1659 -167 0
-1659 -168 0
-416 -381 1658 1659 0
-417 -373 1544 1545 0
-417 -374 1572 1573 0
-417 -375 1596 1597 0
-417 -376 1616 1617 0
-417 -377 1632 1633 0
-417 -378 1644 1645 0
-417 -379 1652 1653 0
-417 -380 1656 1657 0
-382 -401 1518 1519 0
-382 -402 1522 1523 0
-382 -403 1526 1527 0
-382 -404 1530 1531 0
-382 -405 1534 1535 0
-382 -406 1538 1539 0
-382 -407 1542 1543 0
-382 -408 1546 1547 0
-383 -400 1516 1517 0
-383 -402 1550 1551 0
-383 -403 1554 1555 0
-383 -404 1558 1559 0
-383 -405 1562 1563 0
-383 -406 1566 1567 0
-383 -407 1570 1571 0
-383 -408 1574 1575 0
-384 -400 1520 1521 0
-384 -401 1548 1549 0
-384 -403 1578 1579 0
-384 -404 1582 1583 0
-384 -405 1586 1587 0
-384 -406 1590 1591 0
-384 -407 1594 1595 0
-384 -408 1598 1599 0
-385 -400 1524 1525 0
-385 -401 1552 1553 0
-385 -402 1576 1577 0
-385 -404 1602 1603 0
-385 -405 1606 1607 0
-385 -406 1610 1611 0
-385 -407 1614 1615 0
-385 -408 1618 1619 0
-386 -400 1528 1529 0
-386 -401 1556 1557 0
-386 -402 1580 1581 0
-386 -403 1600 1601 0
-386 -405 1622 1623 0
-386 -406 1626 1627 0
-386 -407 1630 1631 0
-386 -408 1634 1635 0
-387 -400 1532 1533 0
-387 -401 1560 1561 0
-387 -402 1584 1585 0
-387 -403 1604 1605 0
-387 -404 1620 1621 0
-387 -406 1638 1639 0
-387 -407 1642 1643 0
-387 -408 1646 1647 0
-388 -400 1536 1537 0
-388 -401 1564 1565 0
-388 -402 1588 1589 0
-388 -403 1608 1609 0
-388 -404 1624 1625 0
-388 -405 1636 1637 0
-388 -407 1650 1651 0
-388 -408 1654 1655 0
-389 -400 1540 1541 0
-389 -401 1568 1569 0
-389 -402 1592 1593 0
-389 -403 1612 1613 0
-389 -404 1628 1629 0
-389 -405 1640 1641 0
-389 -406 1648 1649 0
-389 -408 1658 1659 0
-390 -400 1544 1545 0
-390 -401 1572 1573 0
-390 -402 1596 1597 0
-390 -403 1616 1617 0
-390 -404 1632 1633 0
-390 -405 1644 1645 0
-390 -406 1652 1653 0
-390 -407 1656 1657 0
