p cnf 540 24758
-37 -38 0
-39 -40 0
-41 -42 0
-43 -44 0
-45 -46 0
-47 -48 0
-49 -50 0
-51 -52 0
-53 -54 0
-55 -56 0
-57 -58 0
-59 -60 0
-61 -62 0
-63 -64 0
-65 -66 0
-67 -68 0
-69 -70 0
-71 -72 0
-73 -74 0
-75 -76 0
-77 -78 0
-79 -80 0
-81 -82 0
-83 -84 0
-85 -86 0
-87 -88 0
-89 -90 0
-91 -92 0
-93 -94 0
-95 -96 0
-97 -98 0
-99 -100 0
-101 -102 0
-103 -104 0
-105 -106 0
-107 -108 0
-109 -110 0
-111 -112 0
-113 -114 0
-115 -116 0
-117 -118 0
-119 -120 0
-121 -122 0
-123 -124 0
-125 -126 0
-127 -128 0
-129 -130 0
-131 -132 0
-133 -134 0
-135 -136 0
-137 -138 0
-139 -140 0
-141 -142 0
-143 -144 0
-145 -146 0
-147 -148 0
-149 -150 0
-151 -152 0
-153 -154 0
-155 -156 0
-157 -158 0
-159 -160 0
-161 -162 0
-163 -164 0
-165 -166 0
-167 -168 0
-169 -170 0
-171 -172 0
-173 -174 0
-175 -176 0
-177 -178 0
-179 -180 0
-181 -182 0
-183 -184 0
-185 -186 0
-187 -188 0
-189 -190 0
-191 -192 0
-193 -194 0
-195 -196 0
-197 -198 0
-199 -200 0
-201 -202 0
-203 -204 0
-205 -206 0
-207 -208 0
-209 -210 0
-211 -212 0
-213 -214 0
-215 -216 0
-217 -218 0
-219 -220 0
-221 -222 0
-223 -224 0
-225 -226 0
-227 -228 0
-229 -230 0
-231 -232 0
-233 -234 0
-235 -236 0
-237 -238 0
-239 -240 0
-241 -242 0
-243 -244 0
-245 -246 0
-247 -248 0
-249 -250 0
-251 -252 0
-253 -254 0
-255 -256 0
-257 -258 0
-259 -260 0
-261 -262 0
-263 -264 0
-265 -266 0
-267 -268 0
-269 -270 0
-271 -272 0
-273 -274 0
-275 -276 0
-277 -278 0
-279 -280 0
-281 -282 0
-283 -284 0
-285 -286 0
-287 -288 0
-289 -290 0
-291 -292 0
-293 -294 0
-295 -296 0
-297 -298 0
-299 -300 0
-301 -302 0
-303 -304 0
-305 -306 0
-307 -308 0
-309 -310 0
-311 -312 0
-313 -314 0
-315 -316 0
-317 -318 0
-319 -320 0
-321 -322 0
-323 -324 0
-325 -326 0
-327 -328 0
-329 -330 0
-331 -332 0
-333 -334 0
-335 -336 0
-337 -338 0
-339 -340 0
-341 -342 0
-343 -344 0
-345 -346 0
-347 -348 0
-349 -350 0
-351 -352 0
-353 -354 0
-355 -356 0
-357 -358 0
-359 -360 0
-361 -362 0
-363 -364 0
-365 -366 0
-367 -368 0
-369 -370 0
-371 -372 0
-373 -374 0
-375 -376 0
-377 -378 0
-379 -380 0
-381 -382 0
-383 -384 0
-385 -386 0
-387 -388 0
-389 -390 0
-391 -392 0
-393 -394 0
-395 -396 0
-397 -398 0
-399 -400 0
-401 -402 0
-403 -404 0
-405 -406 0
-407 -408 0
-409 -410 0
-411 -412 0
-413 -414 0
-415 -416 0
-417 -418 0
-419 -420 0
-421 -422 0
-423 -424 0
-425 -426 0
-427 -428 0
-429 -430 0
-431 -432 0
-433 -434 0
-435 -436 0
-437 -438 0
-439 -440 0
-441 -442 0
-443 -444 0
-445 -446 0
-447 -448 0
-449 -450 0
-451 -452 0
-453 -454 0
-455 -456 0
-457 -458 0
-459 -460 0
-461 -462 0
-463 -464 0
-465 -466 0
-467 -468 0
-469 -470 0
-471 -472 0
-473 -474 0
-475 -476 0
-477 -478 0
-479 -480 0
-481 -482 0
-483 -484 0
-485 -486 0
-487 -488 0
-489 -490 0
-491 -492 0
-493 -494 0
-495 -496 0
-497 -498 0
-499 -500 0
-501 -502 0
-503 -504 0
-505 -506 0
-507 -508 0
-509 -510 0
-511 -512 0
-513 -514 0
-515 -516 0
-517 -518 0
-519 -520 0
-521 -522 0
-523 -524 0
-525 -526 0
-527 -528 0
-529 -530 0
-531 -532 0
-533 -534 0
-535 -536 0
-537 -538 0
-539 -540 0
-1 -9 2 0
-1 -10 3 0
-1 -11 4 0
-1 -12 5 0
-1 -13 6 0
-1 -14 7 0
-1 -15 8 0
-2 9 1 0
-2 -16 3 0
-2 -17 4 0
-2 -18 5 0
-2 -19 6 0
-2 -20 7 0
-2 -21 8 0
-3 10 1 0
-3 16 2 0
-3 -22 4 0
-3 -23 5 0
-3 -24 6 0
-3 -25 7 0
-3 -26 8 0
-4 11 1 0
-4 17 2 0
-4 22 3 0
-4 -27 5 0
-4 -28 6 0
-4 -29 7 0
-4 -30 8 0
-5 12 1 0
-5 18 2 0
-5 23 3 0
-5 27 4 0
-5 -31 6 0
-5 -32 7 0
-5 -33 8 0
-6 13 1 0
-6 19 2 0
-6 24 3 0
-6 28 4 0
-6 31 5 0
-6 -34 7 0
-6 -35 8 0
-7 14 1 0
-7 20 2 0
-7 25 3 0
-7 29 4 0
-7 32 5 0
-7 34 6 0
-7 -36 8 0
-8 15 1 0
-8 21 2 0
-8 26 3 0
-8 30 4 0
-8 33 5 0
-8 35 6 0
-8 36 7 0
1 -2 9 0
1 -3 10 0
1 -4 11 0
1 -5 12 0
1 -6 13 0
1 -7 14 0
1 -8 15 0
-9 2 -1 0
-9 -16 10 0
-9 -17 11 0
-9 -18 12 0
-9 -19 13 0
-9 -20 14 0
-9 -21 15 0
-10 3 -1 0
-10 16 9 0
-10 -22 11 0
-10 -23 12 0
-10 -24 13 0
-10 -25 14 0
-10 -26 15 0
-11 4 -1 0
-11 17 9 0
-11 22 10 0
-11 -27 12 0
-11 -28 13 0
-11 -29 14 0
-11 -30 15 0
-12 5 -1 0
-12 18 9 0
-12 23 10 0
-12 27 11 0
-12 -31 13 0
-12 -32 14 0
-12 -33 15 0
-13 6 -1 0
-13 19 9 0
-13 24 10 0
-13 28 11 0
-13 31 12 0
-13 -34 14 0
-13 -35 15 0
-14 7 -1 0
-14 20 9 0
-14 25 10 0
-14 29 11 0
-14 32 12 0
-14 34 13 0
-14 -36 15 0
-15 8 -1 0
-15 21 9 0
-15 26 10 0
-15 30 11 0
-15 33 12 0
-15 35 13 0
-15 36 14 0
2 -1 -9 0
2 -3 16 0
2 -4 17 0
2 -5 18 0
2 -6 19 0
2 -7 20 0
2 -8 21 0
9 1 -2 0
9 -10 16 0
9 -11 17 0
9 -12 18 0
9 -13 19 0
9 -14 20 0
9 -15 21 0
-16 3 -2 0
-16 10 -9 0
-16 -22 17 0
-16 -23 18 0
-16 -24 19 0
-16 -25 20 0
-16 -26 21 0
-17 4 -2 0
-17 11 -9 0
-17 22 16 0
-17 -27 18 0
-17 -28 19 0
-17 -29 20 0
-17 -30 21 0
-18 5 -2 0
-18 12 -9 0
-18 23 16 0
-18 27 17 0
-18 -31 19 0
-18 -32 20 0
-18 -33 21 0
-19 6 -2 0
-19 13 -9 0
-19 24 16 0
-19 28 17 0
-19 31 18 0
-19 -34 20 0
-19 -35 21 0
-20 7 -2 0
-20 14 -9 0
-20 25 16 0
-20 29 17 0
-20 32 18 0
-20 34 19 0
-20 -36 21 0
-21 8 -2 0
-21 15 -9 0
-21 26 16 0
-21 30 17 0
-21 33 18 0
-21 35 19 0
-21 36 20 0
3 -1 -10 0
3 -2 -16 0
3 -4 22 0
3 -5 23 0
3 -6 24 0
3 -7 25 0
3 -8 26 0
10 1 -3 0
10 -9 -16 0
10 -11 22 0
10 -12 23 0
10 -13 24 0
10 -14 25 0
10 -15 26 0
16 2 -3 0
16 9 -10 0
16 -17 22 0
16 -18 23 0
16 -19 24 0
16 -20 25 0
16 -21 26 0
-22 4 -3 0
-22 11 -10 0
-22 17 -16 0
-22 -27 23 0
-22 -28 24 0
-22 -29 25 0
-22 -30 26 0
-23 5 -3 0
-23 12 -10 0
-23 18 -16 0
-23 27 22 0
-23 -31 24 0
-23 -32 25 0
-23 -33 26 0
-24 6 -3 0
-24 13 -10 0
-24 19 -16 0
-24 28 22 0
-24 31 23 0
-24 -34 25 0
-24 -35 26 0
-25 7 -3 0
-25 14 -10 0
-25 20 -16 0
-25 29 22 0
-25 32 23 0
-25 34 24 0
-25 -36 26 0
-26 8 -3 0
-26 15 -10 0
-26 21 -16 0
-26 30 22 0
-26 33 23 0
-26 35 24 0
-26 36 25 0
4 -1 -11 0
4 -2 -17 0
4 -3 -22 0
4 -5 27 0
4 -6 28 0
4 -7 29 0
4 -8 30 0
11 1 -4 0
11 -9 -17 0
11 -10 -22 0
11 -12 27 0
11 -13 28 0
11 -14 29 0
11 -15 30 0
17 2 -4 0
17 9 -11 0
17 -16 -22 0
17 -18 27 0
17 -19 28 0
17 -20 29 0
17 -21 30 0
22 3 -4 0
22 10 -11 0
22 16 -17 0
22 -23 27 0
22 -24 28 0
22 -25 29 0
22 -26 30 0
-27 5 -4 0
-27 12 -11 0
-27 18 -17 0
-27 23 -22 0
-27 -31 28 0
-27 -32 29 0
-27 -33 30 0
-28 6 -4 0
-28 13 -11 0
-28 19 -17 0
-28 24 -22 0
-28 31 27 0
-28 -34 29 0
-28 -35 30 0
-29 7 -4 0
-29 14 -11 0
-29 20 -17 0
-29 25 -22 0
-29 32 27 0
-29 34 28 0
-29 -36 30 0
-30 8 -4 0
-30 15 -11 0
-30 21 -17 0
-30 26 -22 0
-30 33 27 0
-30 35 28 0
-30 36 29 0
5 -1 -12 0
5 -2 -18 0
5 -3 -23 0
5 -4 -27 0
5 -6 31 0
5 -7 32 0
5 -8 33 0
12 1 -5 0
12 -9 -18 0
12 -10 -23 0
12 -11 -27 0
12 -13 31 0
12 -14 32 0
12 -15 33 0
18 2 -5 0
18 9 -12 0
18 -16 -23 0
18 -17 -27 0
18 -19 31 0
18 -20 32 0
18 -21 33 0
23 3 -5 0
23 10 -12 0
23 16 -18 0
23 -22 -27 0
23 -24 31 0
23 -25 32 0
23 -26 33 0
27 4 -5 0
27 11 -12 0
27 17 -18 0
27 22 -23 0
27 -28 31 0
27 -29 32 0
27 -30 33 0
-31 6 -5 0
-31 13 -12 0
-31 19 -18 0
-31 24 -23 0
-31 28 -27 0
-31 -34 32 0
-31 -35 33 0
-32 7 -5 0
-32 14 -12 0
-32 20 -18 0
-32 25 -23 0
-32 29 -27 0
-32 34 31 0
-32 -36 33 0
-33 8 -5 0
-33 15 -12 0
-33 21 -18 0
-33 26 -23 0
-33 30 -27 0
-33 35 31 0
-33 36 32 0
6 -1 -13 0
6 -2 -19 0
6 -3 -24 0
6 -4 -28 0
6 -5 -31 0
6 -7 34 0
6 -8 35 0
13 1 -6 0
13 -9 -19 0
13 -10 -24 0
13 -11 -28 0
13 -12 -31 0
13 -14 34 0
13 -15 35 0
19 2 -6 0
19 9 -13 0
19 -16 -24 0
19 -17 -28 0
19 -18 -31 0
19 -20 34 0
19 -21 35 0
24 3 -6 0
24 10 -13 0
24 16 -19 0
24 -22 -28 0
24 -23 -31 0
24 -25 34 0
24 -26 35 0
28 4 -6 0
28 11 -13 0
28 17 -19 0
28 22 -24 0
28 -27 -31 0
28 -29 34 0
28 -30 35 0
31 5 -6 0
31 12 -13 0
31 18 -19 0
31 23 -24 0
31 27 -28 0
31 -32 34 0
31 -33 35 0
-34 7 -6 0
-34 14 -13 0
-34 20 -19 0
-34 25 -24 0
-34 29 -28 0
-34 32 -31 0
-34 -36 35 0
-35 8 -6 0
-35 15 -13 0
-35 21 -19 0
-35 26 -24 0
-35 30 -28 0
-35 33 -31 0
-35 36 34 0
7 -1 -14 0
7 -2 -20 0
7 -3 -25 0
7 -4 -29 0
7 -5 -32 0
7 -6 -34 0
7 -8 36 0
14 1 -7 0
14 -9 -20 0
14 -10 -25 0
14 -11 -29 0
14 -12 -32 0
14 -13 -34 0
14 -15 36 0
20 2 -7 0
20 9 -14 0
20 -16 -25 0
20 -17 -29 0
20 -18 -32 0
20 -19 -34 0
20 -21 36 0
25 3 -7 0
25 10 -14 0
25 16 -20 0
25 -22 -29 0
25 -23 -32 0
25 -24 -34 0
25 -26 36 0
29 4 -7 0
29 11 -14 0
29 17 -20 0
29 22 -25 0
29 -27 -32 0
29 -28 -34 0
29 -30 36 0
32 5 -7 0
32 12 -14 0
32 18 -20 0
32 23 -25 0
32 27 -29 0
32 -31 -34 0
32 -33 36 0
34 6 -7 0
34 13 -14 0
34 19 -20 0
34 24 -25 0
34 28 -29 0
34 31 -32 0
34 -35 36 0
-36 8 -7 0
-36 15 -14 0
-36 21 -20 0
-36 26 -25 0
-36 30 -29 0
-36 33 -32 0
-36 35 -34 0
8 -1 -15 0
8 -2 -21 0
8 -3 -26 0
8 -4 -30 0
8 -5 -33 0
8 -6 -35 0
8 -7 -36 0
15 1 -8 0
15 -9 -21 0
15 -10 -26 0
15 -11 -30 0
15 -12 -33 0
15 -13 -35 0
15 -14 -36 0
21 2 -8 0
21 9 -15 0
21 -16 -26 0
21 -17 -30 0
21 -18 -33 0
21 -19 -35 0
21 -20 -36 0
26 3 -8 0
26 10 -15 0
26 16 -21 0
26 -22 -30 0
26 -23 -33 0
26 -24 -35 0
26 -25 -36 0
30 4 -8 0
30 11 -15 0
30 17 -21 0
30 22 -26 0
30 -27 -33 0
30 -28 -35 0
30 -29 -36 0
33 5 -8 0
33 12 -15 0
33 18 -21 0
33 23 -26 0
33 27 -30 0
33 -31 -35 0
33 -32 -36 0
35 6 -8 0
35 13 -15 0
35 19 -21 0
35 24 -26 0
35 28 -30 0
35 31 -33 0
35 -34 -36 0
36 7 -8 0
36 14 -15 0
36 20 -21 0
36 25 -26 0
36 29 -30 0
36 32 -33 0
36 34 -35 0
-37 39 40 -51 0
-37 39 40 51 52 0
-37 -40 -51 0
-37 -40 51 52 0
37 38 -39 51 52 0
37 38 -39 -52 0
37 38 39 40 -51 0
37 38 39 40 51 52 0
37 38 39 40 -52 0
37 38 -40 -51 0
37 38 -40 51 52 0
-38 -39 51 52 0
-38 -39 -52 0
-38 39 40 51 52 0
-38 39 40 -52 0
-37 41 42 -53 0
-37 41 42 53 54 0
-37 -42 -53 0
-37 -42 53 54 0
37 38 -41 53 54 0
37 38 -41 -54 0
37 38 41 42 -53 0
37 38 41 42 53 54 0
37 38 41 42 -54 0
37 38 -42 -53 0
37 38 -42 53 54 0
-38 -41 53 54 0
-38 -41 -54 0
-38 41 42 53 54 0
-38 41 42 -54 0
-37 43 44 -55 0
-37 43 44 55 56 0
-37 -44 -55 0
-37 -44 55 56 0
37 38 -43 55 56 0
37 38 -43 -56 0
37 38 43 44 -55 0
37 38 43 44 55 56 0
37 38 43 44 -56 0
37 38 -44 -55 0
37 38 -44 55 56 0
-38 -43 55 56 0
-38 -43 -56 0
-38 43 44 55 56 0
-38 43 44 -56 0
-37 45 46 -57 0
-37 45 46 57 58 0
-37 -46 -57 0
-37 -46 57 58 0
37 38 -45 57 58 0
37 38 -45 -58 0
37 38 45 46 -57 0
37 38 45 46 57 58 0
37 38 45 46 -58 0
37 38 -46 -57 0
37 38 -46 57 58 0
-38 -45 57 58 0
-38 -45 -58 0
-38 45 46 57 58 0
-38 45 46 -58 0
-37 47 48 -59 0
-37 47 48 59 60 0
-37 -48 -59 0
-37 -48 59 60 0
37 38 -47 59 60 0
37 38 -47 -60 0
37 38 47 48 -59 0
37 38 47 48 59 60 0
37 38 47 48 -60 0
37 38 -48 -59 0
37 38 -48 59 60 0
-38 -47 59 60 0
-38 -47 -60 0
-38 47 48 59 60 0
-38 47 48 -60 0
-37 49 50 -61 0
-37 49 50 61 62 0
-37 -50 -61 0
-37 -50 61 62 0
37 38 -49 61 62 0
37 38 -49 -62 0
37 38 49 50 -61 0
37 38 49 50 61 62 0
37 38 49 50 -62 0
37 38 -50 -61 0
37 38 -50 61 62 0
-38 -49 61 62 0
-38 -49 -62 0
-38 49 50 61 62 0
-38 49 50 -62 0
-39 41 42 -63 0
-39 41 42 63 64 0
-39 -42 -63 0
-39 -42 63 64 0
39 40 -41 63 64 0
39 40 -41 -64 0
39 40 41 42 -63 0
39 40 41 42 63 64 0
39 40 41 42 -64 0
39 40 -42 -63 0
39 40 -42 63 64 0
-40 -41 63 64 0
-40 -41 -64 0
-40 41 42 63 64 0
-40 41 42 -64 0
-39 43 44 -65 0
-39 43 44 65 66 0
-39 -44 -65 0
-39 -44 65 66 0
39 40 -43 65 66 0
39 40 -43 -66 0
39 40 43 44 -65 0
39 40 43 44 65 66 0
39 40 43 44 -66 0
39 40 -44 -65 0
39 40 -44 65 66 0
-40 -43 65 66 0
-40 -43 -66 0
-40 43 44 65 66 0
-40 43 44 -66 0
-39 45 46 -67 0
-39 45 46 67 68 0
-39 -46 -67 0
-39 -46 67 68 0
39 40 -45 67 68 0
39 40 -45 -68 0
39 40 45 46 -67 0
39 40 45 46 67 68 0
39 40 45 46 -68 0
39 40 -46 -67 0
39 40 -46 67 68 0
-40 -45 67 68 0
-40 -45 -68 0
-40 45 46 67 68 0
-40 45 46 -68 0
-39 47 48 -69 0
-39 47 48 69 70 0
-39 -48 -69 0
-39 -48 69 70 0
39 40 -47 69 70 0
39 40 -47 -70 0
39 40 47 48 -69 0
39 40 47 48 69 70 0
39 40 47 48 -70 0
39 40 -48 -69 0
39 40 -48 69 70 0
-40 -47 69 70 0
-40 -47 -70 0
-40 47 48 69 70 0
-40 47 48 -70 0
-39 49 50 -71 0
-39 49 50 71 72 0
-39 -50 -71 0
-39 -50 71 72 0
39 40 -49 71 72 0
39 40 -49 -72 0
39 40 49 50 -71 0
39 40 49 50 71 72 0
39 40 49 50 -72 0
39 40 -50 -71 0
39 40 -50 71 72 0
-40 -49 71 72 0
-40 -49 -72 0
-40 49 50 71 72 0
-40 49 50 -72 0
-41 43 44 -73 0
-41 43 44 73 74 0
-41 -44 -73 0
-41 -44 73 74 0
41 42 -43 73 74 0
41 42 -43 -74 0
41 42 43 44 -73 0
41 42 43 44 73 74 0
41 42 43 44 -74 0
41 42 -44 -73 0
41 42 -44 73 74 0
-42 -43 73 74 0
-42 -43 -74 0
-42 43 44 73 74 0
-42 43 44 -74 0
-41 45 46 -75 0
-41 45 46 75 76 0
-41 -46 -75 0
-41 -46 75 76 0
41 42 -45 75 76 0
41 42 -45 -76 0
41 42 45 46 -75 0
41 42 45 46 75 76 0
41 42 45 46 -76 0
41 42 -46 -75 0
41 42 -46 75 76 0
-42 -45 75 76 0
-42 -45 -76 0
-42 45 46 75 76 0
-42 45 46 -76 0
-41 47 48 -77 0
-41 47 48 77 78 0
-41 -48 -77 0
-41 -48 77 78 0
41 42 -47 77 78 0
41 42 -47 -78 0
41 42 47 48 -77 0
41 42 47 48 77 78 0
41 42 47 48 -78 0
41 42 -48 -77 0
41 42 -48 77 78 0
-42 -47 77 78 0
-42 -47 -78 0
-42 47 48 77 78 0
-42 47 48 -78 0
-41 49 50 -79 0
-41 49 50 79 80 0
-41 -50 -79 0
-41 -50 79 80 0
41 42 -49 79 80 0
41 42 -49 -80 0
41 42 49 50 -79 0
41 42 49 50 79 80 0
41 42 49 50 -80 0
41 42 -50 -79 0
41 42 -50 79 80 0
-42 -49 79 80 0
-42 -49 -80 0
-42 49 50 79 80 0
-42 49 50 -80 0
-43 45 46 -81 0
-43 45 46 81 82 0
-43 -46 -81 0
-43 -46 81 82 0
43 44 -45 81 82 0
43 44 -45 -82 0
43 44 45 46 -81 0
43 44 45 46 81 82 0
43 44 45 46 -82 0
43 44 -46 -81 0
43 44 -46 81 82 0
-44 -45 81 82 0
-44 -45 -82 0
-44 45 46 81 82 0
-44 45 46 -82 0
-43 47 48 -83 0
-43 47 48 83 84 0
-43 -48 -83 0
-43 -48 83 84 0
43 44 -47 83 84 0
43 44 -47 -84 0
43 44 47 48 -83 0
43 44 47 48 83 84 0
43 44 47 48 -84 0
43 44 -48 -83 0
43 44 -48 83 84 0
-44 -47 83 84 0
-44 -47 -84 0
-44 47 48 83 84 0
-44 47 48 -84 0
-43 49 50 -85 0
-43 49 50 85 86 0
-43 -50 -85 0
-43 -50 85 86 0
43 44 -49 85 86 0
43 44 -49 -86 0
43 44 49 50 -85 0
43 44 49 50 85 86 0
43 44 49 50 -86 0
43 44 -50 -85 0
43 44 -50 85 86 0
-44 -49 85 86 0
-44 -49 -86 0
-44 49 50 85 86 0
-44 49 50 -86 0
-45 47 48 -87 0
-45 47 48 87 88 0
-45 -48 -87 0
-45 -48 87 88 0
45 46 -47 87 88 0
45 46 -47 -88 0
45 46 47 48 -87 0
45 46 47 48 87 88 0
45 46 47 48 -88 0
45 46 -48 -87 0
45 46 -48 87 88 0
-46 -47 87 88 0
-46 -47 -88 0
-46 47 48 87 88 0
-46 47 48 -88 0
-45 49 50 -89 0
-45 49 50 89 90 0
-45 -50 -89 0
-45 -50 89 90 0
45 46 -49 89 90 0
45 46 -49 -90 0
45 46 49 50 -89 0
45 46 49 50 89 90 0
45 46 49 50 -90 0
45 46 -50 -89 0
45 46 -50 89 90 0
-46 -49 89 90 0
-46 -49 -90 0
-46 49 50 89 90 0
-46 49 50 -90 0
-47 49 50 -91 0
-47 49 50 91 92 0
-47 -50 -91 0
-47 -50 91 92 0
47 48 -49 91 92 0
47 48 -49 -92 0
47 48 49 50 -91 0
47 48 49 50 91 92 0
47 48 49 50 -92 0
47 48 -50 -91 0
47 48 -50 91 92 0
-48 -49 91 92 0
-48 -49 -92 0
-48 49 50 91 92 0
-48 49 50 -92 0
-51 53 54 -63 0
-51 53 54 63 64 0
-51 -54 -63 0
-51 -54 63 64 0
51 52 -53 63 64 0
51 52 -53 -64 0
51 52 53 54 -63 0
51 52 53 54 63 64 0
51 52 53 54 -64 0
51 52 -54 -63 0
51 52 -54 63 64 0
-52 -53 63 64 0
-52 -53 -64 0
-52 53 54 63 64 0
-52 53 54 -64 0
-51 55 56 -65 0
-51 55 56 65 66 0
-51 -56 -65 0
-51 -56 65 66 0
51 52 -55 65 66 0
51 52 -55 -66 0
51 52 55 56 -65 0
51 52 55 56 65 66 0
51 52 55 56 -66 0
51 52 -56 -65 0
51 52 -56 65 66 0
-52 -55 65 66 0
-52 -55 -66 0
-52 55 56 65 66 0
-52 55 56 -66 0
-51 57 58 -67 0
-51 57 58 67 68 0
-51 -58 -67 0
-51 -58 67 68 0
51 52 -57 67 68 0
51 52 -57 -68 0
51 52 57 58 -67 0
51 52 57 58 67 68 0
51 52 57 58 -68 0
51 52 -58 -67 0
51 52 -58 67 68 0
-52 -57 67 68 0
-52 -57 -68 0
-52 57 58 67 68 0
-52 57 58 -68 0
-51 59 60 -69 0
-51 59 60 69 70 0
-51 -60 -69 0
-51 -60 69 70 0
51 52 -59 69 70 0
51 52 -59 -70 0
51 52 59 60 -69 0
51 52 59 60 69 70 0
51 52 59 60 -70 0
51 52 -60 -69 0
51 52 -60 69 70 0
-52 -59 69 70 0
-52 -59 -70 0
-52 59 60 69 70 0
-52 59 60 -70 0
-51 61 62 -71 0
-51 61 62 71 72 0
-51 -62 -71 0
-51 -62 71 72 0
51 52 -61 71 72 0
51 52 -61 -72 0
51 52 61 62 -71 0
51 52 61 62 71 72 0
51 52 61 62 -72 0
51 52 -62 -71 0
51 52 -62 71 72 0
-52 -61 71 72 0
-52 -61 -72 0
-52 61 62 71 72 0
-52 61 62 -72 0
-53 55 56 -73 0
-53 55 56 73 74 0
-53 -56 -73 0
-53 -56 73 74 0
53 54 -55 73 74 0
53 54 -55 -74 0
53 54 55 56 -73 0
53 54 55 56 73 74 0
53 54 55 56 -74 0
53 54 -56 -73 0
53 54 -56 73 74 0
-54 -55 73 74 0
-54 -55 -74 0
-54 55 56 73 74 0
-54 55 56 -74 0
-53 57 58 -75 0
-53 57 58 75 76 0
-53 -58 -75 0
-53 -58 75 76 0
53 54 -57 75 76 0
53 54 -57 -76 0
53 54 57 58 -75 0
53 54 57 58 75 76 0
53 54 57 58 -76 0
53 54 -58 -75 0
53 54 -58 75 76 0
-54 -57 75 76 0
-54 -57 -76 0
-54 57 58 75 76 0
-54 57 58 -76 0
-53 59 60 -77 0
-53 59 60 77 78 0
-53 -60 -77 0
-53 -60 77 78 0
53 54 -59 77 78 0
53 54 -59 -78 0
53 54 59 60 -77 0
53 54 59 60 77 78 0
53 54 59 60 -78 0
53 54 -60 -77 0
53 54 -60 77 78 0
-54 -59 77 78 0
-54 -59 -78 0
-54 59 60 77 78 0
-54 59 60 -78 0
-53 61 62 -79 0
-53 61 62 79 80 0
-53 -62 -79 0
-53 -62 79 80 0
53 54 -61 79 80 0
53 54 -61 -80 0
53 54 61 62 -79 0
53 54 61 62 79 80 0
53 54 61 62 -80 0
53 54 -62 -79 0
53 54 -62 79 80 0
-54 -61 79 80 0
-54 -61 -80 0
-54 61 62 79 80 0
-54 61 62 -80 0
-55 57 58 -81 0
-55 57 58 81 82 0
-55 -58 -81 0
-55 -58 81 82 0
55 56 -57 81 82 0
55 56 -57 -82 0
55 56 57 58 -81 0
55 56 57 58 81 82 0
55 56 57 58 -82 0
55 56 -58 -81 0
55 56 -58 81 82 0
-56 -57 81 82 0
-56 -57 -82 0
-56 57 58 81 82 0
-56 57 58 -82 0
-55 59 60 -83 0
-55 59 60 83 84 0
-55 -60 -83 0
-55 -60 83 84 0
55 56 -59 83 84 0
55 56 -59 -84 0
55 56 59 60 -83 0
55 56 59 60 83 84 0
55 56 59 60 -84 0
55 56 -60 -83 0
55 56 -60 83 84 0
-56 -59 83 84 0
-56 -59 -84 0
-56 59 60 83 84 0
-56 59 60 -84 0
-55 61 62 -85 0
-55 61 62 85 86 0
-55 -62 -85 0
-55 -62 85 86 0
55 56 -61 85 86 0
55 56 -61 -86 0
55 56 61 62 -85 0
55 56 61 62 85 86 0
55 56 61 62 -86 0
55 56 -62 -85 0
55 56 -62 85 86 0
-56 -61 85 86 0
-56 -61 -86 0
-56 61 62 85 86 0
-56 61 62 -86 0
-57 59 60 -87 0
-57 59 60 87 88 0
-57 -60 -87 0
-57 -60 87 88 0
57 58 -59 87 88 0
57 58 -59 -88 0
57 58 59 60 -87 0
57 58 59 60 87 88 0
57 58 59 60 -88 0
57 58 -60 -87 0
57 58 -60 87 88 0
-58 -59 87 88 0
-58 -59 -88 0
-58 59 60 87 88 0
-58 59 60 -88 0
-57 61 62 -89 0
-57 61 62 89 90 0
-57 -62 -89 0
-57 -62 89 90 0
57 58 -61 89 90 0
57 58 -61 -90 0
57 58 61 62 -89 0
57 58 61 62 89 90 0
57 58 61 62 -90 0
57 58 -62 -89 0
57 58 -62 89 90 0
-58 -61 89 90 0
-58 -61 -90 0
-58 61 62 89 90 0
-58 61 62 -90 0
-59 61 62 -91 0
-59 61 62 91 92 0
-59 -62 -91 0
-59 -62 91 92 0
59 60 -61 91 92 0
59 60 -61 -92 0
59 60 61 62 -91 0
59 60 61 62 91 92 0
59 60 61 62 -92 0
59 60 -62 -91 0
59 60 -62 91 92 0
-60 -61 91 92 0
-60 -61 -92 0
-60 61 62 91 92 0
-60 61 62 -92 0
-63 65 66 -73 0
-63 65 66 73 74 0
-63 -66 -73 0
-63 -66 73 74 0
63 64 -65 73 74 0
63 64 -65 -74 0
63 64 65 66 -73 0
63 64 65 66 73 74 0
63 64 65 66 -74 0
63 64 -66 -73 0
63 64 -66 73 74 0
-64 -65 73 74 0
-64 -65 -74 0
-64 65 66 73 74 0
-64 65 66 -74 0
-63 67 68 -75 0
-63 67 68 75 76 0
-63 -68 -75 0
-63 -68 75 76 0
63 64 -67 75 76 0
63 64 -67 -76 0
63 64 67 68 -75 0
63 64 67 68 75 76 0
63 64 67 68 -76 0
63 64 -68 -75 0
63 64 -68 75 76 0
-64 -67 75 76 0
-64 -67 -76 0
-64 67 68 75 76 0
-64 67 68 -76 0
-63 69 70 -77 0
-63 69 70 77 78 0
-63 -70 -77 0
-63 -70 77 78 0
63 64 -69 77 78 0
63 64 -69 -78 0
63 64 69 70 -77 0
63 64 69 70 77 78 0
63 64 69 70 -78 0
63 64 -70 -77 0
63 64 -70 77 78 0
-64 -69 77 78 0
-64 -69 -78 0
-64 69 70 77 78 0
-64 69 70 -78 0
-63 71 72 -79 0
-63 71 72 79 80 0
-63 -72 -79 0
-63 -72 79 80 0
63 64 -71 79 80 0
63 64 -71 -80 0
63 64 71 72 -79 0
63 64 71 72 79 80 0
63 64 71 72 -80 0
63 64 -72 -79 0
63 64 -72 79 80 0
-64 -71 79 80 0
-64 -71 -80 0
-64 71 72 79 80 0
-64 71 72 -80 0
-65 67 68 -81 0
-65 67 68 81 82 0
-65 -68 -81 0
-65 -68 81 82 0
65 66 -67 81 82 0
65 66 -67 -82 0
65 66 67 68 -81 0
65 66 67 68 81 82 0
65 66 67 68 -82 0
65 66 -68 -81 0
65 66 -68 81 82 0
-66 -67 81 82 0
-66 -67 -82 0
-66 67 68 81 82 0
-66 67 68 -82 0
-65 69 70 -83 0
-65 69 70 83 84 0
-65 -70 -83 0
-65 -70 83 84 0
65 66 -69 83 84 0
65 66 -69 -84 0
65 66 69 70 -83 0
65 66 69 70 83 84 0
65 66 69 70 -84 0
65 66 -70 -83 0
65 66 -70 83 84 0
-66 -69 83 84 0
-66 -69 -84 0
-66 69 70 83 84 0
-66 69 70 -84 0
-65 71 72 -85 0
-65 71 72 85 86 0
-65 -72 -85 0
-65 -72 85 86 0
65 66 -71 85 86 0
65 66 -71 -86 0
65 66 71 72 -85 0
65 66 71 72 85 86 0
65 66 71 72 -86 0
65 66 -72 -85 0
65 66 -72 85 86 0
-66 -71 85 86 0
-66 -71 -86 0
-66 71 72 85 86 0
-66 71 72 -86 0
-67 69 70 -87 0
-67 69 70 87 88 0
-67 -70 -87 0
-67 -70 87 88 0
67 68 -69 87 88 0
67 68 -69 -88 0
67 68 69 70 -87 0
67 68 69 70 87 88 0
67 68 69 70 -88 0
67 68 -70 -87 0
67 68 -70 87 88 0
-68 -69 87 88 0
-68 -69 -88 0
-68 69 70 87 88 0
-68 69 70 -88 0
-67 71 72 -89 0
-67 71 72 89 90 0
-67 -72 -89 0
-67 -72 89 90 0
67 68 -71 89 90 0
67 68 -71 -90 0
67 68 71 72 -89 0
67 68 71 72 89 90 0
67 68 71 72 -90 0
67 68 -72 -89 0
67 68 -72 89 90 0
-68 -71 89 90 0
-68 -71 -90 0
-68 71 72 89 90 0
-68 71 72 -90 0
-69 71 72 -91 0
-69 71 72 91 92 0
-69 -72 -91 0
-69 -72 91 92 0
69 70 -71 91 92 0
69 70 -71 -92 0
69 70 71 72 -91 0
69 70 71 72 91 92 0
69 70 71 72 -92 0
69 70 -72 -91 0
69 70 -72 91 92 0
-70 -71 91 92 0
-70 -71 -92 0
-70 71 72 91 92 0
-70 71 72 -92 0
-73 75 76 -81 0
-73 75 76 81 82 0
-73 -76 -81 0
-73 -76 81 82 0
73 74 -75 81 82 0
73 74 -75 -82 0
73 74 75 76 -81 0
73 74 75 76 81 82 0
73 74 75 76 -82 0
73 74 -76 -81 0
73 74 -76 81 82 0
-74 -75 81 82 0
-74 -75 -82 0
-74 75 76 81 82 0
-74 75 76 -82 0
-73 77 78 -83 0
-73 77 78 83 84 0
-73 -78 -83 0
-73 -78 83 84 0
73 74 -77 83 84 0
73 74 -77 -84 0
73 74 77 78 -83 0
73 74 77 78 83 84 0
73 74 77 78 -84 0
73 74 -78 -83 0
73 74 -78 83 84 0
-74 -77 83 84 0
-74 -77 -84 0
-74 77 78 83 84 0
-74 77 78 -84 0
-73 79 80 -85 0
-73 79 80 85 86 0
-73 -80 -85 0
-73 -80 85 86 0
73 74 -79 85 86 0
73 74 -79 -86 0
73 74 79 80 -85 0
73 74 79 80 85 86 0
73 74 79 80 -86 0
73 74 -80 -85 0
73 74 -80 85 86 0
-74 -79 85 86 0
-74 -79 -86 0
-74 79 80 85 86 0
-74 79 80 -86 0
-75 77 78 -87 0
-75 77 78 87 88 0
-75 -78 -87 0
-75 -78 87 88 0
75 76 -77 87 88 0
75 76 -77 -88 0
75 76 77 78 -87 0
75 76 77 78 87 88 0
75 76 77 78 -88 0
75 76 -78 -87 0
75 76 -78 87 88 0
-76 -77 87 88 0
-76 -77 -88 0
-76 77 78 87 88 0
-76 77 78 -88 0
-75 79 80 -89 0
-75 79 80 89 90 0
-75 -80 -89 0
-75 -80 89 90 0
75 76 -79 89 90 0
75 76 -79 -90 0
75 76 79 80 -89 0
75 76 79 80 89 90 0
75 76 79 80 -90 0
75 76 -80 -89 0
75 76 -80 89 90 0
-76 -79 89 90 0
-76 -79 -90 0
-76 79 80 89 90 0
-76 79 80 -90 0
-77 79 80 -91 0
-77 79 80 91 92 0
-77 -80 -91 0
-77 -80 91 92 0
77 78 -79 91 92 0
77 78 -79 -92 0
77 78 79 80 -91 0
77 78 79 80 91 92 0
77 78 79 80 -92 0
77 78 -80 -91 0
77 78 -80 91 92 0
-78 -79 91 92 0
-78 -79 -92 0
-78 79 80 91 92 0
-78 79 80 -92 0
-81 83 84 -87 0
-81 83 84 87 88 0
-81 -84 -87 0
-81 -84 87 88 0
81 82 -83 87 88 0
81 82 -83 -88 0
81 82 83 84 -87 0
81 82 83 84 87 88 0
81 82 83 84 -88 0
81 82 -84 -87 0
81 82 -84 87 88 0
-82 -83 87 88 0
-82 -83 -88 0
-82 83 84 87 88 0
-82 83 84 -88 0
-81 85 86 -89 0
-81 85 86 89 90 0
-81 -86 -89 0
-81 -86 89 90 0
81 82 -85 89 90 0
81 82 -85 -90 0
81 82 85 86 -89 0
81 82 85 86 89 90 0
81 82 85 86 -90 0
81 82 -86 -89 0
81 82 -86 89 90 0
-82 -85 89 90 0
-82 -85 -90 0
-82 85 86 89 90 0
-82 85 86 -90 0
-83 85 86 -91 0
-83 85 86 91 92 0
-83 -86 -91 0
-83 -86 91 92 0
83 84 -85 91 92 0
83 84 -85 -92 0
83 84 85 86 -91 0
83 84 85 86 91 92 0
83 84 85 86 -92 0
83 84 -86 -91 0
83 84 -86 91 92 0
-84 -85 91 92 0
-84 -85 -92 0
-84 85 86 91 92 0
-84 85 86 -92 0
-87 89 90 -91 0
-87 89 90 91 92 0
-87 -90 -91 0
-87 -90 91 92 0
87 88 -89 91 92 0
87 88 -89 -92 0
87 88 89 90 -91 0
87 88 89 90 91 92 0
87 88 89 90 -92 0
87 88 -90 -91 0
87 88 -90 91 92 0
-88 -89 91 92 0
-88 -89 -92 0
-88 89 90 91 92 0
-88 89 90 -92 0
-93 95 96 -107 0
-93 95 96 107 108 0
-93 -96 -107 0
-93 -96 107 108 0
93 94 -95 107 108 0
93 94 -95 -108 0
93 94 95 96 -107 0
93 94 95 96 107 108 0
93 94 95 96 -108 0
93 94 -96 -107 0
93 94 -96 107 108 0
-94 -95 107 108 0
-94 -95 -108 0
-94 95 96 107 108 0
-94 95 96 -108 0
-93 97 98 -109 0
-93 97 98 109 110 0
-93 -98 -109 0
-93 -98 109 110 0
93 94 -97 109 110 0
93 94 -97 -110 0
93 94 97 98 -109 0
93 94 97 98 109 110 0
93 94 97 98 -110 0
93 94 -98 -109 0
93 94 -98 109 110 0
-94 -97 109 110 0
-94 -97 -110 0
-94 97 98 109 110 0
-94 97 98 -110 0
-93 99 100 -111 0
-93 99 100 111 112 0
-93 -100 -111 0
-93 -100 111 112 0
93 94 -99 111 112 0
93 94 -99 -112 0
93 94 99 100 -111 0
93 94 99 100 111 112 0
93 94 99 100 -112 0
93 94 -100 -111 0
93 94 -100 111 112 0
-94 -99 111 112 0
-94 -99 -112 0
-94 99 100 111 112 0
-94 99 100 -112 0
-93 101 102 -113 0
-93 101 102 113 114 0
-93 -102 -113 0
-93 -102 113 114 0
93 94 -101 113 114 0
93 94 -101 -114 0
93 94 101 102 -113 0
93 94 101 102 113 114 0
93 94 101 102 -114 0
93 94 -102 -113 0
93 94 -102 113 114 0
-94 -101 113 114 0
-94 -101 -114 0
-94 101 102 113 114 0
-94 101 102 -114 0
-93 103 104 -115 0
-93 103 104 115 116 0
-93 -104 -115 0
-93 -104 115 116 0
93 94 -103 115 116 0
93 94 -103 -116 0
93 94 103 104 -115 0
93 94 103 104 115 116 0
93 94 103 104 -116 0
93 94 -104 -115 0
93 94 -104 115 116 0
-94 -103 115 116 0
-94 -103 -116 0
-94 103 104 115 116 0
-94 103 104 -116 0
-93 105 106 -117 0
-93 105 106 117 118 0
-93 -106 -117 0
-93 -106 117 118 0
93 94 -105 117 118 0
93 94 -105 -118 0
93 94 105 106 -117 0
93 94 105 106 117 118 0
93 94 105 106 -118 0
93 94 -106 -117 0
93 94 -106 117 118 0
-94 -105 117 118 0
-94 -105 -118 0
-94 105 106 117 118 0
-94 105 106 -118 0
-95 97 98 -119 0
-95 97 98 119 120 0
-95 -98 -119 0
-95 -98 119 120 0
95 96 -97 119 120 0
95 96 -97 -120 0
95 96 97 98 -119 0
95 96 97 98 119 120 0
95 96 97 98 -120 0
95 96 -98 -119 0
95 96 -98 119 120 0
-96 -97 119 120 0
-96 -97 -120 0
-96 97 98 119 120 0
-96 97 98 -120 0
-95 99 100 -121 0
-95 99 100 121 122 0
-95 -100 -121 0
-95 -100 121 122 0
95 96 -99 121 122 0
95 96 -99 -122 0
95 96 99 100 -121 0
95 96 99 100 121 122 0
95 96 99 100 -122 0
95 96 -100 -121 0
95 96 -100 121 122 0
-96 -99 121 122 0
-96 -99 -122 0
-96 99 100 121 122 0
-96 99 100 -122 0
-95 101 102 -123 0
-95 101 102 123 124 0
-95 -102 -123 0
-95 -102 123 124 0
95 96 -101 123 124 0
95 96 -101 -124 0
95 96 101 102 -123 0
95 96 101 102 123 124 0
95 96 101 102 -124 0
95 96 -102 -123 0
95 96 -102 123 124 0
-96 -101 123 124 0
-96 -101 -124 0
-96 101 102 123 124 0
-96 101 102 -124 0
-95 103 104 -125 0
-95 103 104 125 126 0
-95 -104 -125 0
-95 -104 125 126 0
95 96 -103 125 126 0
95 96 -103 -126 0
95 96 103 104 -125 0
95 96 103 104 125 126 0
95 96 103 104 -126 0
95 96 -104 -125 0
95 96 -104 125 126 0
-96 -103 125 126 0
-96 -103 -126 0
-96 103 104 125 126 0
-96 103 104 -126 0
-95 105 106 -127 0
-95 105 106 127 128 0
-95 -106 -127 0
-95 -106 127 128 0
95 96 -105 127 128 0
95 96 -105 -128 0
95 96 105 106 -127 0
95 96 105 106 127 128 0
95 96 105 106 -128 0
95 96 -106 -127 0
95 96 -106 127 128 0
-96 -105 127 128 0
-96 -105 -128 0
-96 105 106 127 128 0
-96 105 106 -128 0
-97 99 100 -129 0
-97 99 100 129 130 0
-97 -100 -129 0
-97 -100 129 130 0
97 98 -99 129 130 0
97 98 -99 -130 0
97 98 99 100 -129 0
97 98 99 100 129 130 0
97 98 99 100 -130 0
97 98 -100 -129 0
97 98 -100 129 130 0
-98 -99 129 130 0
-98 -99 -130 0
-98 99 100 129 130 0
-98 99 100 -130 0
-97 101 102 -131 0
-97 101 102 131 132 0
-97 -102 -131 0
-97 -102 131 132 0
97 98 -101 131 132 0
97 98 -101 -132 0
97 98 101 102 -131 0
97 98 101 102 131 132 0
97 98 101 102 -132 0
97 98 -102 -131 0
97 98 -102 131 132 0
-98 -101 131 132 0
-98 -101 -132 0
-98 101 102 131 132 0
-98 101 102 -132 0
-97 103 104 -133 0
-97 103 104 133 134 0
-97 -104 -133 0
-97 -104 133 134 0
97 98 -103 133 134 0
97 98 -103 -134 0
97 98 103 104 -133 0
97 98 103 104 133 134 0
97 98 103 104 -134 0
97 98 -104 -133 0
97 98 -104 133 134 0
-98 -103 133 134 0
-98 -103 -134 0
-98 103 104 133 134 0
-98 103 104 -134 0
-97 105 106 -135 0
-97 105 106 135 136 0
-97 -106 -135 0
-97 -106 135 136 0
97 98 -105 135 136 0
97 98 -105 -136 0
97 98 105 106 -135 0
97 98 105 106 135 136 0
97 98 105 106 -136 0
97 98 -106 -135 0
97 98 -106 135 136 0
-98 -105 135 136 0
-98 -105 -136 0
-98 105 106 135 136 0
-98 105 106 -136 0
-99 101 102 -137 0
-99 101 102 137 138 0
-99 -102 -137 0
-99 -102 137 138 0
99 100 -101 137 138 0
99 100 -101 -138 0
99 100 101 102 -137 0
99 100 101 102 137 138 0
99 100 101 102 -138 0
99 100 -102 -137 0
99 100 -102 137 138 0
-100 -101 137 138 0
-100 -101 -138 0
-100 101 102 137 138 0
-100 101 102 -138 0
-99 103 104 -139 0
-99 103 104 139 140 0
-99 -104 -139 0
-99 -104 139 140 0
99 100 -103 139 140 0
99 100 -103 -140 0
99 100 103 104 -139 0
99 100 103 104 139 140 0
99 100 103 104 -140 0
99 100 -104 -139 0
99 100 -104 139 140 0
-100 -103 139 140 0
-100 -103 -140 0
-100 103 104 139 140 0
-100 103 104 -140 0
-99 105 106 -141 0
-99 105 106 141 142 0
-99 -106 -141 0
-99 -106 141 142 0
99 100 -105 141 142 0
99 100 -105 -142 0
99 100 105 106 -141 0
99 100 105 106 141 142 0
99 100 105 106 -142 0
99 100 -106 -141 0
99 100 -106 141 142 0
-100 -105 141 142 0
-100 -105 -142 0
-100 105 106 141 142 0
-100 105 106 -142 0
-101 103 104 -143 0
-101 103 104 143 144 0
-101 -104 -143 0
-101 -104 143 144 0
101 102 -103 143 144 0
101 102 -103 -144 0
101 102 103 104 -143 0
101 102 103 104 143 144 0
101 102 103 104 -144 0
101 102 -104 -143 0
101 102 -104 143 144 0
-102 -103 143 144 0
-102 -103 -144 0
-102 103 104 143 144 0
-102 103 104 -144 0
-101 105 106 -145 0
-101 105 106 145 146 0
-101 -106 -145 0
-101 -106 145 146 0
101 102 -105 145 146 0
101 102 -105 -146 0
101 102 105 106 -145 0
101 102 105 106 145 146 0
101 102 105 106 -146 0
101 102 -106 -145 0
101 102 -106 145 146 0
-102 -105 145 146 0
-102 -105 -146 0
-102 105 106 145 146 0
-102 105 106 -146 0
-103 105 106 -147 0
-103 105 106 147 148 0
-103 -106 -147 0
-103 -106 147 148 0
103 104 -105 147 148 0
103 104 -105 -148 0
103 104 105 106 -147 0
103 104 105 106 147 148 0
103 104 105 106 -148 0
103 104 -106 -147 0
103 104 -106 147 148 0
-104 -105 147 148 0
-104 -105 -148 0
-104 105 106 147 148 0
-104 105 106 -148 0
-107 109 110 -119 0
-107 109 110 119 120 0
-107 -110 -119 0
-107 -110 119 120 0
107 108 -109 119 120 0
107 108 -109 -120 0
107 108 109 110 -119 0
107 108 109 110 119 120 0
107 108 109 110 -120 0
107 108 -110 -119 0
107 108 -110 119 120 0
-108 -109 119 120 0
-108 -109 -120 0
-108 109 110 119 120 0
-108 109 110 -120 0
-107 111 112 -121 0
-107 111 112 121 122 0
-107 -112 -121 0
-107 -112 121 122 0
107 108 -111 121 122 0
107 108 -111 -122 0
107 108 111 112 -121 0
107 108 111 112 121 122 0
107 108 111 112 -122 0
107 108 -112 -121 0
107 108 -112 121 122 0
-108 -111 121 122 0
-108 -111 -122 0
-108 111 112 121 122 0
-108 111 112 -122 0
-107 113 114 -123 0
-107 113 114 123 124 0
-107 -114 -123 0
-107 -114 123 124 0
107 108 -113 123 124 0
107 108 -113 -124 0
107 108 113 114 -123 0
107 108 113 114 123 124 0
107 108 113 114 -124 0
107 108 -114 -123 0
107 108 -114 123 124 0
-108 -113 123 124 0
-108 -113 -124 0
-108 113 114 123 124 0
-108 113 114 -124 0
-107 115 116 -125 0
-107 115 116 125 126 0
-107 -116 -125 0
-107 -116 125 126 0
107 108 -115 125 126 0
107 108 -115 -126 0
107 108 115 116 -125 0
107 108 115 116 125 126 0
107 108 115 116 -126 0
107 108 -116 -125 0
107 108 -116 125 126 0
-108 -115 125 126 0
-108 -115 -126 0
-108 115 116 125 126 0
-108 115 116 -126 0
-107 117 118 -127 0
-107 117 118 127 128 0
-107 -118 -127 0
-107 -118 127 128 0
107 108 -117 127 128 0
107 108 -117 -128 0
107 108 117 118 -127 0
107 108 117 118 127 128 0
107 108 117 118 -128 0
107 108 -118 -127 0
107 108 -118 127 128 0
-108 -117 127 128 0
-108 -117 -128 0
-108 117 118 127 128 0
-108 117 118 -128 0
-109 111 112 -129 0
-109 111 112 129 130 0
-109 -112 -129 0
-109 -112 129 130 0
109 110 -111 129 130 0
109 110 -111 -130 0
109 110 111 112 -129 0
109 110 111 112 129 130 0
109 110 111 112 -130 0
109 110 -112 -129 0
109 110 -112 129 130 0
-110 -111 129 130 0
-110 -111 -130 0
-110 111 112 129 130 0
-110 111 112 -130 0
-109 113 114 -131 0
-109 113 114 131 132 0
-109 -114 -131 0
-109 -114 131 132 0
109 110 -113 131 132 0
109 110 -113 -132 0
109 110 113 114 -131 0
109 110 113 114 131 132 0
109 110 113 114 -132 0
109 110 -114 -131 0
109 110 -114 131 132 0
-110 -113 131 132 0
-110 -113 -132 0
-110 113 114 131 132 0
-110 113 114 -132 0
-109 115 116 -133 0
-109 115 116 133 134 0
-109 -116 -133 0
-109 -116 133 134 0
109 110 -115 133 134 0
109 110 -115 -134 0
109 110 115 116 -133 0
109 110 115 116 133 134 0
109 110 115 116 -134 0
109 110 -116 -133 0
109 110 -116 133 134 0
-110 -115 133 134 0
-110 -115 -134 0
-110 115 116 133 134 0
-110 115 116 -134 0
-109 117 118 -135 0
-109 117 118 135 136 0
-109 -118 -135 0
-109 -118 135 136 0
109 110 -117 135 136 0
109 110 -117 -136 0
109 110 117 118 -135 0
109 110 117 118 135 136 0
109 110 117 118 -136 0
109 110 -118 -135 0
109 110 -118 135 136 0
-110 -117 135 136 0
-110 -117 -136 0
-110 117 118 135 136 0
-110 117 118 -136 0
-111 113 114 -137 0
-111 113 114 137 138 0
-111 -114 -137 0
-111 -114 137 138 0
111 112 -113 137 138 0
111 112 -113 -138 0
111 112 113 114 -137 0
111 112 113 114 137 138 0
111 112 113 114 -138 0
111 112 -114 -137 0
111 112 -114 137 138 0
-112 -113 137 138 0
-112 -113 -138 0
-112 113 114 137 138 0
-112 113 114 -138 0
-111 115 116 -139 0
-111 115 116 139 140 0
-111 -116 -139 0
-111 -116 139 140 0
111 112 -115 139 140 0
111 112 -115 -140 0
111 112 115 116 -139 0
111 112 115 116 139 140 0
111 112 115 116 -140 0
111 112 -116 -139 0
111 112 -116 139 140 0
-112 -115 139 140 0
-112 -115 -140 0
-112 115 116 139 140 0
-112 115 116 -140 0
-111 117 118 -141 0
-111 117 118 141 142 0
-111 -118 -141 0
-111 -118 141 142 0
111 112 -117 141 142 0
111 112 -117 -142 0
111 112 117 118 -141 0
111 112 117 118 141 142 0
111 112 117 118 -142 0
111 112 -118 -141 0
111 112 -118 141 142 0
-112 -117 141 142 0
-112 -117 -142 0
-112 117 118 141 142 0
-112 117 118 -142 0
-113 115 116 -143 0
-113 115 116 143 144 0
-113 -116 -143 0
-113 -116 143 144 0
113 114 -115 143 144 0
113 114 -115 -144 0
113 114 115 116 -143 0
113 114 115 116 143 144 0
113 114 115 116 -144 0
113 114 -116 -143 0
113 114 -116 143 144 0
-114 -115 143 144 0
-114 -115 -144 0
-114 115 116 143 144 0
-114 115 116 -144 0
-113 117 118 -145 0
-113 117 118 145 146 0
-113 -118 -145 0
-113 -118 145 146 0
113 114 -117 145 146 0
113 114 -117 -146 0
113 114 117 118 -145 0
113 114 117 118 145 146 0
113 114 117 118 -146 0
113 114 -118 -145 0
113 114 -118 145 146 0
-114 -117 145 146 0
-114 -117 -146 0
-114 117 118 145 146 0
-114 117 118 -146 0
-115 117 118 -147 0
-115 117 118 147 148 0
-115 -118 -147 0
-115 -118 147 148 0
115 116 -117 147 148 0
115 116 -117 -148 0
115 116 117 118 -147 0
115 116 117 118 147 148 0
115 116 117 118 -148 0
115 116 -118 -147 0
115 116 -118 147 148 0
-116 -117 147 148 0
-116 -117 -148 0
-116 117 118 147 148 0
-116 117 118 -148 0
-119 121 122 -129 0
-119 121 122 129 130 0
-119 -122 -129 0
-119 -122 129 130 0
119 120 -121 129 130 0
119 120 -121 -130 0
119 120 121 122 -129 0
119 120 121 122 129 130 0
119 120 121 122 -130 0
119 120 -122 -129 0
119 120 -122 129 130 0
-120 -121 129 130 0
-120 -121 -130 0
-120 121 122 129 130 0
-120 121 122 -130 0
-119 123 124 -131 0
-119 123 124 131 132 0
-119 -124 -131 0
-119 -124 131 132 0
119 120 -123 131 132 0
119 120 -123 -132 0
119 120 123 124 -131 0
119 120 123 124 131 132 0
119 120 123 124 -132 0
119 120 -124 -131 0
119 120 -124 131 132 0
-120 -123 131 132 0
-120 -123 -132 0
-120 123 124 131 132 0
-120 123 124 -132 0
-119 125 126 -133 0
-119 125 126 133 134 0
-119 -126 -133 0
-119 -126 133 134 0
119 120 -125 133 134 0
119 120 -125 -134 0
119 120 125 126 -133 0
119 120 125 126 133 134 0
119 120 125 126 -134 0
119 120 -126 -133 0
119 120 -126 133 134 0
-120 -125 133 134 0
-120 -125 -134 0
-120 125 126 133 134 0
-120 125 126 -134 0
-119 127 128 -135 0
-119 127 128 135 136 0
-119 -128 -135 0
-119 -128 135 136 0
119 120 -127 135 136 0
119 120 -127 -136 0
119 120 127 128 -135 0
119 120 127 128 135 136 0
119 120 127 128 -136 0
119 120 -128 -135 0
119 120 -128 135 136 0
-120 -127 135 136 0
-120 -127 -136 0
-120 127 128 135 136 0
-120 127 128 -136 0
-121 123 124 -137 0
-121 123 124 137 138 0
-121 -124 -137 0
-121 -124 137 138 0
121 122 -123 137 138 0
121 122 -123 -138 0
121 122 123 124 -137 0
121 122 123 124 137 138 0
121 122 123 124 -138 0
121 122 -124 -137 0
121 122 -124 137 138 0
-122 -123 137 138 0
-122 -123 -138 0
-122 123 124 137 138 0
-122 123 124 -138 0
-121 125 126 -139 0
-121 125 126 139 140 0
-121 -126 -139 0
-121 -126 139 140 0
121 122 -125 139 140 0
121 122 -125 -140 0
121 122 125 126 -139 0
121 122 125 126 139 140 0
121 122 125 126 -140 0
121 122 -126 -139 0
121 122 -126 139 140 0
-122 -125 139 140 0
-122 -125 -140 0
-122 125 126 139 140 0
-122 125 126 -140 0
-121 127 128 -141 0
-121 127 128 141 142 0
-121 -128 -141 0
-121 -128 141 142 0
121 122 -127 141 142 0
121 122 -127 -142 0
121 122 127 128 -141 0
121 122 127 128 141 142 0
121 122 127 128 -142 0
121 122 -128 -141 0
121 122 -128 141 142 0
-122 -127 141 142 0
-122 -127 -142 0
-122 127 128 141 142 0
-122 127 128 -142 0
-123 125 126 -143 0
-123 125 126 143 144 0
-123 -126 -143 0
-123 -126 143 144 0
123 124 -125 143 144 0
123 124 -125 -144 0
123 124 125 126 -143 0
123 124 125 126 143 144 0
123 124 125 126 -144 0
123 124 -126 -143 0
123 124 -126 143 144 0
-124 -125 143 144 0
-124 -125 -144 0
-124 125 126 143 144 0
-124 125 126 -144 0
-123 127 128 -145 0
-123 127 128 145 146 0
-123 -128 -145 0
-123 -128 145 146 0
123 124 -127 145 146 0
123 124 -127 -146 0
123 124 127 128 -145 0
123 124 127 128 145 146 0
123 124 127 128 -146 0
123 124 -128 -145 0
123 124 -128 145 146 0
-124 -127 145 146 0
-124 -127 -146 0
-124 127 128 145 146 0
-124 127 128 -146 0
-125 127 128 -147 0
-125 127 128 147 148 0
-125 -128 -147 0
-125 -128 147 148 0
125 126 -127 147 148 0
125 126 -127 -148 0
125 126 127 128 -147 0
125 126 127 128 147 148 0
125 126 127 128 -148 0
125 126 -128 -147 0
125 126 -128 147 148 0
-126 -127 147 148 0
-126 -127 -148 0
-126 127 128 147 148 0
-126 127 128 -148 0
-129 131 132 -137 0
-129 131 132 137 138 0
-129 -132 -137 0
-129 -132 137 138 0
129 130 -131 137 138 0
129 130 -131 -138 0
129 130 131 132 -137 0
129 130 131 132 137 138 0
129 130 131 132 -138 0
129 130 -132 -137 0
129 130 -132 137 138 0
-130 -131 137 138 0
-130 -131 -138 0
-130 131 132 137 138 0
-130 131 132 -138 0
-129 133 134 -139 0
-129 133 134 139 140 0
-129 -134 -139 0
-129 -134 139 140 0
129 130 -133 139 140 0
129 130 -133 -140 0
129 130 133 134 -139 0
129 130 133 134 139 140 0
129 130 133 134 -140 0
129 130 -134 -139 0
129 130 -134 139 140 0
-130 -133 139 140 0
-130 -133 -140 0
-130 133 134 139 140 0
-130 133 134 -140 0
-129 135 136 -141 0
-129 135 136 141 142 0
-129 -136 -141 0
-129 -136 141 142 0
129 130 -135 141 142 0
129 130 -135 -142 0
129 130 135 136 -141 0
129 130 135 136 141 142 0
129 130 135 136 -142 0
129 130 -136 -141 0
129 130 -136 141 142 0
-130 -135 141 142 0
-130 -135 -142 0
-130 135 136 141 142 0
-130 135 136 -142 0
-131 133 134 -143 0
-131 133 134 143 144 0
-131 -134 -143 0
-131 -134 143 144 0
131 132 -133 143 144 0
131 132 -133 -144 0
131 132 133 134 -143 0
131 132 133 134 143 144 0
131 132 133 134 -144 0
131 132 -134 -143 0
131 132 -134 143 144 0
-132 -133 143 144 0
-132 -133 -144 0
-132 133 134 143 144 0
-132 133 134 -144 0
-131 135 136 -145 0
-131 135 136 145 146 0
-131 -136 -145 0
-131 -136 145 146 0
131 132 -135 145 146 0
131 132 -135 -146 0
131 132 135 136 -145 0
131 132 135 136 145 146 0
131 132 135 136 -146 0
131 132 -136 -145 0
131 132 -136 145 146 0
-132 -135 145 146 0
-132 -135 -146 0
-132 135 136 145 146 0
-132 135 136 -146 0
-133 135 136 -147 0
-133 135 136 147 148 0
-133 -136 -147 0
-133 -136 147 148 0
133 134 -135 147 148 0
133 134 -135 -148 0
133 134 135 136 -147 0
133 134 135 136 147 148 0
133 134 135 136 -148 0
133 134 -136 -147 0
133 134 -136 147 148 0
-134 -135 147 148 0
-134 -135 -148 0
-134 135 136 147 148 0
-134 135 136 -148 0
-137 139 140 -143 0
-137 139 140 143 144 0
-137 -140 -143 0
-137 -140 143 144 0
137 138 -139 143 144 0
137 138 -139 -144 0
137 138 139 140 -143 0
137 138 139 140 143 144 0
137 138 139 140 -144 0
137 138 -140 -143 0
137 138 -140 143 144 0
-138 -139 143 144 0
-138 -139 -144 0
-138 139 140 143 144 0
-138 139 140 -144 0
-137 141 142 -145 0
-137 141 142 145 146 0
-137 -142 -145 0
-137 -142 145 146 0
137 138 -141 145 146 0
137 138 -141 -146 0
137 138 141 142 -145 0
137 138 141 142 145 146 0
137 138 141 142 -146 0
137 138 -142 -145 0
137 138 -142 145 146 0
-138 -141 145 146 0
-138 -141 -146 0
-138 141 142 145 146 0
-138 141 142 -146 0
-139 141 142 -147 0
-139 141 142 147 148 0
-139 -142 -147 0
-139 -142 147 148 0
139 140 -141 147 148 0
139 140 -141 -148 0
139 140 141 142 -147 0
139 140 141 142 147 148 0
139 140 141 142 -148 0
139 140 -142 -147 0
139 140 -142 147 148 0
-140 -141 147 148 0
-140 -141 -148 0
-140 141 142 147 148 0
-140 141 142 -148 0
-143 145 146 -147 0
-143 145 146 147 148 0
-143 -146 -147 0
-143 -146 147 148 0
143 144 -145 147 148 0
143 144 -145 -148 0
143 144 145 146 -147 0
143 144 145 146 147 148 0
143 144 145 146 -148 0
143 144 -146 -147 0
143 144 -146 147 148 0
-144 -145 147 148 0
-144 -145 -148 0
-144 145 146 147 148 0
-144 145 146 -148 0
-149 151 152 -163 0
-149 151 152 163 164 0
-149 -152 -163 0
-149 -152 163 164 0
149 150 -151 163 164 0
149 150 -151 -164 0
149 150 151 152 -163 0
149 150 151 152 163 164 0
149 150 151 152 -164 0
149 150 -152 -163 0
149 150 -152 163 164 0
-150 -151 163 164 0
-150 -151 -164 0
-150 151 152 163 164 0
-150 151 152 -164 0
-149 153 154 -165 0
-149 153 154 165 166 0
-149 -154 -165 0
-149 -154 165 166 0
149 150 -153 165 166 0
149 150 -153 -166 0
149 150 153 154 -165 0
149 150 153 154 165 166 0
149 150 153 154 -166 0
149 150 -154 -165 0
149 150 -154 165 166 0
-150 -153 165 166 0
-150 -153 -166 0
-150 153 154 165 166 0
-150 153 154 -166 0
-149 155 156 -167 0
-149 155 156 167 168 0
-149 -156 -167 0
-149 -156 167 168 0
149 150 -155 167 168 0
149 150 -155 -168 0
149 150 155 156 -167 0
149 150 155 156 167 168 0
149 150 155 156 -168 0
149 150 -156 -167 0
149 150 -156 167 168 0
-150 -155 167 168 0
-150 -155 -168 0
-150 155 156 167 168 0
-150 155 156 -168 0
-149 157 158 -169 0
-149 157 158 169 170 0
-149 -158 -169 0
-149 -158 169 170 0
149 150 -157 169 170 0
149 150 -157 -170 0
149 150 157 158 -169 0
149 150 157 158 169 170 0
149 150 157 158 -170 0
149 150 -158 -169 0
149 150 -158 169 170 0
-150 -157 169 170 0
-150 -157 -170 0
-150 157 158 169 170 0
-150 157 158 -170 0
-149 159 160 -171 0
-149 159 160 171 172 0
-149 -160 -171 0
-149 -160 171 172 0
149 150 -159 171 172 0
149 150 -159 -172 0
149 150 159 160 -171 0
149 150 159 160 171 172 0
149 150 159 160 -172 0
149 150 -160 -171 0
149 150 -160 171 172 0
-150 -159 171 172 0
-150 -159 -172 0
-150 159 160 171 172 0
-150 159 160 -172 0
-149 161 162 -173 0
-149 161 162 173 174 0
-149 -162 -173 0
-149 -162 173 174 0
149 150 -161 173 174 0
149 150 -161 -174 0
149 150 161 162 -173 0
149 150 161 162 173 174 0
149 150 161 162 -174 0
149 150 -162 -173 0
149 150 -162 173 174 0
-150 -161 173 174 0
-150 -161 -174 0
-150 161 162 173 174 0
-150 161 162 -174 0
-151 153 154 -175 0
-151 153 154 175 176 0
-151 -154 -175 0
-151 -154 175 176 0
151 152 -153 175 176 0
151 152 -153 -176 0
151 152 153 154 -175 0
151 152 153 154 175 176 0
151 152 153 154 -176 0
151 152 -154 -175 0
151 152 -154 175 176 0
-152 -153 175 176 0
-152 -153 -176 0
-152 153 154 175 176 0
-152 153 154 -176 0
-151 155 156 -177 0
-151 155 156 177 178 0
-151 -156 -177 0
-151 -156 177 178 0
151 152 -155 177 178 0
151 152 -155 -178 0
151 152 155 156 -177 0
151 152 155 156 177 178 0
151 152 155 156 -178 0
151 152 -156 -177 0
151 152 -156 177 178 0
-152 -155 177 178 0
-152 -155 -178 0
-152 155 156 177 178 0
-152 155 156 -178 0
-151 157 158 -179 0
-151 157 158 179 180 0
-151 -158 -179 0
-151 -158 179 180 0
151 152 -157 179 180 0
151 152 -157 -180 0
151 152 157 158 -179 0
151 152 157 158 179 180 0
151 152 157 158 -180 0
151 152 -158 -179 0
151 152 -158 179 180 0
-152 -157 179 180 0
-152 -157 -180 0
-152 157 158 179 180 0
-152 157 158 -180 0
-151 159 160 -181 0
-151 159 160 181 182 0
-151 -160 -181 0
-151 -160 181 182 0
151 152 -159 181 182 0
151 152 -159 -182 0
151 152 159 160 -181 0
151 152 159 160 181 182 0
151 152 159 160 -182 0
151 152 -160 -181 0
151 152 -160 181 182 0
-152 -159 181 182 0
-152 -159 -182 0
-152 159 160 181 182 0
-152 159 160 -182 0
-151 161 162 -183 0
-151 161 162 183 184 0
-151 -162 -183 0
-151 -162 183 184 0
151 152 -161 183 184 0
151 152 -161 -184 0
151 152 161 162 -183 0
151 152 161 162 183 184 0
151 152 161 162 -184 0
151 152 -162 -183 0
151 152 -162 183 184 0
-152 -161 183 184 0
-152 -161 -184 0
-152 161 162 183 184 0
-152 161 162 -184 0
-153 155 156 -185 0
-153 155 156 185 186 0
-153 -156 -185 0
-153 -156 185 186 0
153 154 -155 185 186 0
153 154 -155 -186 0
153 154 155 156 -185 0
153 154 155 156 185 186 0
153 154 155 156 -186 0
153 154 -156 -185 0
153 154 -156 185 186 0
-154 -155 185 186 0
-154 -155 -186 0
-154 155 156 185 186 0
-154 155 156 -186 0
-153 157 158 -187 0
-153 157 158 187 188 0
-153 -158 -187 0
-153 -158 187 188 0
153 154 -157 187 188 0
153 154 -157 -188 0
153 154 157 158 -187 0
153 154 157 158 187 188 0
153 154 157 158 -188 0
153 154 -158 -187 0
153 154 -158 187 188 0
-154 -157 187 188 0
-154 -157 -188 0
-154 157 158 187 188 0
-154 157 158 -188 0
-153 159 160 -189 0
-153 159 160 189 190 0
-153 -160 -189 0
-153 -160 189 190 0
153 154 -159 189 190 0
153 154 -159 -190 0
153 154 159 160 -189 0
153 154 159 160 189 190 0
153 154 159 160 -190 0
153 154 -160 -189 0
153 154 -160 189 190 0
-154 -159 189 190 0
-154 -159 -190 0
-154 159 160 189 190 0
-154 159 160 -190 0
-153 161 162 -191 0
-153 161 162 191 192 0
-153 -162 -191 0
-153 -162 191 192 0
153 154 -161 191 192 0
153 154 -161 -192 0
153 154 161 162 -191 0
153 154 161 162 191 192 0
153 154 161 162 -192 0
153 154 -162 -191 0
153 154 -162 191 192 0
-154 -161 191 192 0
-154 -161 -192 0
-154 161 162 191 192 0
-154 161 162 -192 0
-155 157 158 -193 0
-155 157 158 193 194 0
-155 -158 -193 0
-155 -158 193 194 0
155 156 -157 193 194 0
155 156 -157 -194 0
155 156 157 158 -193 0
155 156 157 158 193 194 0
155 156 157 158 -194 0
155 156 -158 -193 0
155 156 -158 193 194 0
-156 -157 193 194 0
-156 -157 -194 0
-156 157 158 193 194 0
-156 157 158 -194 0
-155 159 160 -195 0
-155 159 160 195 196 0
-155 -160 -195 0
-155 -160 195 196 0
155 156 -159 195 196 0
155 156 -159 -196 0
155 156 159 160 -195 0
155 156 159 160 195 196 0
155 156 159 160 -196 0
155 156 -160 -195 0
155 156 -160 195 196 0
-156 -159 195 196 0
-156 -159 -196 0
-156 159 160 195 196 0
-156 159 160 -196 0
-155 161 162 -197 0
-155 161 162 197 198 0
-155 -162 -197 0
-155 -162 197 198 0
155 156 -161 197 198 0
155 156 -161 -198 0
155 156 161 162 -197 0
155 156 161 162 197 198 0
155 156 161 162 -198 0
155 156 -162 -197 0
155 156 -162 197 198 0
-156 -161 197 198 0
-156 -161 -198 0
-156 161 162 197 198 0
-156 161 162 -198 0
-157 159 160 -199 0
-157 159 160 199 200 0
-157 -160 -199 0
-157 -160 199 200 0
157 158 -159 199 200 0
157 158 -159 -200 0
157 158 159 160 -199 0
157 158 159 160 199 200 0
157 158 159 160 -200 0
157 158 -160 -199 0
157 158 -160 199 200 0
-158 -159 199 200 0
-158 -159 -200 0
-158 159 160 199 200 0
-158 159 160 -200 0
-157 161 162 -201 0
-157 161 162 201 202 0
-157 -162 -201 0
-157 -162 201 202 0
157 158 -161 201 202 0
157 158 -161 -202 0
157 158 161 162 -201 0
157 158 161 162 201 202 0
157 158 161 162 -202 0
157 158 -162 -201 0
157 158 -162 201 202 0
-158 -161 201 202 0
-158 -161 -202 0
-158 161 162 201 202 0
-158 161 162 -202 0
-159 161 162 -203 0
-159 161 162 203 204 0
-159 -162 -203 0
-159 -162 203 204 0
159 160 -161 203 204 0
159 160 -161 -204 0
159 160 161 162 -203 0
159 160 161 162 203 204 0
159 160 161 162 -204 0
159 160 -162 -203 0
159 160 -162 203 204 0
-160 -161 203 204 0
-160 -161 -204 0
-160 161 162 203 204 0
-160 161 162 -204 0
-163 165 166 -175 0
-163 165 166 175 176 0
-163 -166 -175 0
-163 -166 175 176 0
163 164 -165 175 176 0
163 164 -165 -176 0
163 164 165 166 -175 0
163 164 165 166 175 176 0
163 164 165 166 -176 0
163 164 -166 -175 0
163 164 -166 175 176 0
-164 -165 175 176 0
-164 -165 -176 0
-164 165 166 175 176 0
-164 165 166 -176 0
-163 167 168 -177 0
-163 167 168 177 178 0
-163 -168 -177 0
-163 -168 177 178 0
163 164 -167 177 178 0
163 164 -167 -178 0
163 164 167 168 -177 0
163 164 167 168 177 178 0
163 164 167 168 -178 0
163 164 -168 -177 0
163 164 -168 177 178 0
-164 -167 177 178 0
-164 -167 -178 0
-164 167 168 177 178 0
-164 167 168 -178 0
-163 169 170 -179 0
-163 169 170 179 180 0
-163 -170 -179 0
-163 -170 179 180 0
163 164 -169 179 180 0
163 164 -169 -180 0
163 164 169 170 -179 0
163 164 169 170 179 180 0
163 164 169 170 -180 0
163 164 -170 -179 0
163 164 -170 179 180 0
-164 -169 179 180 0
-164 -169 -180 0
-164 169 170 179 180 0
-164 169 170 -180 0
-163 171 172 -181 0
-163 171 172 181 182 0
-163 -172 -181 0
-163 -172 181 182 0
163 164 -171 181 182 0
163 164 -171 -182 0
163 164 171 172 -181 0
163 164 171 172 181 182 0
163 164 171 172 -182 0
163 164 -172 -181 0
163 164 -172 181 182 0
-164 -171 181 182 0
-164 -171 -182 0
-164 171 172 181 182 0
-164 171 172 -182 0
-163 173 174 -183 0
-163 173 174 183 184 0
-163 -174 -183 0
-163 -174 183 184 0
163 164 -173 183 184 0
163 164 -173 -184 0
163 164 173 174 -183 0
163 164 173 174 183 184 0
163 164 173 174 -184 0
163 164 -174 -183 0
163 164 -174 183 184 0
-164 -173 183 184 0
-164 -173 -184 0
-164 173 174 183 184 0
-164 173 174 -184 0
-165 167 168 -185 0
-165 167 168 185 186 0
-165 -168 -185 0
-165 -168 185 186 0
165 166 -167 185 186 0
165 166 -167 -186 0
165 166 167 168 -185 0
165 166 167 168 185 186 0
165 166 167 168 -186 0
165 166 -168 -185 0
165 166 -168 185 186 0
-166 -167 185 186 0
-166 -167 -186 0
-166 167 168 185 186 0
-166 167 168 -186 0
-165 169 170 -187 0
-165 169 170 187 188 0
-165 -170 -187 0
-165 -170 187 188 0
165 166 -169 187 188 0
165 166 -169 -188 0
165 166 169 170 -187 0
165 166 169 170 187 188 0
165 166 169 170 -188 0
165 166 -170 -187 0
165 166 -170 187 188 0
-166 -169 187 188 0
-166 -169 -188 0
-166 169 170 187 188 0
-166 169 170 -188 0
-165 171 172 -189 0
-165 171 172 189 190 0
-165 -172 -189 0
-165 -172 189 190 0
165 166 -171 189 190 0
165 166 -171 -190 0
165 166 171 172 -189 0
165 166 171 172 189 190 0
165 166 171 172 -190 0
165 166 -172 -189 0
165 166 -172 189 190 0
-166 -171 189 190 0
-166 -171 -190 0
-166 171 172 189 190 0
-166 171 172 -190 0
-165 173 174 -191 0
-165 173 174 191 192 0
-165 -174 -191 0
-165 -174 191 192 0
165 166 -173 191 192 0
165 166 -173 -192 0
165 166 173 174 -191 0
165 166 173 174 191 192 0
165 166 173 174 -192 0
165 166 -174 -191 0
165 166 -174 191 192 0
-166 -173 191 192 0
-166 -173 -192 0
-166 173 174 191 192 0
-166 173 174 -192 0
-167 169 170 -193 0
-167 169 170 193 194 0
-167 -170 -193 0
-167 -170 193 194 0
167 168 -169 193 194 0
167 168 -169 -194 0
167 168 169 170 -193 0
167 168 169 170 193 194 0
167 168 169 170 -194 0
167 168 -170 -193 0
167 168 -170 193 194 0
-168 -169 193 194 0
-168 -169 -194 0
-168 169 170 193 194 0
-168 169 170 -194 0
-167 171 172 -195 0
-167 171 172 195 196 0
-167 -172 -195 0
-167 -172 195 196 0
167 168 -171 195 196 0
167 168 -171 -196 0
167 168 171 172 -195 0
167 168 171 172 195 196 0
167 168 171 172 -196 0
167 168 -172 -195 0
167 168 -172 195 196 0
-168 -171 195 196 0
-168 -171 -196 0
-168 171 172 195 196 0
-168 171 172 -196 0
-167 173 174 -197 0
-167 173 174 197 198 0
-167 -174 -197 0
-167 -174 197 198 0
167 168 -173 197 198 0
167 168 -173 -198 0
167 168 173 174 -197 0
167 168 173 174 197 198 0
167 168 173 174 -198 0
167 168 -174 -197 0
167 168 -174 197 198 0
-168 -173 197 198 0
-168 -173 -198 0
-168 173 174 197 198 0
-168 173 174 -198 0
-169 171 172 -199 0
-169 171 172 199 200 0
-169 -172 -199 0
-169 -172 199 200 0
169 170 -171 199 200 0
169 170 -171 -200 0
169 170 171 172 -199 0
169 170 171 172 199 200 0
169 170 171 172 -200 0
169 170 -172 -199 0
169 170 -172 199 200 0
-170 -171 199 200 0
-170 -171 -200 0
-170 171 172 199 200 0
-170 171 172 -200 0
-169 173 174 -201 0
-169 173 174 201 202 0
-169 -174 -201 0
-169 -174 201 202 0
169 170 -173 201 202 0
169 170 -173 -202 0
169 170 173 174 -201 0
169 170 173 174 201 202 0
169 170 173 174 -202 0
169 170 -174 -201 0
169 170 -174 201 202 0
-170 -173 201 202 0
-170 -173 -202 0
-170 173 174 201 202 0
-170 173 174 -202 0
-171 173 174 -203 0
-171 173 174 203 204 0
-171 -174 -203 0
-171 -174 203 204 0
171 172 -173 203 204 0
171 172 -173 -204 0
171 172 173 174 -203 0
171 172 173 174 203 204 0
171 172 173 174 -204 0
171 172 -174 -203 0
171 172 -174 203 204 0
-172 -173 203 204 0
-172 -173 -204 0
-172 173 174 203 204 0
-172 173 174 -204 0
-175 177 178 -185 0
-175 177 178 185 186 0
-175 -178 -185 0
-175 -178 185 186 0
175 176 -177 185 186 0
175 176 -177 -186 0
175 176 177 178 -185 0
175 176 177 178 185 186 0
175 176 177 178 -186 0
175 176 -178 -185 0
175 176 -178 185 186 0
-176 -177 185 186 0
-176 -177 -186 0
-176 177 178 185 186 0
-176 177 178 -186 0
-175 179 180 -187 0
-175 179 180 187 188 0
-175 -180 -187 0
-175 -180 187 188 0
175 176 -179 187 188 0
175 176 -179 -188 0
175 176 179 180 -187 0
175 176 179 180 187 188 0
175 176 179 180 -188 0
175 176 -180 -187 0
175 176 -180 187 188 0
-176 -179 187 188 0
-176 -179 -188 0
-176 179 180 187 188 0
-176 179 180 -188 0
-175 181 182 -189 0
-175 181 182 189 190 0
-175 -182 -189 0
-175 -182 189 190 0
175 176 -181 189 190 0
175 176 -181 -190 0
175 176 181 182 -189 0
175 176 181 182 189 190 0
175 176 181 182 -190 0
175 176 -182 -189 0
175 176 -182 189 190 0
-176 -181 189 190 0
-176 -181 -190 0
-176 181 182 189 190 0
-176 181 182 -190 0
-175 183 184 -191 0
-175 183 184 191 192 0
-175 -184 -191 0
-175 -184 191 192 0
175 176 -183 191 192 0
175 176 -183 -192 0
175 176 183 184 -191 0
175 176 183 184 191 192 0
175 176 183 184 -192 0
175 176 -184 -191 0
175 176 -184 191 192 0
-176 -183 191 192 0
-176 -183 -192 0
-176 183 184 191 192 0
-176 183 184 -192 0
-177 179 180 -193 0
-177 179 180 193 194 0
-177 -180 -193 0
-177 -180 193 194 0
177 178 -179 193 194 0
177 178 -179 -194 0
177 178 179 180 -193 0
177 178 179 180 193 194 0
177 178 179 180 -194 0
177 178 -180 -193 0
177 178 -180 193 194 0
-178 -179 193 194 0
-178 -179 -194 0
-178 179 180 193 194 0
-178 179 180 -194 0
-177 181 182 -195 0
-177 181 182 195 196 0
-177 -182 -195 0
-177 -182 195 196 0
177 178 -181 195 196 0
177 178 -181 -196 0
177 178 181 182 -195 0
177 178 181 182 195 196 0
177 178 181 182 -196 0
177 178 -182 -195 0
177 178 -182 195 196 0
-178 -181 195 196 0
-178 -181 -196 0
-178 181 182 195 196 0
-178 181 182 -196 0
-177 183 184 -197 0
-177 183 184 197 198 0
-177 -184 -197 0
-177 -184 197 198 0
177 178 -183 197 198 0
177 178 -183 -198 0
177 178 183 184 -197 0
177 178 183 184 197 198 0
177 178 183 184 -198 0
177 178 -184 -197 0
177 178 -184 197 198 0
-178 -183 197 198 0
-178 -183 -198 0
-178 183 184 197 198 0
-178 183 184 -198 0
-179 181 182 -199 0
-179 181 182 199 200 0
-179 -182 -199 0
-179 -182 199 200 0
179 180 -181 199 200 0
179 180 -181 -200 0
179 180 181 182 -199 0
179 180 181 182 199 200 0
179 180 181 182 -200 0
179 180 -182 -199 0
179 180 -182 199 200 0
-180 -181 199 200 0
-180 -181 -200 0
-180 181 182 199 200 0
-180 181 182 -200 0
-179 183 184 -201 0
-179 183 184 201 202 0
-179 -184 -201 0
-179 -184 201 202 0
179 180 -183 201 202 0
179 180 -183 -202 0
179 180 183 184 -201 0
179 180 183 184 201 202 0
179 180 183 184 -202 0
179 180 -184 -201 0
179 180 -184 201 202 0
-180 -183 201 202 0
-180 -183 -202 0
-180 183 184 201 202 0
-180 183 184 -202 0
-181 183 184 -203 0
-181 183 184 203 204 0
-181 -184 -203 0
-181 -184 203 204 0
181 182 -183 203 204 0
181 182 -183 -204 0
181 182 183 184 -203 0
181 182 183 184 203 204 0
181 182 183 184 -204 0
181 182 -184 -203 0
181 182 -184 203 204 0
-182 -183 203 204 0
-182 -183 -204 0
-182 183 184 203 204 0
-182 183 184 -204 0
-185 187 188 -193 0
-185 187 188 193 194 0
-185 -188 -193 0
-185 -188 193 194 0
185 186 -187 193 194 0
185 186 -187 -194 0
185 186 187 188 -193 0
185 186 187 188 193 194 0
185 186 187 188 -194 0
185 186 -188 -193 0
185 186 -188 193 194 0
-186 -187 193 194 0
-186 -187 -194 0
-186 187 188 193 194 0
-186 187 188 -194 0
-185 189 190 -195 0
-185 189 190 195 196 0
-185 -190 -195 0
-185 -190 195 196 0
185 186 -189 195 196 0
185 186 -189 -196 0
185 186 189 190 -195 0
185 186 189 190 195 196 0
185 186 189 190 -196 0
185 186 -190 -195 0
185 186 -190 195 196 0
-186 -189 195 196 0
-186 -189 -196 0
-186 189 190 195 196 0
-186 189 190 -196 0
-185 191 192 -197 0
-185 191 192 197 198 0
-185 -192 -197 0
-185 -192 197 198 0
185 186 -191 197 198 0
185 186 -191 -198 0
185 186 191 192 -197 0
185 186 191 192 197 198 0
185 186 191 192 -198 0
185 186 -192 -197 0
185 186 -192 197 198 0
-186 -191 197 198 0
-186 -191 -198 0
-186 191 192 197 198 0
-186 191 192 -198 0
-187 189 190 -199 0
-187 189 190 199 200 0
-187 -190 -199 0
-187 -190 199 200 0
187 188 -189 199 200 0
187 188 -189 -200 0
187 188 189 190 -199 0
187 188 189 190 199 200 0
187 188 189 190 -200 0
187 188 -190 -199 0
187 188 -190 199 200 0
-188 -189 199 200 0
-188 -189 -200 0
-188 189 190 199 200 0
-188 189 190 -200 0
-187 191 192 -201 0
-187 191 192 201 202 0
-187 -192 -201 0
-187 -192 201 202 0
187 188 -191 201 202 0
187 188 -191 -202 0
187 188 191 192 -201 0
187 188 191 192 201 202 0
187 188 191 192 -202 0
187 188 -192 -201 0
187 188 -192 201 202 0
-188 -191 201 202 0
-188 -191 -202 0
-188 191 192 201 202 0
-188 191 192 -202 0
-189 191 192 -203 0
-189 191 192 203 204 0
-189 -192 -203 0
-189 -192 203 204 0
189 190 -191 203 204 0
189 190 -191 -204 0
189 190 191 192 -203 0
189 190 191 192 203 204 0
189 190 191 192 -204 0
189 190 -192 -203 0
189 190 -192 203 204 0
-190 -191 203 204 0
-190 -191 -204 0
-190 191 192 203 204 0
-190 191 192 -204 0
-193 195 196 -199 0
-193 195 196 199 200 0
-193 -196 -199 0
-193 -196 199 200 0
193 194 -195 199 200 0
193 194 -195 -200 0
193 194 195 196 -199 0
193 194 195 196 199 200 0
193 194 195 196 -200 0
193 194 -196 -199 0
193 194 -196 199 200 0
-194 -195 199 200 0
-194 -195 -200 0
-194 195 196 199 200 0
-194 195 196 -200 0
-193 197 198 -201 0
-193 197 198 201 202 0
-193 -198 -201 0
-193 -198 201 202 0
193 194 -197 201 202 0
193 194 -197 -202 0
193 194 197 198 -201 0
193 194 197 198 201 202 0
193 194 197 198 -202 0
193 194 -198 -201 0
193 194 -198 201 202 0
-194 -197 201 202 0
-194 -197 -202 0
-194 197 198 201 202 0
-194 197 198 -202 0
-195 197 198 -203 0
-195 197 198 203 204 0
-195 -198 -203 0
-195 -198 203 204 0
195 196 -197 203 204 0
195 196 -197 -204 0
195 196 197 198 -203 0
195 196 197 198 203 204 0
195 196 197 198 -204 0
195 196 -198 -203 0
195 196 -198 203 204 0
-196 -197 203 204 0
-196 -197 -204 0
-196 197 198 203 204 0
-196 197 198 -204 0
-199 201 202 -203 0
-199 201 202 203 204 0
-199 -202 -203 0
-199 -202 203 204 0
199 200 -201 203 204 0
199 200 -201 -204 0
199 200 201 202 -203 0
199 200 201 202 203 204 0
199 200 201 202 -204 0
199 200 -202 -203 0
199 200 -202 203 204 0
-200 -201 203 204 0
-200 -201 -204 0
-200 201 202 203 204 0
-200 201 202 -204 0
-205 207 208 -219 0
-205 207 208 219 220 0
-205 -208 -219 0
-205 -208 219 220 0
205 206 -207 219 220 0
205 206 -207 -220 0
205 206 207 208 -219 0
205 206 207 208 219 220 0
205 206 207 208 -220 0
205 206 -208 -219 0
205 206 -208 219 220 0
-206 -207 219 220 0
-206 -207 -220 0
-206 207 208 219 220 0
-206 207 208 -220 0
-205 209 210 -221 0
-205 209 210 221 222 0
-205 -210 -221 0
-205 -210 221 222 0
205 206 -209 221 222 0
205 206 -209 -222 0
205 206 209 210 -221 0
205 206 209 210 221 222 0
205 206 209 210 -222 0
205 206 -210 -221 0
205 206 -210 221 222 0
-206 -209 221 222 0
-206 -209 -222 0
-206 209 210 221 222 0
-206 209 210 -222 0
-205 211 212 -223 0
-205 211 212 223 224 0
-205 -212 -223 0
-205 -212 223 224 0
205 206 -211 223 224 0
205 206 -211 -224 0
205 206 211 212 -223 0
205 206 211 212 223 224 0
205 206 211 212 -224 0
205 206 -212 -223 0
205 206 -212 223 224 0
-206 -211 223 224 0
-206 -211 -224 0
-206 211 212 223 224 0
-206 211 212 -224 0
-205 213 214 -225 0
-205 213 214 225 226 0
-205 -214 -225 0
-205 -214 225 226 0
205 206 -213 225 226 0
205 206 -213 -226 0
205 206 213 214 -225 0
205 206 213 214 225 226 0
205 206 213 214 -226 0
205 206 -214 -225 0
205 206 -214 225 226 0
-206 -213 225 226 0
-206 -213 -226 0
-206 213 214 225 226 0
-206 213 214 -226 0
-205 215 216 -227 0
-205 215 216 227 228 0
-205 -216 -227 0
-205 -216 227 228 0
205 206 -215 227 228 0
205 206 -215 -228 0
205 206 215 216 -227 0
205 206 215 216 227 228 0
205 206 215 216 -228 0
205 206 -216 -227 0
205 206 -216 227 228 0
-206 -215 227 228 0
-206 -215 -228 0
-206 215 216 227 228 0
-206 215 216 -228 0
-205 217 218 -229 0
-205 217 218 229 230 0
-205 -218 -229 0
-205 -218 229 230 0
205 206 -217 229 230 0
205 206 -217 -230 0
205 206 217 218 -229 0
205 206 217 218 229 230 0
205 206 217 218 -230 0
205 206 -218 -229 0
205 206 -218 229 230 0
-206 -217 229 230 0
-206 -217 -230 0
-206 217 218 229 230 0
-206 217 218 -230 0
-207 209 210 -231 0
-207 209 210 231 232 0
-207 -210 -231 0
-207 -210 231 232 0
207 208 -209 231 232 0
207 208 -209 -232 0
207 208 209 210 -231 0
207 208 209 210 231 232 0
207 208 209 210 -232 0
207 208 -210 -231 0
207 208 -210 231 232 0
-208 -209 231 232 0
-208 -209 -232 0
-208 209 210 231 232 0
-208 209 210 -232 0
-207 211 212 -233 0
-207 211 212 233 234 0
-207 -212 -233 0
-207 -212 233 234 0
207 208 -211 233 234 0
207 208 -211 -234 0
207 208 211 212 -233 0
207 208 211 212 233 234 0
207 208 211 212 -234 0
207 208 -212 -233 0
207 208 -212 233 234 0
-208 -211 233 234 0
-208 -211 -234 0
-208 211 212 233 234 0
-208 211 212 -234 0
-207 213 214 -235 0
-207 213 214 235 236 0
-207 -214 -235 0
-207 -214 235 236 0
207 208 -213 235 236 0
207 208 -213 -236 0
207 208 213 214 -235 0
207 208 213 214 235 236 0
207 208 213 214 -236 0
207 208 -214 -235 0
207 208 -214 235 236 0
-208 -213 235 236 0
-208 -213 -236 0
-208 213 214 235 236 0
-208 213 214 -236 0
-207 215 216 -237 0
-207 215 216 237 238 0
-207 -216 -237 0
-207 -216 237 238 0
207 208 -215 237 238 0
207 208 -215 -238 0
207 208 215 216 -237 0
207 208 215 216 237 238 0
207 208 215 216 -238 0
207 208 -216 -237 0
207 208 -216 237 238 0
-208 -215 237 238 0
-208 -215 -238 0
-208 215 216 237 238 0
-208 215 216 -238 0
-207 217 218 -239 0
-207 217 218 239 240 0
-207 -218 -239 0
-207 -218 239 240 0
207 208 -217 239 240 0
207 208 -217 -240 0
207 208 217 218 -239 0
207 208 217 218 239 240 0
207 208 217 218 -240 0
207 208 -218 -239 0
207 208 -218 239 240 0
-208 -217 239 240 0
-208 -217 -240 0
-208 217 218 239 240 0
-208 217 218 -240 0
-209 211 212 -241 0
-209 211 212 241 242 0
-209 -212 -241 0
-209 -212 241 242 0
209 210 -211 241 242 0
209 210 -211 -242 0
209 210 211 212 -241 0
209 210 211 212 241 242 0
209 210 211 212 -242 0
209 210 -212 -241 0
209 210 -212 241 242 0
-210 -211 241 242 0
-210 -211 -242 0
-210 211 212 241 242 0
-210 211 212 -242 0
-209 213 214 -243 0
-209 213 214 243 244 0
-209 -214 -243 0
-209 -214 243 244 0
209 210 -213 243 244 0
209 210 -213 -244 0
209 210 213 214 -243 0
209 210 213 214 243 244 0
209 210 213 214 -244 0
209 210 -214 -243 0
209 210 -214 243 244 0
-210 -213 243 244 0
-210 -213 -244 0
-210 213 214 243 244 0
-210 213 214 -244 0
-209 215 216 -245 0
-209 215 216 245 246 0
-209 -216 -245 0
-209 -216 245 246 0
209 210 -215 245 246 0
209 210 -215 -246 0
209 210 215 216 -245 0
209 210 215 216 245 246 0
209 210 215 216 -246 0
209 210 -216 -245 0
209 210 -216 245 246 0
-210 -215 245 246 0
-210 -215 -246 0
-210 215 216 245 246 0
-210 215 216 -246 0
-209 217 218 -247 0
-209 217 218 247 248 0
-209 -218 -247 0
-209 -218 247 248 0
209 210 -217 247 248 0
209 210 -217 -248 0
209 210 217 218 -247 0
209 210 217 218 247 248 0
209 210 217 218 -248 0
209 210 -218 -247 0
209 210 -218 247 248 0
-210 -217 247 248 0
-210 -217 -248 0
-210 217 218 247 248 0
-210 217 218 -248 0
-211 213 214 -249 0
-211 213 214 249 250 0
-211 -214 -249 0
-211 -214 249 250 0
211 212 -213 249 250 0
211 212 -213 -250 0
211 212 213 214 -249 0
211 212 213 214 249 250 0
211 212 213 214 -250 0
211 212 -214 -249 0
211 212 -214 249 250 0
-212 -213 249 250 0
-212 -213 -250 0
-212 213 214 249 250 0
-212 213 214 -250 0
-211 215 216 -251 0
-211 215 216 251 252 0
-211 -216 -251 0
-211 -216 251 252 0
211 212 -215 251 252 0
211 212 -215 -252 0
211 212 215 216 -251 0
211 212 215 216 251 252 0
211 212 215 216 -252 0
211 212 -216 -251 0
211 212 -216 251 252 0
-212 -215 251 252 0
-212 -215 -252 0
-212 215 216 251 252 0
-212 215 216 -252 0
-211 217 218 -253 0
-211 217 218 253 254 0
-211 -218 -253 0
-211 -218 253 254 0
211 212 -217 253 254 0
211 212 -217 -254 0
211 212 217 218 -253 0
211 212 217 218 253 254 0
211 212 217 218 -254 0
211 212 -218 -253 0
211 212 -218 253 254 0
-212 -217 253 254 0
-212 -217 -254 0
-212 217 218 253 254 0
-212 217 218 -254 0
-213 215 216 -255 0
-213 215 216 255 256 0
-213 -216 -255 0
-213 -216 255 256 0
213 214 -215 255 256 0
213 214 -215 -256 0
213 214 215 216 -255 0
213 214 215 216 255 256 0
213 214 215 216 -256 0
213 214 -216 -255 0
213 214 -216 255 256 0
-214 -215 255 256 0
-214 -215 -256 0
-214 215 216 255 256 0
-214 215 216 -256 0
-213 217 218 -257 0
-213 217 218 257 258 0
-213 -218 -257 0
-213 -218 257 258 0
213 214 -217 257 258 0
213 214 -217 -258 0
213 214 217 218 -257 0
213 214 217 218 257 258 0
213 214 217 218 -258 0
213 214 -218 -257 0
213 214 -218 257 258 0
-214 -217 257 258 0
-214 -217 -258 0
-214 217 218 257 258 0
-214 217 218 -258 0
-215 217 218 -259 0
-215 217 218 259 260 0
-215 -218 -259 0
-215 -218 259 260 0
215 216 -217 259 260 0
215 216 -217 -260 0
215 216 217 218 -259 0
215 216 217 218 259 260 0
215 216 217 218 -260 0
215 216 -218 -259 0
215 216 -218 259 260 0
-216 -217 259 260 0
-216 -217 -260 0
-216 217 218 259 260 0
-216 217 218 -260 0
-219 221 222 -231 0
-219 221 222 231 232 0
-219 -222 -231 0
-219 -222 231 232 0
219 220 -221 231 232 0
219 220 -221 -232 0
219 220 221 222 -231 0
219 220 221 222 231 232 0
219 220 221 222 -232 0
219 220 -222 -231 0
219 220 -222 231 232 0
-220 -221 231 232 0
-220 -221 -232 0
-220 221 222 231 232 0
-220 221 222 -232 0
-219 223 224 -233 0
-219 223 224 233 234 0
-219 -224 -233 0
-219 -224 233 234 0
219 220 -223 233 234 0
219 220 -223 -234 0
219 220 223 224 -233 0
219 220 223 224 233 234 0
219 220 223 224 -234 0
219 220 -224 -233 0
219 220 -224 233 234 0
-220 -223 233 234 0
-220 -223 -234 0
-220 223 224 233 234 0
-220 223 224 -234 0
-219 225 226 -235 0
-219 225 226 235 236 0
-219 -226 -235 0
-219 -226 235 236 0
219 220 -225 235 236 0
219 220 -225 -236 0
219 220 225 226 -235 0
219 220 225 226 235 236 0
219 220 225 226 -236 0
219 220 -226 -235 0
219 220 -226 235 236 0
-220 -225 235 236 0
-220 -225 -236 0
-220 225 226 235 236 0
-220 225 226 -236 0
-219 227 228 -237 0
-219 227 228 237 238 0
-219 -228 -237 0
-219 -228 237 238 0
219 220 -227 237 238 0
219 220 -227 -238 0
219 220 227 228 -237 0
219 220 227 228 237 238 0
219 220 227 228 -238 0
219 220 -228 -237 0
219 220 -228 237 238 0
-220 -227 237 238 0
-220 -227 -238 0
-220 227 228 237 238 0
-220 227 228 -238 0
-219 229 230 -239 0
-219 229 230 239 240 0
-219 -230 -239 0
-219 -230 239 240 0
219 220 -229 239 240 0
219 220 -229 -240 0
219 220 229 230 -239 0
219 220 229 230 239 240 0
219 220 229 230 -240 0
219 220 -230 -239 0
219 220 -230 239 240 0
-220 -229 239 240 0
-220 -229 -240 0
-220 229 230 239 240 0
-220 229 230 -240 0
-221 223 224 -241 0
-221 223 224 241 242 0
-221 -224 -241 0
-221 -224 241 242 0
221 222 -223 241 242 0
221 222 -223 -242 0
221 222 223 224 -241 0
221 222 223 224 241 242 0
221 222 223 224 -242 0
221 222 -224 -241 0
221 222 -224 241 242 0
-222 -223 241 242 0
-222 -223 -242 0
-222 223 224 241 242 0
-222 223 224 -242 0
-221 225 226 -243 0
-221 225 226 243 244 0
-221 -226 -243 0
-221 -226 243 244 0
221 222 -225 243 244 0
221 222 -225 -244 0
221 222 225 226 -243 0
221 222 225 226 243 244 0
221 222 225 226 -244 0
221 222 -226 -243 0
221 222 -226 243 244 0
-222 -225 243 244 0
-222 -225 -244 0
-222 225 226 243 244 0
-222 225 226 -244 0
-221 227 228 -245 0
-221 227 228 245 246 0
-221 -228 -245 0
-221 -228 245 246 0
221 222 -227 245 246 0
221 222 -227 -246 0
221 222 227 228 -245 0
221 222 227 228 245 246 0
221 222 227 228 -246 0
221 222 -228 -245 0
221 222 -228 245 246 0
-222 -227 245 246 0
-222 -227 -246 0
-222 227 228 245 246 0
-222 227 228 -246 0
-221 229 230 -247 0
-221 229 230 247 248 0
-221 -230 -247 0
-221 -230 247 248 0
221 222 -229 247 248 0
221 222 -229 -248 0
221 222 229 230 -247 0
221 222 229 230 247 248 0
221 222 229 230 -248 0
221 222 -230 -247 0
221 222 -230 247 248 0
-222 -229 247 248 0
-222 -229 -248 0
-222 229 230 247 248 0
-222 229 230 -248 0
-223 225 226 -249 0
-223 225 226 249 250 0
-223 -226 -249 0
-223 -226 249 250 0
223 224 -225 249 250 0
223 224 -225 -250 0
223 224 225 226 -249 0
223 224 225 226 249 250 0
223 224 225 226 -250 0
223 224 -226 -249 0
223 224 -226 249 250 0
-224 -225 249 250 0
-224 -225 -250 0
-224 225 226 249 250 0
-224 225 226 -250 0
-223 227 228 -251 0
-223 227 228 251 252 0
-223 -228 -251 0
-223 -228 251 252 0
223 224 -227 251 252 0
223 224 -227 -252 0
223 224 227 228 -251 0
223 224 227 228 251 252 0
223 224 227 228 -252 0
223 224 -228 -251 0
223 224 -228 251 252 0
-224 -227 251 252 0
-224 -227 -252 0
-224 227 228 251 252 0
-224 227 228 -252 0
-223 229 230 -253 0
-223 229 230 253 254 0
-223 -230 -253 0
-223 -230 253 254 0
223 224 -229 253 254 0
223 224 -229 -254 0
223 224 229 230 -253 0
223 224 229 230 253 254 0
223 224 229 230 -254 0
223 224 -230 -253 0
223 224 -230 253 254 0
-224 -229 253 254 0
-224 -229 -254 0
-224 229 230 253 254 0
-224 229 230 -254 0
-225 227 228 -255 0
-225 227 228 255 256 0
-225 -228 -255 0
-225 -228 255 256 0
225 226 -227 255 256 0
225 226 -227 -256 0
225 226 227 228 -255 0
225 226 227 228 255 256 0
225 226 227 228 -256 0
225 226 -228 -255 0
225 226 -228 255 256 0
-226 -227 255 256 0
-226 -227 -256 0
-226 227 228 255 256 0
-226 227 228 -256 0
-225 229 230 -257 0
-225 229 230 257 258 0
-225 -230 -257 0
-225 -230 257 258 0
225 226 -229 257 258 0
225 226 -229 -258 0
225 226 229 230 -257 0
225 226 229 230 257 258 0
225 226 229 230 -258 0
225 226 -230 -257 0
225 226 -230 257 258 0
-226 -229 257 258 0
-226 -229 -258 0
-226 229 230 257 258 0
-226 229 230 -258 0
-227 229 230 -259 0
-227 229 230 259 260 0
-227 -230 -259 0
-227 -230 259 260 0
227 228 -229 259 260 0
227 228 -229 -260 0
227 228 229 230 -259 0
227 228 229 230 259 260 0
227 228 229 230 -260 0
227 228 -230 -259 0
227 228 -230 259 260 0
-228 -229 259 260 0
-228 -229 -260 0
-228 229 230 259 260 0
-228 229 230 -260 0
-231 233 234 -241 0
-231 233 234 241 242 0
-231 -234 -241 0
-231 -234 241 242 0
231 232 -233 241 242 0
231 232 -233 -242 0
231 232 233 234 -241 0
231 232 233 234 241 242 0
231 232 233 234 -242 0
231 232 -234 -241 0
231 232 -234 241 242 0
-232 -233 241 242 0
-232 -233 -242 0
-232 233 234 241 242 0
-232 233 234 -242 0
-231 235 236 -243 0
-231 235 236 243 244 0
-231 -236 -243 0
-231 -236 243 244 0
231 232 -235 243 244 0
231 232 -235 -244 0
231 232 235 236 -243 0
231 232 235 236 243 244 0
231 232 235 236 -244 0
231 232 -236 -243 0
231 232 -236 243 244 0
-232 -235 243 244 0
-232 -235 -244 0
-232 235 236 243 244 0
-232 235 236 -244 0
-231 237 238 -245 0
-231 237 238 245 246 0
-231 -238 -245 0
-231 -238 245 246 0
231 232 -237 245 246 0
231 232 -237 -246 0
231 232 237 238 -245 0
231 232 237 238 245 246 0
231 232 237 238 -246 0
231 232 -238 -245 0
231 232 -238 245 246 0
-232 -237 245 246 0
-232 -237 -246 0
-232 237 238 245 246 0
-232 237 238 -246 0
-231 239 240 -247 0
-231 239 240 247 248 0
-231 -240 -247 0
-231 -240 247 248 0
231 232 -239 247 248 0
231 232 -239 -248 0
231 232 239 240 -247 0
231 232 239 240 247 248 0
231 232 239 240 -248 0
231 232 -240 -247 0
231 232 -240 247 248 0
-232 -239 247 248 0
-232 -239 -248 0
-232 239 240 247 248 0
-232 239 240 -248 0
-233 235 236 -249 0
-233 235 236 249 250 0
-233 -236 -249 0
-233 -236 249 250 0
233 234 -235 249 250 0
233 234 -235 -250 0
233 234 235 236 -249 0
233 234 235 236 249 250 0
233 234 235 236 -250 0
233 234 -236 -249 0
233 234 -236 249 250 0
-234 -235 249 250 0
-234 -235 -250 0
-234 235 236 249 250 0
-234 235 236 -250 0
-233 237 238 -251 0
-233 237 238 251 252 0
-233 -238 -251 0
-233 -238 251 252 0
233 234 -237 251 252 0
233 234 -237 -252 0
233 234 237 238 -251 0
233 234 237 238 251 252 0
233 234 237 238 -252 0
233 234 -238 -251 0
233 234 -238 251 252 0
-234 -237 251 252 0
-234 -237 -252 0
-234 237 238 251 252 0
-234 237 238 -252 0
-233 239 240 -253 0
-233 239 240 253 254 0
-233 -240 -253 0
-233 -240 253 254 0
233 234 -239 253 254 0
233 234 -239 -254 0
233 234 239 240 -253 0
233 234 239 240 253 254 0
233 234 239 240 -254 0
233 234 -240 -253 0
233 234 -240 253 254 0
-234 -239 253 254 0
-234 -239 -254 0
-234 239 240 253 254 0
-234 239 240 -254 0
-235 237 238 -255 0
-235 237 238 255 256 0
-235 -238 -255 0
-235 -238 255 256 0
235 236 -237 255 256 0
235 236 -237 -256 0
235 236 237 238 -255 0
235 236 237 238 255 256 0
235 236 237 238 -256 0
235 236 -238 -255 0
235 236 -238 255 256 0
-236 -237 255 256 0
-236 -237 -256 0
-236 237 238 255 256 0
-236 237 238 -256 0
-235 239 240 -257 0
-235 239 240 257 258 0
-235 -240 -257 0
-235 -240 257 258 0
235 236 -239 257 258 0
235 236 -239 -258 0
235 236 239 240 -257 0
235 236 239 240 257 258 0
235 236 239 240 -258 0
235 236 -240 -257 0
235 236 -240 257 258 0
-236 -239 257 258 0
-236 -239 -258 0
-236 239 240 257 258 0
-236 239 240 -258 0
-237 239 240 -259 0
-237 239 240 259 260 0
-237 -240 -259 0
-237 -240 259 260 0
237 238 -239 259 260 0
237 238 -239 -260 0
237 238 239 240 -259 0
237 238 239 240 259 260 0
237 238 239 240 -260 0
237 238 -240 -259 0
237 238 -240 259 260 0
-238 -239 259 260 0
-238 -239 -260 0
-238 239 240 259 260 0
-238 239 240 -260 0
-241 243 244 -249 0
-241 243 244 249 250 0
-241 -244 -249 0
-241 -244 249 250 0
241 242 -243 249 250 0
241 242 -243 -250 0
241 242 243 244 -249 0
241 242 243 244 249 250 0
241 242 243 244 -250 0
241 242 -244 -249 0
241 242 -244 249 250 0
-242 -243 249 250 0
-242 -243 -250 0
-242 243 244 249 250 0
-242 243 244 -250 0
-241 245 246 -251 0
-241 245 246 251 252 0
-241 -246 -251 0
-241 -246 251 252 0
241 242 -245 251 252 0
241 242 -245 -252 0
241 242 245 246 -251 0
241 242 245 246 251 252 0
241 242 245 246 -252 0
241 242 -246 -251 0
241 242 -246 251 252 0
-242 -245 251 252 0
-242 -245 -252 0
-242 245 246 251 252 0
-242 245 246 -252 0
-241 247 248 -253 0
-241 247 248 253 254 0
-241 -248 -253 0
-241 -248 253 254 0
241 242 -247 253 254 0
241 242 -247 -254 0
241 242 247 248 -253 0
241 242 247 248 253 254 0
241 242 247 248 -254 0
241 242 -248 -253 0
241 242 -248 253 254 0
-242 -247 253 254 0
-242 -247 -254 0
-242 247 248 253 254 0
-242 247 248 -254 0
-243 245 246 -255 0
-243 245 246 255 256 0
-243 -246 -255 0
-243 -246 255 256 0
243 244 -245 255 256 0
243 244 -245 -256 0
243 244 245 246 -255 0
243 244 245 246 255 256 0
243 244 245 246 -256 0
243 244 -246 -255 0
243 244 -246 255 256 0
-244 -245 255 256 0
-244 -245 -256 0
-244 245 246 255 256 0
-244 245 246 -256 0
-243 247 248 -257 0
-243 247 248 257 258 0
-243 -248 -257 0
-243 -248 257 258 0
243 244 -247 257 258 0
243 244 -247 -258 0
243 244 247 248 -257 0
243 244 247 248 257 258 0
243 244 247 248 -258 0
243 244 -248 -257 0
243 244 -248 257 258 0
-244 -247 257 258 0
-244 -247 -258 0
-244 247 248 257 258 0
-244 247 248 -258 0
-245 247 248 -259 0
-245 247 248 259 260 0
-245 -248 -259 0
-245 -248 259 260 0
245 246 -247 259 260 0
245 246 -247 -260 0
245 246 247 248 -259 0
245 246 247 248 259 260 0
245 246 247 248 -260 0
245 246 -248 -259 0
245 246 -248 259 260 0
-246 -247 259 260 0
-246 -247 -260 0
-246 247 248 259 260 0
-246 247 248 -260 0
-249 251 252 -255 0
-249 251 252 255 256 0
-249 -252 -255 0
-249 -252 255 256 0
249 250 -251 255 256 0
249 250 -251 -256 0
249 250 251 252 -255 0
249 250 251 252 255 256 0
249 250 251 252 -256 0
249 250 -252 -255 0
249 250 -252 255 256 0
-250 -251 255 256 0
-250 -251 -256 0
-250 251 252 255 256 0
-250 251 252 -256 0
-249 253 254 -257 0
-249 253 254 257 258 0
-249 -254 -257 0
-249 -254 257 258 0
249 250 -253 257 258 0
249 250 -253 -258 0
249 250 253 254 -257 0
249 250 253 254 257 258 0
249 250 253 254 -258 0
249 250 -254 -257 0
249 250 -254 257 258 0
-250 -253 257 258 0
-250 -253 -258 0
-250 253 254 257 258 0
-250 253 254 -258 0
-251 253 254 -259 0
-251 253 254 259 260 0
-251 -254 -259 0
-251 -254 259 260 0
251 252 -253 259 260 0
251 252 -253 -260 0
251 252 253 254 -259 0
251 252 253 254 259 260 0
251 252 253 254 -260 0
251 252 -254 -259 0
251 252 -254 259 260 0
-252 -253 259 260 0
-252 -253 -260 0
-252 253 254 259 260 0
-252 253 254 -260 0
-255 257 258 -259 0
-255 257 258 259 260 0
-255 -258 -259 0
-255 -258 259 260 0
255 256 -257 259 260 0
255 256 -257 -260 0
255 256 257 258 -259 0
255 256 257 258 259 260 0
255 256 257 258 -260 0
255 256 -258 -259 0
255 256 -258 259 260 0
-256 -257 259 260 0
-256 -257 -260 0
-256 257 258 259 260 0
-256 257 258 -260 0
-261 263 264 -275 0
-261 263 264 275 276 0
-261 -264 -275 0
-261 -264 275 276 0
261 262 -263 275 276 0
261 262 -263 -276 0
261 262 263 264 -275 0
261 262 263 264 275 276 0
261 262 263 264 -276 0
261 262 -264 -275 0
261 262 -264 275 276 0
-262 -263 275 276 0
-262 -263 -276 0
-262 263 264 275 276 0
-262 263 264 -276 0
-261 265 266 -277 0
-261 265 266 277 278 0
-261 -266 -277 0
-261 -266 277 278 0
261 262 -265 277 278 0
261 262 -265 -278 0
261 262 265 266 -277 0
261 262 265 266 277 278 0
261 262 265 266 -278 0
261 262 -266 -277 0
261 262 -266 277 278 0
-262 -265 277 278 0
-262 -265 -278 0
-262 265 266 277 278 0
-262 265 266 -278 0
-261 267 268 -279 0
-261 267 268 279 280 0
-261 -268 -279 0
-261 -268 279 280 0
261 262 -267 279 280 0
261 262 -267 -280 0
261 262 267 268 -279 0
261 262 267 268 279 280 0
261 262 267 268 -280 0
261 262 -268 -279 0
261 262 -268 279 280 0
-262 -267 279 280 0
-262 -267 -280 0
-262 267 268 279 280 0
-262 267 268 -280 0
-261 269 270 -281 0
-261 269 270 281 282 0
-261 -270 -281 0
-261 -270 281 282 0
261 262 -269 281 282 0
261 262 -269 -282 0
261 262 269 270 -281 0
261 262 269 270 281 282 0
261 262 269 270 -282 0
261 262 -270 -281 0
261 262 -270 281 282 0
-262 -269 281 282 0
-262 -269 -282 0
-262 269 270 281 282 0
-262 269 270 -282 0
-261 271 272 -283 0
-261 271 272 283 284 0
-261 -272 -283 0
-261 -272 283 284 0
261 262 -271 283 284 0
261 262 -271 -284 0
261 262 271 272 -283 0
261 262 271 272 283 284 0
261 262 271 272 -284 0
261 262 -272 -283 0
261 262 -272 283 284 0
-262 -271 283 284 0
-262 -271 -284 0
-262 271 272 283 284 0
-262 271 272 -284 0
-261 273 274 -285 0
-261 273 274 285 286 0
-261 -274 -285 0
-261 -274 285 286 0
261 262 -273 285 286 0
261 262 -273 -286 0
261 262 273 274 -285 0
261 262 273 274 285 286 0
261 262 273 274 -286 0
261 262 -274 -285 0
261 262 -274 285 286 0
-262 -273 285 286 0
-262 -273 -286 0
-262 273 274 285 286 0
-262 273 274 -286 0
-263 265 266 -287 0
-263 265 266 287 288 0
-263 -266 -287 0
-263 -266 287 288 0
263 264 -265 287 288 0
263 264 -265 -288 0
263 264 265 266 -287 0
263 264 265 266 287 288 0
263 264 265 266 -288 0
263 264 -266 -287 0
263 264 -266 287 288 0
-264 -265 287 288 0
-264 -265 -288 0
-264 265 266 287 288 0
-264 265 266 -288 0
-263 267 268 -289 0
-263 267 268 289 290 0
-263 -268 -289 0
-263 -268 289 290 0
263 264 -267 289 290 0
263 264 -267 -290 0
263 264 267 268 -289 0
263 264 267 268 289 290 0
263 264 267 268 -290 0
263 264 -268 -289 0
263 264 -268 289 290 0
-264 -267 289 290 0
-264 -267 -290 0
-264 267 268 289 290 0
-264 267 268 -290 0
-263 269 270 -291 0
-263 269 270 291 292 0
-263 -270 -291 0
-263 -270 291 292 0
263 264 -269 291 292 0
263 264 -269 -292 0
263 264 269 270 -291 0
263 264 269 270 291 292 0
263 264 269 270 -292 0
263 264 -270 -291 0
263 264 -270 291 292 0
-264 -269 291 292 0
-264 -269 -292 0
-264 269 270 291 292 0
-264 269 270 -292 0
-263 271 272 -293 0
-263 271 272 293 294 0
-263 -272 -293 0
-263 -272 293 294 0
263 264 -271 293 294 0
263 264 -271 -294 0
263 264 271 272 -293 0
263 264 271 272 293 294 0
263 264 271 272 -294 0
263 264 -272 -293 0
263 264 -272 293 294 0
-264 -271 293 294 0
-264 -271 -294 0
-264 271 272 293 294 0
-264 271 272 -294 0
-263 273 274 -295 0
-263 273 274 295 296 0
-263 -274 -295 0
-263 -274 295 296 0
263 264 -273 295 296 0
263 264 -273 -296 0
263 264 273 274 -295 0
263 264 273 274 295 296 0
263 264 273 274 -296 0
263 264 -274 -295 0
263 264 -274 295 296 0
-264 -273 295 296 0
-264 -273 -296 0
-264 273 274 295 296 0
-264 273 274 -296 0
-265 267 268 -297 0
-265 267 268 297 298 0
-265 -268 -297 0
-265 -268 297 298 0
265 266 -267 297 298 0
265 266 -267 -298 0
265 266 267 268 -297 0
265 266 267 268 297 298 0
265 266 267 268 -298 0
265 266 -268 -297 0
265 266 -268 297 298 0
-266 -267 297 298 0
-266 -267 -298 0
-266 267 268 297 298 0
-266 267 268 -298 0
-265 269 270 -299 0
-265 269 270 299 300 0
-265 -270 -299 0
-265 -270 299 300 0
265 266 -269 299 300 0
265 266 -269 -300 0
265 266 269 270 -299 0
265 266 269 270 299 300 0
265 266 269 270 -300 0
265 266 -270 -299 0
265 266 -270 299 300 0
-266 -269 299 300 0
-266 -269 -300 0
-266 269 270 299 300 0
-266 269 270 -300 0
-265 271 272 -301 0
-265 271 272 301 302 0
-265 -272 -301 0
-265 -272 301 302 0
265 266 -271 301 302 0
265 266 -271 -302 0
265 266 271 272 -301 0
265 266 271 272 301 302 0
265 266 271 272 -302 0
265 266 -272 -301 0
265 266 -272 301 302 0
-266 -271 301 302 0
-266 -271 -302 0
-266 271 272 301 302 0
-266 271 272 -302 0
-265 273 274 -303 0
-265 273 274 303 304 0
-265 -274 -303 0
-265 -274 303 304 0
265 266 -273 303 304 0
265 266 -273 -304 0
265 266 273 274 -303 0
265 266 273 274 303 304 0
265 266 273 274 -304 0
265 266 -274 -303 0
265 266 -274 303 304 0
-266 -273 303 304 0
-266 -273 -304 0
-266 273 274 303 304 0
-266 273 274 -304 0
-267 269 270 -305 0
-267 269 270 305 306 0
-267 -270 -305 0
-267 -270 305 306 0
267 268 -269 305 306 0
267 268 -269 -306 0
267 268 269 270 -305 0
267 268 269 270 305 306 0
267 268 269 270 -306 0
267 268 -270 -305 0
267 268 -270 305 306 0
-268 -269 305 306 0
-268 -269 -306 0
-268 269 270 305 306 0
-268 269 270 -306 0
-267 271 272 -307 0
-267 271 272 307 308 0
-267 -272 -307 0
-267 -272 307 308 0
267 268 -271 307 308 0
267 268 -271 -308 0
267 268 271 272 -307 0
267 268 271 272 307 308 0
267 268 271 272 -308 0
267 268 -272 -307 0
267 268 -272 307 308 0
-268 -271 307 308 0
-268 -271 -308 0
-268 271 272 307 308 0
-268 271 272 -308 0
-267 273 274 -309 0
-267 273 274 309 310 0
-267 -274 -309 0
-267 -274 309 310 0
267 268 -273 309 310 0
267 268 -273 -310 0
267 268 273 274 -309 0
267 268 273 274 309 310 0
267 268 273 274 -310 0
267 268 -274 -309 0
267 268 -274 309 310 0
-268 -273 309 310 0
-268 -273 -310 0
-268 273 274 309 310 0
-268 273 274 -310 0
-269 271 272 -311 0
-269 271 272 311 312 0
-269 -272 -311 0
-269 -272 311 312 0
269 270 -271 311 312 0
269 270 -271 -312 0
269 270 271 272 -311 0
269 270 271 272 311 312 0
269 270 271 272 -312 0
269 270 -272 -311 0
269 270 -272 311 312 0
-270 -271 311 312 0
-270 -271 -312 0
-270 271 272 311 312 0
-270 271 272 -312 0
-269 273 274 -313 0
-269 273 274 313 314 0
-269 -274 -313 0
-269 -274 313 314 0
269 270 -273 313 314 0
269 270 -273 -314 0
269 270 273 274 -313 0
269 270 273 274 313 314 0
269 270 273 274 -314 0
269 270 -274 -313 0
269 270 -274 313 314 0
-270 -273 313 314 0
-270 -273 -314 0
-270 273 274 313 314 0
-270 273 274 -314 0
-271 273 274 -315 0
-271 273 274 315 316 0
-271 -274 -315 0
-271 -274 315 316 0
271 272 -273 315 316 0
271 272 -273 -316 0
271 272 273 274 -315 0
271 272 273 274 315 316 0
271 272 273 274 -316 0
271 272 -274 -315 0
271 272 -274 315 316 0
-272 -273 315 316 0
-272 -273 -316 0
-272 273 274 315 316 0
-272 273 274 -316 0
-275 277 278 -287 0
-275 277 278 287 288 0
-275 -278 -287 0
-275 -278 287 288 0
275 276 -277 287 288 0
275 276 -277 -288 0
275 276 277 278 -287 0
275 276 277 278 287 288 0
275 276 277 278 -288 0
275 276 -278 -287 0
275 276 -278 287 288 0
-276 -277 287 288 0
-276 -277 -288 0
-276 277 278 287 288 0
-276 277 278 -288 0
-275 279 280 -289 0
-275 279 280 289 290 0
-275 -280 -289 0
-275 -280 289 290 0
275 276 -279 289 290 0
275 276 -279 -290 0
275 276 279 280 -289 0
275 276 279 280 289 290 0
275 276 279 280 -290 0
275 276 -280 -289 0
275 276 -280 289 290 0
-276 -279 289 290 0
-276 -279 -290 0
-276 279 280 289 290 0
-276 279 280 -290 0
-275 281 282 -291 0
-275 281 282 291 292 0
-275 -282 -291 0
-275 -282 291 292 0
275 276 -281 291 292 0
275 276 -281 -292 0
275 276 281 282 -291 0
275 276 281 282 291 292 0
275 276 281 282 -292 0
275 276 -282 -291 0
275 276 -282 291 292 0
-276 -281 291 292 0
-276 -281 -292 0
-276 281 282 291 292 0
-276 281 282 -292 0
-275 283 284 -293 0
-275 283 284 293 294 0
-275 -284 -293 0
-275 -284 293 294 0
275 276 -283 293 294 0
275 276 -283 -294 0
275 276 283 284 -293 0
275 276 283 284 293 294 0
275 276 283 284 -294 0
275 276 -284 -293 0
275 276 -284 293 294 0
-276 -283 293 294 0
-276 -283 -294 0
-276 283 284 293 294 0
-276 283 284 -294 0
-275 285 286 -295 0
-275 285 286 295 296 0
-275 -286 -295 0
-275 -286 295 296 0
275 276 -285 295 296 0
275 276 -285 -296 0
275 276 285 286 -295 0
275 276 285 286 295 296 0
275 276 285 286 -296 0
275 276 -286 -295 0
275 276 -286 295 296 0
-276 -285 295 296 0
-276 -285 -296 0
-276 285 286 295 296 0
-276 285 286 -296 0
-277 279 280 -297 0
-277 279 280 297 298 0
-277 -280 -297 0
-277 -280 297 298 0
277 278 -279 297 298 0
277 278 -279 -298 0
277 278 279 280 -297 0
277 278 279 280 297 298 0
277 278 279 280 -298 0
277 278 -280 -297 0
277 278 -280 297 298 0
-278 -279 297 298 0
-278 -279 -298 0
-278 279 280 297 298 0
-278 279 280 -298 0
-277 281 282 -299 0
-277 281 282 299 300 0
-277 -282 -299 0
-277 -282 299 300 0
277 278 -281 299 300 0
277 278 -281 -300 0
277 278 281 282 -299 0
277 278 281 282 299 300 0
277 278 281 282 -300 0
277 278 -282 -299 0
277 278 -282 299 300 0
-278 -281 299 300 0
-278 -281 -300 0
-278 281 282 299 300 0
-278 281 282 -300 0
-277 283 284 -301 0
-277 283 284 301 302 0
-277 -284 -301 0
-277 -284 301 302 0
277 278 -283 301 302 0
277 278 -283 -302 0
277 278 283 284 -301 0
277 278 283 284 301 302 0
277 278 283 284 -302 0
277 278 -284 -301 0
277 278 -284 301 302 0
-278 -283 301 302 0
-278 -283 -302 0
-278 283 284 301 302 0
-278 283 284 -302 0
-277 285 286 -303 0
-277 285 286 303 304 0
-277 -286 -303 0
-277 -286 303 304 0
277 278 -285 303 304 0
277 278 -285 -304 0
277 278 285 286 -303 0
277 278 285 286 303 304 0
277 278 285 286 -304 0
277 278 -286 -303 0
277 278 -286 303 304 0
-278 -285 303 304 0
-278 -285 -304 0
-278 285 286 303 304 0
-278 285 286 -304 0
-279 281 282 -305 0
-279 281 282 305 306 0
-279 -282 -305 0
-279 -282 305 306 0
279 280 -281 305 306 0
279 280 -281 -306 0
279 280 281 282 -305 0
279 280 281 282 305 306 0
279 280 281 282 -306 0
279 280 -282 -305 0
279 280 -282 305 306 0
-280 -281 305 306 0
-280 -281 -306 0
-280 281 282 305 306 0
-280 281 282 -306 0
-279 283 284 -307 0
-279 283 284 307 308 0
-279 -284 -307 0
-279 -284 307 308 0
279 280 -283 307 308 0
279 280 -283 -308 0
279 280 283 284 -307 0
279 280 283 284 307 308 0
279 280 283 284 -308 0
279 280 -284 -307 0
279 280 -284 307 308 0
-280 -283 307 308 0
-280 -283 -308 0
-280 283 284 307 308 0
-280 283 284 -308 0
-279 285 286 -309 0
-279 285 286 309 310 0
-279 -286 -309 0
-279 -286 309 310 0
279 280 -285 309 310 0
279 280 -285 -310 0
279 280 285 286 -309 0
279 280 285 286 309 310 0
279 280 285 286 -310 0
279 280 -286 -309 0
279 280 -286 309 310 0
-280 -285 309 310 0
-280 -285 -310 0
-280 285 286 309 310 0
-280 285 286 -310 0
-281 283 284 -311 0
-281 283 284 311 312 0
-281 -284 -311 0
-281 -284 311 312 0
281 282 -283 311 312 0
281 282 -283 -312 0
281 282 283 284 -311 0
281 282 283 284 311 312 0
281 282 283 284 -312 0
281 282 -284 -311 0
281 282 -284 311 312 0
-282 -283 311 312 0
-282 -283 -312 0
-282 283 284 311 312 0
-282 283 284 -312 0
-281 285 286 -313 0
-281 285 286 313 314 0
-281 -286 -313 0
-281 -286 313 314 0
281 282 -285 313 314 0
281 282 -285 -314 0
281 282 285 286 -313 0
281 282 285 286 313 314 0
281 282 285 286 -314 0
281 282 -286 -313 0
281 282 -286 313 314 0
-282 -285 313 314 0
-282 -285 -314 0
-282 285 286 313 314 0
-282 285 286 -314 0
-283 285 286 -315 0
-283 285 286 315 316 0
-283 -286 -315 0
-283 -286 315 316 0
283 284 -285 315 316 0
283 284 -285 -316 0
283 284 285 286 -315 0
283 284 285 286 315 316 0
283 284 285 286 -316 0
283 284 -286 -315 0
283 284 -286 315 316 0
-284 -285 315 316 0
-284 -285 -316 0
-284 285 286 315 316 0
-284 285 286 -316 0
-287 289 290 -297 0
-287 289 290 297 298 0
-287 -290 -297 0
-287 -290 297 298 0
287 288 -289 297 298 0
287 288 -289 -298 0
287 288 289 290 -297 0
287 288 289 290 297 298 0
287 288 289 290 -298 0
287 288 -290 -297 0
287 288 -290 297 298 0
-288 -289 297 298 0
-288 -289 -298 0
-288 289 290 297 298 0
-288 289 290 -298 0
-287 291 292 -299 0
-287 291 292 299 300 0
-287 -292 -299 0
-287 -292 299 300 0
287 288 -291 299 300 0
287 288 -291 -300 0
287 288 291 292 -299 0
287 288 291 292 299 300 0
287 288 291 292 -300 0
287 288 -292 -299 0
287 288 -292 299 300 0
-288 -291 299 300 0
-288 -291 -300 0
-288 291 292 299 300 0
-288 291 292 -300 0
-287 293 294 -301 0
-287 293 294 301 302 0
-287 -294 -301 0
-287 -294 301 302 0
287 288 -293 301 302 0
287 288 -293 -302 0
287 288 293 294 -301 0
287 288 293 294 301 302 0
287 288 293 294 -302 0
287 288 -294 -301 0
287 288 -294 301 302 0
-288 -293 301 302 0
-288 -293 -302 0
-288 293 294 301 302 0
-288 293 294 -302 0
-287 295 296 -303 0
-287 295 296 303 304 0
-287 -296 -303 0
-287 -296 303 304 0
287 288 -295 303 304 0
287 288 -295 -304 0
287 288 295 296 -303 0
287 288 295 296 303 304 0
287 288 295 296 -304 0
287 288 -296 -303 0
287 288 -296 303 304 0
-288 -295 303 304 0
-288 -295 -304 0
-288 295 296 303 304 0
-288 295 296 -304 0
-289 291 292 -305 0
-289 291 292 305 306 0
-289 -292 -305 0
-289 -292 305 306 0
289 290 -291 305 306 0
289 290 -291 -306 0
289 290 291 292 -305 0
289 290 291 292 305 306 0
289 290 291 292 -306 0
289 290 -292 -305 0
289 290 -292 305 306 0
-290 -291 305 306 0
-290 -291 -306 0
-290 291 292 305 306 0
-290 291 292 -306 0
-289 293 294 -307 0
-289 293 294 307 308 0
-289 -294 -307 0
-289 -294 307 308 0
289 290 -293 307 308 0
289 290 -293 -308 0
289 290 293 294 -307 0
289 290 293 294 307 308 0
289 290 293 294 -308 0
289 290 -294 -307 0
289 290 -294 307 308 0
-290 -293 307 308 0
-290 -293 -308 0
-290 293 294 307 308 0
-290 293 294 -308 0
-289 295 296 -309 0
-289 295 296 309 310 0
-289 -296 -309 0
-289 -296 309 310 0
289 290 -295 309 310 0
289 290 -295 -310 0
289 290 295 296 -309 0
289 290 295 296 309 310 0
289 290 295 296 -310 0
289 290 -296 -309 0
289 290 -296 309 310 0
-290 -295 309 310 0
-290 -295 -310 0
-290 295 296 309 310 0
-290 295 296 -310 0
-291 293 294 -311 0
-291 293 294 311 312 0
-291 -294 -311 0
-291 -294 311 312 0
291 292 -293 311 312 0
291 292 -293 -312 0
291 292 293 294 -311 0
291 292 293 294 311 312 0
291 292 293 294 -312 0
291 292 -294 -311 0
291 292 -294 311 312 0
-292 -293 311 312 0
-292 -293 -312 0
-292 293 294 311 312 0
-292 293 294 -312 0
-291 295 296 -313 0
-291 295 296 313 314 0
-291 -296 -313 0
-291 -296 313 314 0
291 292 -295 313 314 0
291 292 -295 -314 0
291 292 295 296 -313 0
291 292 295 296 313 314 0
291 292 295 296 -314 0
291 292 -296 -313 0
291 292 -296 313 314 0
-292 -295 313 314 0
-292 -295 -314 0
-292 295 296 313 314 0
-292 295 296 -314 0
-293 295 296 -315 0
-293 295 296 315 316 0
-293 -296 -315 0
-293 -296 315 316 0
293 294 -295 315 316 0
293 294 -295 -316 0
293 294 295 296 -315 0
293 294 295 296 315 316 0
293 294 295 296 -316 0
293 294 -296 -315 0
293 294 -296 315 316 0
-294 -295 315 316 0
-294 -295 -316 0
-294 295 296 315 316 0
-294 295 296 -316 0
-297 299 300 -305 0
-297 299 300 305 306 0
-297 -300 -305 0
-297 -300 305 306 0
297 298 -299 305 306 0
297 298 -299 -306 0
297 298 299 300 -305 0
297 298 299 300 305 306 0
297 298 299 300 -306 0
297 298 -300 -305 0
297 298 -300 305 306 0
-298 -299 305 306 0
-298 -299 -306 0
-298 299 300 305 306 0
-298 299 300 -306 0
-297 301 302 -307 0
-297 301 302 307 308 0
-297 -302 -307 0
-297 -302 307 308 0
297 298 -301 307 308 0
297 298 -301 -308 0
297 298 301 302 -307 0
297 298 301 302 307 308 0
297 298 301 302 -308 0
297 298 -302 -307 0
297 298 -302 307 308 0
-298 -301 307 308 0
-298 -301 -308 0
-298 301 302 307 308 0
-298 301 302 -308 0
-297 303 304 -309 0
-297 303 304 309 310 0
-297 -304 -309 0
-297 -304 309 310 0
297 298 -303 309 310 0
297 298 -303 -310 0
297 298 303 304 -309 0
297 298 303 304 309 310 0
297 298 303 304 -310 0
297 298 -304 -309 0
297 298 -304 309 310 0
-298 -303 309 310 0
-298 -303 -310 0
-298 303 304 309 310 0
-298 303 304 -310 0
-299 301 302 -311 0
-299 301 302 311 312 0
-299 -302 -311 0
-299 -302 311 312 0
299 300 -301 311 312 0
299 300 -301 -312 0
299 300 301 302 -311 0
299 300 301 302 311 312 0
299 300 301 302 -312 0
299 300 -302 -311 0
299 300 -302 311 312 0
-300 -301 311 312 0
-300 -301 -312 0
-300 301 302 311 312 0
-300 301 302 -312 0
-299 303 304 -313 0
-299 303 304 313 314 0
-299 -304 -313 0
-299 -304 313 314 0
299 300 -303 313 314 0
299 300 -303 -314 0
299 300 303 304 -313 0
299 300 303 304 313 314 0
299 300 303 304 -314 0
299 300 -304 -313 0
299 300 -304 313 314 0
-300 -303 313 314 0
-300 -303 -314 0
-300 303 304 313 314 0
-300 303 304 -314 0
-301 303 304 -315 0
-301 303 304 315 316 0
-301 -304 -315 0
-301 -304 315 316 0
301 302 -303 315 316 0
301 302 -303 -316 0
301 302 303 304 -315 0
301 302 303 304 315 316 0
301 302 303 304 -316 0
301 302 -304 -315 0
301 302 -304 315 316 0
-302 -303 315 316 0
-302 -303 -316 0
-302 303 304 315 316 0
-302 303 304 -316 0
-305 307 308 -311 0
-305 307 308 311 312 0
-305 -308 -311 0
-305 -308 311 312 0
305 306 -307 311 312 0
305 306 -307 -312 0
305 306 307 308 -311 0
305 306 307 308 311 312 0
305 306 307 308 -312 0
305 306 -308 -311 0
305 306 -308 311 312 0
-306 -307 311 312 0
-306 -307 -312 0
-306 307 308 311 312 0
-306 307 308 -312 0
-305 309 310 -313 0
-305 309 310 313 314 0
-305 -310 -313 0
-305 -310 313 314 0
305 306 -309 313 314 0
305 306 -309 -314 0
305 306 309 310 -313 0
305 306 309 310 313 314 0
305 306 309 310 -314 0
305 306 -310 -313 0
305 306 -310 313 314 0
-306 -309 313 314 0
-306 -309 -314 0
-306 309 310 313 314 0
-306 309 310 -314 0
-307 309 310 -315 0
-307 309 310 315 316 0
-307 -310 -315 0
-307 -310 315 316 0
307 308 -309 315 316 0
307 308 -309 -316 0
307 308 309 310 -315 0
307 308 309 310 315 316 0
307 308 309 310 -316 0
307 308 -310 -315 0
307 308 -310 315 316 0
-308 -309 315 316 0
-308 -309 -316 0
-308 309 310 315 316 0
-308 309 310 -316 0
-311 313 314 -315 0
-311 313 314 315 316 0
-311 -314 -315 0
-311 -314 315 316 0
311 312 -313 315 316 0
311 312 -313 -316 0
311 312 313 314 -315 0
311 312 313 314 315 316 0
311 312 313 314 -316 0
311 312 -314 -315 0
311 312 -314 315 316 0
-312 -313 315 316 0
-312 -313 -316 0
-312 313 314 315 316 0
-312 313 314 -316 0
-317 319 320 -331 0
-317 319 320 331 332 0
-317 -320 -331 0
-317 -320 331 332 0
317 318 -319 331 332 0
317 318 -319 -332 0
317 318 319 320 -331 0
317 318 319 320 331 332 0
317 318 319 320 -332 0
317 318 -320 -331 0
317 318 -320 331 332 0
-318 -319 331 332 0
-318 -319 -332 0
-318 319 320 331 332 0
-318 319 320 -332 0
-317 321 322 -333 0
-317 321 322 333 334 0
-317 -322 -333 0
-317 -322 333 334 0
317 318 -321 333 334 0
317 318 -321 -334 0
317 318 321 322 -333 0
317 318 321 322 333 334 0
317 318 321 322 -334 0
317 318 -322 -333 0
317 318 -322 333 334 0
-318 -321 333 334 0
-318 -321 -334 0
-318 321 322 333 334 0
-318 321 322 -334 0
-317 323 324 -335 0
-317 323 324 335 336 0
-317 -324 -335 0
-317 -324 335 336 0
317 318 -323 335 336 0
317 318 -323 -336 0
317 318 323 324 -335 0
317 318 323 324 335 336 0
317 318 323 324 -336 0
317 318 -324 -335 0
317 318 -324 335 336 0
-318 -323 335 336 0
-318 -323 -336 0
-318 323 324 335 336 0
-318 323 324 -336 0
-317 325 326 -337 0
-317 325 326 337 338 0
-317 -326 -337 0
-317 -326 337 338 0
317 318 -325 337 338 0
317 318 -325 -338 0
317 318 325 326 -337 0
317 318 325 326 337 338 0
317 318 325 326 -338 0
317 318 -326 -337 0
317 318 -326 337 338 0
-318 -325 337 338 0
-318 -325 -338 0
-318 325 326 337 338 0
-318 325 326 -338 0
-317 327 328 -339 0
-317 327 328 339 340 0
-317 -328 -339 0
-317 -328 339 340 0
317 318 -327 339 340 0
317 318 -327 -340 0
317 318 327 328 -339 0
317 318 327 328 339 340 0
317 318 327 328 -340 0
317 318 -328 -339 0
317 318 -328 339 340 0
-318 -327 339 340 0
-318 -327 -340 0
-318 327 328 339 340 0
-318 327 328 -340 0
-317 329 330 -341 0
-317 329 330 341 342 0
-317 -330 -341 0
-317 -330 341 342 0
317 318 -329 341 342 0
317 318 -329 -342 0
317 318 329 330 -341 0
317 318 329 330 341 342 0
317 318 329 330 -342 0
317 318 -330 -341 0
317 318 -330 341 342 0
-318 -329 341 342 0
-318 -329 -342 0
-318 329 330 341 342 0
-318 329 330 -342 0
-319 321 322 -343 0
-319 321 322 343 344 0
-319 -322 -343 0
-319 -322 343 344 0
319 320 -321 343 344 0
319 320 -321 -344 0
319 320 321 322 -343 0
319 320 321 322 343 344 0
319 320 321 322 -344 0
319 320 -322 -343 0
319 320 -322 343 344 0
-320 -321 343 344 0
-320 -321 -344 0
-320 321 322 343 344 0
-320 321 322 -344 0
-319 323 324 -345 0
-319 323 324 345 346 0
-319 -324 -345 0
-319 -324 345 346 0
319 320 -323 345 346 0
319 320 -323 -346 0
319 320 323 324 -345 0
319 320 323 324 345 346 0
319 320 323 324 -346 0
319 320 -324 -345 0
319 320 -324 345 346 0
-320 -323 345 346 0
-320 -323 -346 0
-320 323 324 345 346 0
-320 323 324 -346 0
-319 325 326 -347 0
-319 325 326 347 348 0
-319 -326 -347 0
-319 -326 347 348 0
319 320 -325 347 348 0
319 320 -325 -348 0
319 320 325 326 -347 0
319 320 325 326 347 348 0
319 320 325 326 -348 0
319 320 -326 -347 0
319 320 -326 347 348 0
-320 -325 347 348 0
-320 -325 -348 0
-320 325 326 347 348 0
-320 325 326 -348 0
-319 327 328 -349 0
-319 327 328 349 350 0
-319 -328 -349 0
-319 -328 349 350 0
319 320 -327 349 350 0
319 320 -327 -350 0
319 320 327 328 -349 0
319 320 327 328 349 350 0
319 320 327 328 -350 0
319 320 -328 -349 0
319 320 -328 349 350 0
-320 -327 349 350 0
-320 -327 -350 0
-320 327 328 349 350 0
-320 327 328 -350 0
-319 329 330 -351 0
-319 329 330 351 352 0
-319 -330 -351 0
-319 -330 351 352 0
319 320 -329 351 352 0
319 320 -329 -352 0
319 320 329 330 -351 0
319 320 329 330 351 352 0
319 320 329 330 -352 0
319 320 -330 -351 0
319 320 -330 351 352 0
-320 -329 351 352 0
-320 -329 -352 0
-320 329 330 351 352 0
-320 329 330 -352 0
-321 323 324 -353 0
-321 323 324 353 354 0
-321 -324 -353 0
-321 -324 353 354 0
321 322 -323 353 354 0
321 322 -323 -354 0
321 322 323 324 -353 0
321 322 323 324 353 354 0
321 322 323 324 -354 0
321 322 -324 -353 0
321 322 -324 353 354 0
-322 -323 353 354 0
-322 -323 -354 0
-322 323 324 353 354 0
-322 323 324 -354 0
-321 325 326 -355 0
-321 325 326 355 356 0
-321 -326 -355 0
-321 -326 355 356 0
321 322 -325 355 356 0
321 322 -325 -356 0
321 322 325 326 -355 0
321 322 325 326 355 356 0
321 322 325 326 -356 0
321 322 -326 -355 0
321 322 -326 355 356 0
-322 -325 355 356 0
-322 -325 -356 0
-322 325 326 355 356 0
-322 325 326 -356 0
-321 327 328 -357 0
-321 327 328 357 358 0
-321 -328 -357 0
-321 -328 357 358 0
321 322 -327 357 358 0
321 322 -327 -358 0
321 322 327 328 -357 0
321 322 327 328 357 358 0
321 322 327 328 -358 0
321 322 -328 -357 0
321 322 -328 357 358 0
-322 -327 357 358 0
-322 -327 -358 0
-322 327 328 357 358 0
-322 327 328 -358 0
-321 329 330 -359 0
-321 329 330 359 360 0
-321 -330 -359 0
-321 -330 359 360 0
321 322 -329 359 360 0
321 322 -329 -360 0
321 322 329 330 -359 0
321 322 329 330 359 360 0
321 322 329 330 -360 0
321 322 -330 -359 0
321 322 -330 359 360 0
-322 -329 359 360 0
-322 -329 -360 0
-322 329 330 359 360 0
-322 329 330 -360 0
-323 325 326 -361 0
-323 325 326 361 362 0
-323 -326 -361 0
-323 -326 361 362 0
323 324 -325 361 362 0
323 324 -325 -362 0
323 324 325 326 -361 0
323 324 325 326 361 362 0
323 324 325 326 -362 0
323 324 -326 -361 0
323 324 -326 361 362 0
-324 -325 361 362 0
-324 -325 -362 0
-324 325 326 361 362 0
-324 325 326 -362 0
-323 327 328 -363 0
-323 327 328 363 364 0
-323 -328 -363 0
-323 -328 363 364 0
323 324 -327 363 364 0
323 324 -327 -364 0
323 324 327 328 -363 0
323 324 327 328 363 364 0
323 324 327 328 -364 0
323 324 -328 -363 0
323 324 -328 363 364 0
-324 -327 363 364 0
-324 -327 -364 0
-324 327 328 363 364 0
-324 327 328 -364 0
-323 329 330 -365 0
-323 329 330 365 366 0
-323 -330 -365 0
-323 -330 365 366 0
323 324 -329 365 366 0
323 324 -329 -366 0
323 324 329 330 -365 0
323 324 329 330 365 366 0
323 324 329 330 -366 0
323 324 -330 -365 0
323 324 -330 365 366 0
-324 -329 365 366 0
-324 -329 -366 0
-324 329 330 365 366 0
-324 329 330 -366 0
-325 327 328 -367 0
-325 327 328 367 368 0
-325 -328 -367 0
-325 -328 367 368 0
325 326 -327 367 368 0
325 326 -327 -368 0
325 326 327 328 -367 0
325 326 327 328 367 368 0
325 326 327 328 -368 0
325 326 -328 -367 0
325 326 -328 367 368 0
-326 -327 367 368 0
-326 -327 -368 0
-326 327 328 367 368 0
-326 327 328 -368 0
-325 329 330 -369 0
-325 329 330 369 370 0
-325 -330 -369 0
-325 -330 369 370 0
325 326 -329 369 370 0
325 326 -329 -370 0
325 326 329 330 -369 0
325 326 329 330 369 370 0
325 326 329 330 -370 0
325 326 -330 -369 0
325 326 -330 369 370 0
-326 -329 369 370 0
-326 -329 -370 0
-326 329 330 369 370 0
-326 329 330 -370 0
-327 329 330 -371 0
-327 329 330 371 372 0
-327 -330 -371 0
-327 -330 371 372 0
327 328 -329 371 372 0
327 328 -329 -372 0
327 328 329 330 -371 0
327 328 329 330 371 372 0
327 328 329 330 -372 0
327 328 -330 -371 0
327 328 -330 371 372 0
-328 -329 371 372 0
-328 -329 -372 0
-328 329 330 371 372 0
-328 329 330 -372 0
-331 333 334 -343 0
-331 333 334 343 344 0
-331 -334 -343 0
-331 -334 343 344 0
331 332 -333 343 344 0
331 332 -333 -344 0
331 332 333 334 -343 0
331 332 333 334 343 344 0
331 332 333 334 -344 0
331 332 -334 -343 0
331 332 -334 343 344 0
-332 -333 343 344 0
-332 -333 -344 0
-332 333 334 343 344 0
-332 333 334 -344 0
-331 335 336 -345 0
-331 335 336 345 346 0
-331 -336 -345 0
-331 -336 345 346 0
331 332 -335 345 346 0
331 332 -335 -346 0
331 332 335 336 -345 0
331 332 335 336 345 346 0
331 332 335 336 -346 0
331 332 -336 -345 0
331 332 -336 345 346 0
-332 -335 345 346 0
-332 -335 -346 0
-332 335 336 345 346 0
-332 335 336 -346 0
-331 337 338 -347 0
-331 337 338 347 348 0
-331 -338 -347 0
-331 -338 347 348 0
331 332 -337 347 348 0
331 332 -337 -348 0
331 332 337 338 -347 0
331 332 337 338 347 348 0
331 332 337 338 -348 0
331 332 -338 -347 0
331 332 -338 347 348 0
-332 -337 347 348 0
-332 -337 -348 0
-332 337 338 347 348 0
-332 337 338 -348 0
-331 339 340 -349 0
-331 339 340 349 350 0
-331 -340 -349 0
-331 -340 349 350 0
331 332 -339 349 350 0
331 332 -339 -350 0
331 332 339 340 -349 0
331 332 339 340 349 350 0
331 332 339 340 -350 0
331 332 -340 -349 0
331 332 -340 349 350 0
-332 -339 349 350 0
-332 -339 -350 0
-332 339 340 349 350 0
-332 339 340 -350 0
-331 341 342 -351 0
-331 341 342 351 352 0
-331 -342 -351 0
-331 -342 351 352 0
331 332 -341 351 352 0
331 332 -341 -352 0
331 332 341 342 -351 0
331 332 341 342 351 352 0
331 332 341 342 -352 0
331 332 -342 -351 0
331 332 -342 351 352 0
-332 -341 351 352 0
-332 -341 -352 0
-332 341 342 351 352 0
-332 341 342 -352 0
-333 335 336 -353 0
-333 335 336 353 354 0
-333 -336 -353 0
-333 -336 353 354 0
333 334 -335 353 354 0
333 334 -335 -354 0
333 334 335 336 -353 0
333 334 335 336 353 354 0
333 334 335 336 -354 0
333 334 -336 -353 0
333 334 -336 353 354 0
-334 -335 353 354 0
-334 -335 -354 0
-334 335 336 353 354 0
-334 335 336 -354 0
-333 337 338 -355 0
-333 337 338 355 356 0
-333 -338 -355 0
-333 -338 355 356 0
333 334 -337 355 356 0
333 334 -337 -356 0
333 334 337 338 -355 0
333 334 337 338 355 356 0
333 334 337 338 -356 0
333 334 -338 -355 0
333 334 -338 355 356 0
-334 -337 355 356 0
-334 -337 -356 0
-334 337 338 355 356 0
-334 337 338 -356 0
-333 339 340 -357 0
-333 339 340 357 358 0
-333 -340 -357 0
-333 -340 357 358 0
333 334 -339 357 358 0
333 334 -339 -358 0
333 334 339 340 -357 0
333 334 339 340 357 358 0
333 334 339 340 -358 0
333 334 -340 -357 0
333 334 -340 357 358 0
-334 -339 357 358 0
-334 -339 -358 0
-334 339 340 357 358 0
-334 339 340 -358 0
-333 341 342 -359 0
-333 341 342 359 360 0
-333 -342 -359 0
-333 -342 359 360 0
333 334 -341 359 360 0
333 334 -341 -360 0
333 334 341 342 -359 0
333 334 341 342 359 360 0
333 334 341 342 -360 0
333 334 -342 -359 0
333 334 -342 359 360 0
-334 -341 359 360 0
-334 -341 -360 0
-334 341 342 359 360 0
-334 341 342 -360 0
-335 337 338 -361 0
-335 337 338 361 362 0
-335 -338 -361 0
-335 -338 361 362 0
335 336 -337 361 362 0
335 336 -337 -362 0
335 336 337 338 -361 0
335 336 337 338 361 362 0
335 336 337 338 -362 0
335 336 -338 -361 0
335 336 -338 361 362 0
-336 -337 361 362 0
-336 -337 -362 0
-336 337 338 361 362 0
-336 337 338 -362 0
-335 339 340 -363 0
-335 339 340 363 364 0
-335 -340 -363 0
-335 -340 363 364 0
335 336 -339 363 364 0
335 336 -339 -364 0
335 336 339 340 -363 0
335 336 339 340 363 364 0
335 336 339 340 -364 0
335 336 -340 -363 0
335 336 -340 363 364 0
-336 -339 363 364 0
-336 -339 -364 0
-336 339 340 363 364 0
-336 339 340 -364 0
-335 341 342 -365 0
-335 341 342 365 366 0
-335 -342 -365 0
-335 -342 365 366 0
335 336 -341 365 366 0
335 336 -341 -366 0
335 336 341 342 -365 0
335 336 341 342 365 366 0
335 336 341 342 -366 0
335 336 -342 -365 0
335 336 -342 365 366 0
-336 -341 365 366 0
-336 -341 -366 0
-336 341 342 365 366 0
-336 341 342 -366 0
-337 339 340 -367 0
-337 339 340 367 368 0
-337 -340 -367 0
-337 -340 367 368 0
337 338 -339 367 368 0
337 338 -339 -368 0
337 338 339 340 -367 0
337 338 339 340 367 368 0
337 338 339 340 -368 0
337 338 -340 -367 0
337 338 -340 367 368 0
-338 -339 367 368 0
-338 -339 -368 0
-338 339 340 367 368 0
-338 339 340 -368 0
-337 341 342 -369 0
-337 341 342 369 370 0
-337 -342 -369 0
-337 -342 369 370 0
337 338 -341 369 370 0
337 338 -341 -370 0
337 338 341 342 -369 0
337 338 341 342 369 370 0
337 338 341 342 -370 0
337 338 -342 -369 0
337 338 -342 369 370 0
-338 -341 369 370 0
-338 -341 -370 0
-338 341 342 369 370 0
-338 341 342 -370 0
-339 341 342 -371 0
-339 341 342 371 372 0
-339 -342 -371 0
-339 -342 371 372 0
339 340 -341 371 372 0
339 340 -341 -372 0
339 340 341 342 -371 0
339 340 341 342 371 372 0
339 340 341 342 -372 0
339 340 -342 -371 0
339 340 -342 371 372 0
-340 -341 371 372 0
-340 -341 -372 0
-340 341 342 371 372 0
-340 341 342 -372 0
-343 345 346 -353 0
-343 345 346 353 354 0
-343 -346 -353 0
-343 -346 353 354 0
343 344 -345 353 354 0
343 344 -345 -354 0
343 344 345 346 -353 0
343 344 345 346 353 354 0
343 344 345 346 -354 0
343 344 -346 -353 0
343 344 -346 353 354 0
-344 -345 353 354 0
-344 -345 -354 0
-344 345 346 353 354 0
-344 345 346 -354 0
-343 347 348 -355 0
-343 347 348 355 356 0
-343 -348 -355 0
-343 -348 355 356 0
343 344 -347 355 356 0
343 344 -347 -356 0
343 344 347 348 -355 0
343 344 347 348 355 356 0
343 344 347 348 -356 0
343 344 -348 -355 0
343 344 -348 355 356 0
-344 -347 355 356 0
-344 -347 -356 0
-344 347 348 355 356 0
-344 347 348 -356 0
-343 349 350 -357 0
-343 349 350 357 358 0
-343 -350 -357 0
-343 -350 357 358 0
343 344 -349 357 358 0
343 344 -349 -358 0
343 344 349 350 -357 0
343 344 349 350 357 358 0
343 344 349 350 -358 0
343 344 -350 -357 0
343 344 -350 357 358 0
-344 -349 357 358 0
-344 -349 -358 0
-344 349 350 357 358 0
-344 349 350 -358 0
-343 351 352 -359 0
-343 351 352 359 360 0
-343 -352 -359 0
-343 -352 359 360 0
343 344 -351 359 360 0
343 344 -351 -360 0
343 344 351 352 -359 0
343 344 351 352 359 360 0
343 344 351 352 -360 0
343 344 -352 -359 0
343 344 -352 359 360 0
-344 -351 359 360 0
-344 -351 -360 0
-344 351 352 359 360 0
-344 351 352 -360 0
-345 347 348 -361 0
-345 347 348 361 362 0
-345 -348 -361 0
-345 -348 361 362 0
345 346 -347 361 362 0
345 346 -347 -362 0
345 346 347 348 -361 0
345 346 347 348 361 362 0
345 346 347 348 -362 0
345 346 -348 -361 0
345 346 -348 361 362 0
-346 -347 361 362 0
-346 -347 -362 0
-346 347 348 361 362 0
-346 347 348 -362 0
-345 349 350 -363 0
-345 349 350 363 364 0
-345 -350 -363 0
-345 -350 363 364 0
345 346 -349 363 364 0
345 346 -349 -364 0
345 346 349 350 -363 0
345 346 349 350 363 364 0
345 346 349 350 -364 0
345 346 -350 -363 0
345 346 -350 363 364 0
-346 -349 363 364 0
-346 -349 -364 0
-346 349 350 363 364 0
-346 349 350 -364 0
-345 351 352 -365 0
-345 351 352 365 366 0
-345 -352 -365 0
-345 -352 365 366 0
345 346 -351 365 366 0
345 346 -351 -366 0
345 346 351 352 -365 0
345 346 351 352 365 366 0
345 346 351 352 -366 0
345 346 -352 -365 0
345 346 -352 365 366 0
-346 -351 365 366 0
-346 -351 -366 0
-346 351 352 365 366 0
-346 351 352 -366 0
-347 349 350 -367 0
-347 349 350 367 368 0
-347 -350 -367 0
-347 -350 367 368 0
347 348 -349 367 368 0
347 348 -349 -368 0
347 348 349 350 -367 0
347 348 349 350 367 368 0
347 348 349 350 -368 0
347 348 -350 -367 0
347 348 -350 367 368 0
-348 -349 367 368 0
-348 -349 -368 0
-348 349 350 367 368 0
-348 349 350 -368 0
-347 351 352 -369 0
-347 351 352 369 370 0
-347 -352 -369 0
-347 -352 369 370 0
347 348 -351 369 370 0
347 348 -351 -370 0
347 348 351 352 -369 0
347 348 351 352 369 370 0
347 348 351 352 -370 0
347 348 -352 -369 0
347 348 -352 369 370 0
-348 -351 369 370 0
-348 -351 -370 0
-348 351 352 369 370 0
-348 351 352 -370 0
-349 351 352 -371 0
-349 351 352 371 372 0
-349 -352 -371 0
-349 -352 371 372 0
349 350 -351 371 372 0
349 350 -351 -372 0
349 350 351 352 -371 0
349 350 351 352 371 372 0
349 350 351 352 -372 0
349 350 -352 -371 0
349 350 -352 371 372 0
-350 -351 371 372 0
-350 -351 -372 0
-350 351 352 371 372 0
-350 351 352 -372 0
-353 355 356 -361 0
-353 355 356 361 362 0
-353 -356 -361 0
-353 -356 361 362 0
353 354 -355 361 362 0
353 354 -355 -362 0
353 354 355 356 -361 0
353 354 355 356 361 362 0
353 354 355 356 -362 0
353 354 -356 -361 0
353 354 -356 361 362 0
-354 -355 361 362 0
-354 -355 -362 0
-354 355 356 361 362 0
-354 355 356 -362 0
-353 357 358 -363 0
-353 357 358 363 364 0
-353 -358 -363 0
-353 -358 363 364 0
353 354 -357 363 364 0
353 354 -357 -364 0
353 354 357 358 -363 0
353 354 357 358 363 364 0
353 354 357 358 -364 0
353 354 -358 -363 0
353 354 -358 363 364 0
-354 -357 363 364 0
-354 -357 -364 0
-354 357 358 363 364 0
-354 357 358 -364 0
-353 359 360 -365 0
-353 359 360 365 366 0
-353 -360 -365 0
-353 -360 365 366 0
353 354 -359 365 366 0
353 354 -359 -366 0
353 354 359 360 -365 0
353 354 359 360 365 366 0
353 354 359 360 -366 0
353 354 -360 -365 0
353 354 -360 365 366 0
-354 -359 365 366 0
-354 -359 -366 0
-354 359 360 365 366 0
-354 359 360 -366 0
-355 357 358 -367 0
-355 357 358 367 368 0
-355 -358 -367 0
-355 -358 367 368 0
355 356 -357 367 368 0
355 356 -357 -368 0
355 356 357 358 -367 0
355 356 357 358 367 368 0
355 356 357 358 -368 0
355 356 -358 -367 0
355 356 -358 367 368 0
-356 -357 367 368 0
-356 -357 -368 0
-356 357 358 367 368 0
-356 357 358 -368 0
-355 359 360 -369 0
-355 359 360 369 370 0
-355 -360 -369 0
-355 -360 369 370 0
355 356 -359 369 370 0
355 356 -359 -370 0
355 356 359 360 -369 0
355 356 359 360 369 370 0
355 356 359 360 -370 0
355 356 -360 -369 0
355 356 -360 369 370 0
-356 -359 369 370 0
-356 -359 -370 0
-356 359 360 369 370 0
-356 359 360 -370 0
-357 359 360 -371 0
-357 359 360 371 372 0
-357 -360 -371 0
-357 -360 371 372 0
357 358 -359 371 372 0
357 358 -359 -372 0
357 358 359 360 -371 0
357 358 359 360 371 372 0
357 358 359 360 -372 0
357 358 -360 -371 0
357 358 -360 371 372 0
-358 -359 371 372 0
-358 -359 -372 0
-358 359 360 371 372 0
-358 359 360 -372 0
-361 363 364 -367 0
-361 363 364 367 368 0
-361 -364 -367 0
-361 -364 367 368 0
361 362 -363 367 368 0
361 362 -363 -368 0
361 362 363 364 -367 0
361 362 363 364 367 368 0
361 362 363 364 -368 0
361 362 -364 -367 0
361 362 -364 367 368 0
-362 -363 367 368 0
-362 -363 -368 0
-362 363 364 367 368 0
-362 363 364 -368 0
-361 365 366 -369 0
-361 365 366 369 370 0
-361 -366 -369 0
-361 -366 369 370 0
361 362 -365 369 370 0
361 362 -365 -370 0
361 362 365 366 -369 0
361 362 365 366 369 370 0
361 362 365 366 -370 0
361 362 -366 -369 0
361 362 -366 369 370 0
-362 -365 369 370 0
-362 -365 -370 0
-362 365 366 369 370 0
-362 365 366 -370 0
-363 365 366 -371 0
-363 365 366 371 372 0
-363 -366 -371 0
-363 -366 371 372 0
363 364 -365 371 372 0
363 364 -365 -372 0
363 364 365 366 -371 0
363 364 365 366 371 372 0
363 364 365 366 -372 0
363 364 -366 -371 0
363 364 -366 371 372 0
-364 -365 371 372 0
-364 -365 -372 0
-364 365 366 371 372 0
-364 365 366 -372 0
-367 369 370 -371 0
-367 369 370 371 372 0
-367 -370 -371 0
-367 -370 371 372 0
367 368 -369 371 372 0
367 368 -369 -372 0
367 368 369 370 -371 0
367 368 369 370 371 372 0
367 368 369 370 -372 0
367 368 -370 -371 0
367 368 -370 371 372 0
-368 -369 371 372 0
-368 -369 -372 0
-368 369 370 371 372 0
-368 369 370 -372 0
-373 375 376 -387 0
-373 375 376 387 388 0
-373 -376 -387 0
-373 -376 387 388 0
373 374 -375 387 388 0
373 374 -375 -388 0
373 374 375 376 -387 0
373 374 375 376 387 388 0
373 374 375 376 -388 0
373 374 -376 -387 0
373 374 -376 387 388 0
-374 -375 387 388 0
-374 -375 -388 0
-374 375 376 387 388 0
-374 375 376 -388 0
-373 377 378 -389 0
-373 377 378 389 390 0
-373 -378 -389 0
-373 -378 389 390 0
373 374 -377 389 390 0
373 374 -377 -390 0
373 374 377 378 -389 0
373 374 377 378 389 390 0
373 374 377 378 -390 0
373 374 -378 -389 0
373 374 -378 389 390 0
-374 -377 389 390 0
-374 -377 -390 0
-374 377 378 389 390 0
-374 377 378 -390 0
-373 379 380 -391 0
-373 379 380 391 392 0
-373 -380 -391 0
-373 -380 391 392 0
373 374 -379 391 392 0
373 374 -379 -392 0
373 374 379 380 -391 0
373 374 379 380 391 392 0
373 374 379 380 -392 0
373 374 -380 -391 0
373 374 -380 391 392 0
-374 -379 391 392 0
-374 -379 -392 0
-374 379 380 391 392 0
-374 379 380 -392 0
-373 381 382 -393 0
-373 381 382 393 394 0
-373 -382 -393 0
-373 -382 393 394 0
373 374 -381 393 394 0
373 374 -381 -394 0
373 374 381 382 -393 0
373 374 381 382 393 394 0
373 374 381 382 -394 0
373 374 -382 -393 0
373 374 -382 393 394 0
-374 -381 393 394 0
-374 -381 -394 0
-374 381 382 393 394 0
-374 381 382 -394 0
-373 383 384 -395 0
-373 383 384 395 396 0
-373 -384 -395 0
-373 -384 395 396 0
373 374 -383 395 396 0
373 374 -383 -396 0
373 374 383 384 -395 0
373 374 383 384 395 396 0
373 374 383 384 -396 0
373 374 -384 -395 0
373 374 -384 395 396 0
-374 -383 395 396 0
-374 -383 -396 0
-374 383 384 395 396 0
-374 383 384 -396 0
-373 385 386 -397 0
-373 385 386 397 398 0
-373 -386 -397 0
-373 -386 397 398 0
373 374 -385 397 398 0
373 374 -385 -398 0
373 374 385 386 -397 0
373 374 385 386 397 398 0
373 374 385 386 -398 0
373 374 -386 -397 0
373 374 -386 397 398 0
-374 -385 397 398 0
-374 -385 -398 0
-374 385 386 397 398 0
-374 385 386 -398 0
-375 377 378 -399 0
-375 377 378 399 400 0
-375 -378 -399 0
-375 -378 399 400 0
375 376 -377 399 400 0
375 376 -377 -400 0
375 376 377 378 -399 0
375 376 377 378 399 400 0
375 376 377 378 -400 0
375 376 -378 -399 0
375 376 -378 399 400 0
-376 -377 399 400 0
-376 -377 -400 0
-376 377 378 399 400 0
-376 377 378 -400 0
-375 379 380 -401 0
-375 379 380 401 402 0
-375 -380 -401 0
-375 -380 401 402 0
375 376 -379 401 402 0
375 376 -379 -402 0
375 376 379 380 -401 0
375 376 379 380 401 402 0
375 376 379 380 -402 0
375 376 -380 -401 0
375 376 -380 401 402 0
-376 -379 401 402 0
-376 -379 -402 0
-376 379 380 401 402 0
-376 379 380 -402 0
-375 381 382 -403 0
-375 381 382 403 404 0
-375 -382 -403 0
-375 -382 403 404 0
375 376 -381 403 404 0
375 376 -381 -404 0
375 376 381 382 -403 0
375 376 381 382 403 404 0
375 376 381 382 -404 0
375 376 -382 -403 0
375 376 -382 403 404 0
-376 -381 403 404 0
-376 -381 -404 0
-376 381 382 403 404 0
-376 381 382 -404 0
-375 383 384 -405 0
-375 383 384 405 406 0
-375 -384 -405 0
-375 -384 405 406 0
375 376 -383 405 406 0
375 376 -383 -406 0
375 376 383 384 -405 0
375 376 383 384 405 406 0
375 376 383 384 -406 0
375 376 -384 -405 0
375 376 -384 405 406 0
-376 -383 405 406 0
-376 -383 -406 0
-376 383 384 405 406 0
-376 383 384 -406 0
-375 385 386 -407 0
-375 385 386 407 408 0
-375 -386 -407 0
-375 -386 407 408 0
375 376 -385 407 408 0
375 376 -385 -408 0
375 376 385 386 -407 0
375 376 385 386 407 408 0
375 376 385 386 -408 0
375 376 -386 -407 0
375 376 -386 407 408 0
-376 -385 407 408 0
-376 -385 -408 0
-376 385 386 407 408 0
-376 385 386 -408 0
-377 379 380 -409 0
-377 379 380 409 410 0
-377 -380 -409 0
-377 -380 409 410 0
377 378 -379 409 410 0
377 378 -379 -410 0
377 378 379 380 -409 0
377 378 379 380 409 410 0
377 378 379 380 -410 0
377 378 -380 -409 0
377 378 -380 409 410 0
-378 -379 409 410 0
-378 -379 -410 0
-378 379 380 409 410 0
-378 379 380 -410 0
-377 381 382 -411 0
-377 381 382 411 412 0
-377 -382 -411 0
-377 -382 411 412 0
377 378 -381 411 412 0
377 378 -381 -412 0
377 378 381 382 -411 0
377 378 381 382 411 412 0
377 378 381 382 -412 0
377 378 -382 -411 0
377 378 -382 411 412 0
-378 -381 411 412 0
-378 -381 -412 0
-378 381 382 411 412 0
-378 381 382 -412 0
-377 383 384 -413 0
-377 383 384 413 414 0
-377 -384 -413 0
-377 -384 413 414 0
377 378 -383 413 414 0
377 378 -383 -414 0
377 378 383 384 -413 0
377 378 383 384 413 414 0
377 378 383 384 -414 0
377 378 -384 -413 0
377 378 -384 413 414 0
-378 -383 413 414 0
-378 -383 -414 0
-378 383 384 413 414 0
-378 383 384 -414 0
-377 385 386 -415 0
-377 385 386 415 416 0
-377 -386 -415 0
-377 -386 415 416 0
377 378 -385 415 416 0
377 378 -385 -416 0
377 378 385 386 -415 0
377 378 385 386 415 416 0
377 378 385 386 -416 0
377 378 -386 -415 0
377 378 -386 415 416 0
-378 -385 415 416 0
-378 -385 -416 0
-378 385 386 415 416 0
-378 385 386 -416 0
-379 381 382 -417 0
-379 381 382 417 418 0
-379 -382 -417 0
-379 -382 417 418 0
379 380 -381 417 418 0
379 380 -381 -418 0
379 380 381 382 -417 0
379 380 381 382 417 418 0
379 380 381 382 -418 0
379 380 -382 -417 0
379 380 -382 417 418 0
-380 -381 417 418 0
-380 -381 -418 0
-380 381 382 417 418 0
-380 381 382 -418 0
-379 383 384 -419 0
-379 383 384 419 420 0
-379 -384 -419 0
-379 -384 419 420 0
379 380 -383 419 420 0
379 380 -383 -420 0
379 380 383 384 -419 0
379 380 383 384 419 420 0
379 380 383 384 -420 0
379 380 -384 -419 0
379 380 -384 419 420 0
-380 -383 419 420 0
-380 -383 -420 0
-380 383 384 419 420 0
-380 383 384 -420 0
-379 385 386 -421 0
-379 385 386 421 422 0
-379 -386 -421 0
-379 -386 421 422 0
379 380 -385 421 422 0
379 380 -385 -422 0
379 380 385 386 -421 0
379 380 385 386 421 422 0
379 380 385 386 -422 0
379 380 -386 -421 0
379 380 -386 421 422 0
-380 -385 421 422 0
-380 -385 -422 0
-380 385 386 421 422 0
-380 385 386 -422 0
-381 383 384 -423 0
-381 383 384 423 424 0
-381 -384 -423 0
-381 -384 423 424 0
381 382 -383 423 424 0
381 382 -383 -424 0
381 382 383 384 -423 0
381 382 383 384 423 424 0
381 382 383 384 -424 0
381 382 -384 -423 0
381 382 -384 423 424 0
-382 -383 423 424 0
-382 -383 -424 0
-382 383 384 423 424 0
-382 383 384 -424 0
-381 385 386 -425 0
-381 385 386 425 426 0
-381 -386 -425 0
-381 -386 425 426 0
381 382 -385 425 426 0
381 382 -385 -426 0
381 382 385 386 -425 0
381 382 385 386 425 426 0
381 382 385 386 -426 0
381 382 -386 -425 0
381 382 -386 425 426 0
-382 -385 425 426 0
-382 -385 -426 0
-382 385 386 425 426 0
-382 385 386 -426 0
-383 385 386 -427 0
-383 385 386 427 428 0
-383 -386 -427 0
-383 -386 427 428 0
383 384 -385 427 428 0
383 384 -385 -428 0
383 384 385 386 -427 0
383 384 385 386 427 428 0
383 384 385 386 -428 0
383 384 -386 -427 0
383 384 -386 427 428 0
-384 -385 427 428 0
-384 -385 -428 0
-384 385 386 427 428 0
-384 385 386 -428 0
-387 389 390 -399 0
-387 389 390 399 400 0
-387 -390 -399 0
-387 -390 399 400 0
387 388 -389 399 400 0
387 388 -389 -400 0
387 388 389 390 -399 0
387 388 389 390 399 400 0
387 388 389 390 -400 0
387 388 -390 -399 0
387 388 -390 399 400 0
-388 -389 399 400 0
-388 -389 -400 0
-388 389 390 399 400 0
-388 389 390 -400 0
-387 391 392 -401 0
-387 391 392 401 402 0
-387 -392 -401 0
-387 -392 401 402 0
387 388 -391 401 402 0
387 388 -391 -402 0
387 388 391 392 -401 0
387 388 391 392 401 402 0
387 388 391 392 -402 0
387 388 -392 -401 0
387 388 -392 401 402 0
-388 -391 401 402 0
-388 -391 -402 0
-388 391 392 401 402 0
-388 391 392 -402 0
-387 393 394 -403 0
-387 393 394 403 404 0
-387 -394 -403 0
-387 -394 403 404 0
387 388 -393 403 404 0
387 388 -393 -404 0
387 388 393 394 -403 0
387 388 393 394 403 404 0
387 388 393 394 -404 0
387 388 -394 -403 0
387 388 -394 403 404 0
-388 -393 403 404 0
-388 -393 -404 0
-388 393 394 403 404 0
-388 393 394 -404 0
-387 395 396 -405 0
-387 395 396 405 406 0
-387 -396 -405 0
-387 -396 405 406 0
387 388 -395 405 406 0
387 388 -395 -406 0
387 388 395 396 -405 0
387 388 395 396 405 406 0
387 388 395 396 -406 0
387 388 -396 -405 0
387 388 -396 405 406 0
-388 -395 405 406 0
-388 -395 -406 0
-388 395 396 405 406 0
-388 395 396 -406 0
-387 397 398 -407 0
-387 397 398 407 408 0
-387 -398 -407 0
-387 -398 407 408 0
387 388 -397 407 408 0
387 388 -397 -408 0
387 388 397 398 -407 0
387 388 397 398 407 408 0
387 388 397 398 -408 0
387 388 -398 -407 0
387 388 -398 407 408 0
-388 -397 407 408 0
-388 -397 -408 0
-388 397 398 407 408 0
-388 397 398 -408 0
-389 391 392 -409 0
-389 391 392 409 410 0
-389 -392 -409 0
-389 -392 409 410 0
389 390 -391 409 410 0
389 390 -391 -410 0
389 390 391 392 -409 0
389 390 391 392 409 410 0
389 390 391 392 -410 0
389 390 -392 -409 0
389 390 -392 409 410 0
-390 -391 409 410 0
-390 -391 -410 0
-390 391 392 409 410 0
-390 391 392 -410 0
-389 393 394 -411 0
-389 393 394 411 412 0
-389 -394 -411 0
-389 -394 411 412 0
389 390 -393 411 412 0
389 390 -393 -412 0
389 390 393 394 -411 0
389 390 393 394 411 412 0
389 390 393 394 -412 0
389 390 -394 -411 0
389 390 -394 411 412 0
-390 -393 411 412 0
-390 -393 -412 0
-390 393 394 411 412 0
-390 393 394 -412 0
-389 395 396 -413 0
-389 395 396 413 414 0
-389 -396 -413 0
-389 -396 413 414 0
389 390 -395 413 414 0
389 390 -395 -414 0
389 390 395 396 -413 0
389 390 395 396 413 414 0
389 390 395 396 -414 0
389 390 -396 -413 0
389 390 -396 413 414 0
-390 -395 413 414 0
-390 -395 -414 0
-390 395 396 413 414 0
-390 395 396 -414 0
-389 397 398 -415 0
-389 397 398 415 416 0
-389 -398 -415 0
-389 -398 415 416 0
389 390 -397 415 416 0
389 390 -397 -416 0
389 390 397 398 -415 0
389 390 397 398 415 416 0
389 390 397 398 -416 0
389 390 -398 -415 0
389 390 -398 415 416 0
-390 -397 415 416 0
-390 -397 -416 0
-390 397 398 415 416 0
-390 397 398 -416 0
-391 393 394 -417 0
-391 393 394 417 418 0
-391 -394 -417 0
-391 -394 417 418 0
391 392 -393 417 418 0
391 392 -393 -418 0
391 392 393 394 -417 0
391 392 393 394 417 418 0
391 392 393 394 -418 0
391 392 -394 -417 0
391 392 -394 417 418 0
-392 -393 417 418 0
-392 -393 -418 0
-392 393 394 417 418 0
-392 393 394 -418 0
-391 395 396 -419 0
-391 395 396 419 420 0
-391 -396 -419 0
-391 -396 419 420 0
391 392 -395 419 420 0
391 392 -395 -420 0
391 392 395 396 -419 0
391 392 395 396 419 420 0
391 392 395 396 -420 0
391 392 -396 -419 0
391 392 -396 419 420 0
-392 -395 419 420 0
-392 -395 -420 0
-392 395 396 419 420 0
-392 395 396 -420 0
-391 397 398 -421 0
-391 397 398 421 422 0
-391 -398 -421 0
-391 -398 421 422 0
391 392 -397 421 422 0
391 392 -397 -422 0
391 392 397 398 -421 0
391 392 397 398 421 422 0
391 392 397 398 -422 0
391 392 -398 -421 0
391 392 -398 421 422 0
-392 -397 421 422 0
-392 -397 -422 0
-392 397 398 421 422 0
-392 397 398 -422 0
-393 395 396 -423 0
-393 395 396 423 424 0
-393 -396 -423 0
-393 -396 423 424 0
393 394 -395 423 424 0
393 394 -395 -424 0
393 394 395 396 -423 0
393 394 395 396 423 424 0
393 394 395 396 -424 0
393 394 -396 -423 0
393 394 -396 423 424 0
-394 -395 423 424 0
-394 -395 -424 0
-394 395 396 423 424 0
-394 395 396 -424 0
-393 397 398 -425 0
-393 397 398 425 426 0
-393 -398 -425 0
-393 -398 425 426 0
393 394 -397 425 426 0
393 394 -397 -426 0
393 394 397 398 -425 0
393 394 397 398 425 426 0
393 394 397 398 -426 0
393 394 -398 -425 0
393 394 -398 425 426 0
-394 -397 425 426 0
-394 -397 -426 0
-394 397 398 425 426 0
-394 397 398 -426 0
-395 397 398 -427 0
-395 397 398 427 428 0
-395 -398 -427 0
-395 -398 427 428 0
395 396 -397 427 428 0
395 396 -397 -428 0
395 396 397 398 -427 0
395 396 397 398 427 428 0
395 396 397 398 -428 0
395 396 -398 -427 0
395 396 -398 427 428 0
-396 -397 427 428 0
-396 -397 -428 0
-396 397 398 427 428 0
-396 397 398 -428 0
-399 401 402 -409 0
-399 401 402 409 410 0
-399 -402 -409 0
-399 -402 409 410 0
399 400 -401 409 410 0
399 400 -401 -410 0
399 400 401 402 -409 0
399 400 401 402 409 410 0
399 400 401 402 -410 0
399 400 -402 -409 0
399 400 -402 409 410 0
-400 -401 409 410 0
-400 -401 -410 0
-400 401 402 409 410 0
-400 401 402 -410 0
-399 403 404 -411 0
-399 403 404 411 412 0
-399 -404 -411 0
-399 -404 411 412 0
399 400 -403 411 412 0
399 400 -403 -412 0
399 400 403 404 -411 0
399 400 403 404 411 412 0
399 400 403 404 -412 0
399 400 -404 -411 0
399 400 -404 411 412 0
-400 -403 411 412 0
-400 -403 -412 0
-400 403 404 411 412 0
-400 403 404 -412 0
-399 405 406 -413 0
-399 405 406 413 414 0
-399 -406 -413 0
-399 -406 413 414 0
399 400 -405 413 414 0
399 400 -405 -414 0
399 400 405 406 -413 0
399 400 405 406 413 414 0
399 400 405 406 -414 0
399 400 -406 -413 0
399 400 -406 413 414 0
-400 -405 413 414 0
-400 -405 -414 0
-400 405 406 413 414 0
-400 405 406 -414 0
-399 407 408 -415 0
-399 407 408 415 416 0
-399 -408 -415 0
-399 -408 415 416 0
399 400 -407 415 416 0
399 400 -407 -416 0
399 400 407 408 -415 0
399 400 407 408 415 416 0
399 400 407 408 -416 0
399 400 -408 -415 0
399 400 -408 415 416 0
-400 -407 415 416 0
-400 -407 -416 0
-400 407 408 415 416 0
-400 407 408 -416 0
-401 403 404 -417 0
-401 403 404 417 418 0
-401 -404 -417 0
-401 -404 417 418 0
401 402 -403 417 418 0
401 402 -403 -418 0
401 402 403 404 -417 0
401 402 403 404 417 418 0
401 402 403 404 -418 0
401 402 -404 -417 0
401 402 -404 417 418 0
-402 -403 417 418 0
-402 -403 -418 0
-402 403 404 417 418 0
-402 403 404 -418 0
-401 405 406 -419 0
-401 405 406 419 420 0
-401 -406 -419 0
-401 -406 419 420 0
401 402 -405 419 420 0
401 402 -405 -420 0
401 402 405 406 -419 0
401 402 405 406 419 420 0
401 402 405 406 -420 0
401 402 -406 -419 0
401 402 -406 419 420 0
-402 -405 419 420 0
-402 -405 -420 0
-402 405 406 419 420 0
-402 405 406 -420 0
-401 407 408 -421 0
-401 407 408 421 422 0
-401 -408 -421 0
-401 -408 421 422 0
401 402 -407 421 422 0
401 402 -407 -422 0
401 402 407 408 -421 0
401 402 407 408 421 422 0
401 402 407 408 -422 0
401 402 -408 -421 0
401 402 -408 421 422 0
-402 -407 421 422 0
-402 -407 -422 0
-402 407 408 421 422 0
-402 407 408 -422 0
-403 405 406 -423 0
-403 405 406 423 424 0
-403 -406 -423 0
-403 -406 423 424 0
403 404 -405 423 424 0
403 404 -405 -424 0
403 404 405 406 -423 0
403 404 405 406 423 424 0
403 404 405 406 -424 0
403 404 -406 -423 0
403 404 -406 423 424 0
-404 -405 423 424 0
-404 -405 -424 0
-404 405 406 423 424 0
-404 405 406 -424 0
-403 407 408 -425 0
-403 407 408 425 426 0
-403 -408 -425 0
-403 -408 425 426 0
403 404 -407 425 426 0
403 404 -407 -426 0
403 404 407 408 -425 0
403 404 407 408 425 426 0
403 404 407 408 -426 0
403 404 -408 -425 0
403 404 -408 425 426 0
-404 -407 425 426 0
-404 -407 -426 0
-404 407 408 425 426 0
-404 407 408 -426 0
-405 407 408 -427 0
-405 407 408 427 428 0
-405 -408 -427 0
-405 -408 427 428 0
405 406 -407 427 428 0
405 406 -407 -428 0
405 406 407 408 -427 0
405 406 407 408 427 428 0
405 406 407 408 -428 0
405 406 -408 -427 0
405 406 -408 427 428 0
-406 -407 427 428 0
-406 -407 -428 0
-406 407 408 427 428 0
-406 407 408 -428 0
-409 411 412 -417 0
-409 411 412 417 418 0
-409 -412 -417 0
-409 -412 417 418 0
409 410 -411 417 418 0
409 410 -411 -418 0
409 410 411 412 -417 0
409 410 411 412 417 418 0
409 410 411 412 -418 0
409 410 -412 -417 0
409 410 -412 417 418 0
-410 -411 417 418 0
-410 -411 -418 0
-410 411 412 417 418 0
-410 411 412 -418 0
-409 413 414 -419 0
-409 413 414 419 420 0
-409 -414 -419 0
-409 -414 419 420 0
409 410 -413 419 420 0
409 410 -413 -420 0
409 410 413 414 -419 0
409 410 413 414 419 420 0
409 410 413 414 -420 0
409 410 -414 -419 0
409 410 -414 419 420 0
-410 -413 419 420 0
-410 -413 -420 0
-410 413 414 419 420 0
-410 413 414 -420 0
-409 415 416 -421 0
-409 415 416 421 422 0
-409 -416 -421 0
-409 -416 421 422 0
409 410 -415 421 422 0
409 410 -415 -422 0
409 410 415 416 -421 0
409 410 415 416 421 422 0
409 410 415 416 -422 0
409 410 -416 -421 0
409 410 -416 421 422 0
-410 -415 421 422 0
-410 -415 -422 0
-410 415 416 421 422 0
-410 415 416 -422 0
-411 413 414 -423 0
-411 413 414 423 424 0
-411 -414 -423 0
-411 -414 423 424 0
411 412 -413 423 424 0
411 412 -413 -424 0
411 412 413 414 -423 0
411 412 413 414 423 424 0
411 412 413 414 -424 0
411 412 -414 -423 0
411 412 -414 423 424 0
-412 -413 423 424 0
-412 -413 -424 0
-412 413 414 423 424 0
-412 413 414 -424 0
-411 415 416 -425 0
-411 415 416 425 426 0
-411 -416 -425 0
-411 -416 425 426 0
411 412 -415 425 426 0
411 412 -415 -426 0
411 412 415 416 -425 0
411 412 415 416 425 426 0
411 412 415 416 -426 0
411 412 -416 -425 0
411 412 -416 425 426 0
-412 -415 425 426 0
-412 -415 -426 0
-412 415 416 425 426 0
-412 415 416 -426 0
-413 415 416 -427 0
-413 415 416 427 428 0
-413 -416 -427 0
-413 -416 427 428 0
413 414 -415 427 428 0
413 414 -415 -428 0
413 414 415 416 -427 0
413 414 415 416 427 428 0
413 414 415 416 -428 0
413 414 -416 -427 0
413 414 -416 427 428 0
-414 -415 427 428 0
-414 -415 -428 0
-414 415 416 427 428 0
-414 415 416 -428 0
-417 419 420 -423 0
-417 419 420 423 424 0
-417 -420 -423 0
-417 -420 423 424 0
417 418 -419 423 424 0
417 418 -419 -424 0
417 418 419 420 -423 0
417 418 419 420 423 424 0
417 418 419 420 -424 0
417 418 -420 -423 0
417 418 -420 423 424 0
-418 -419 423 424 0
-418 -419 -424 0
-418 419 420 423 424 0
-418 419 420 -424 0
-417 421 422 -425 0
-417 421 422 425 426 0
-417 -422 -425 0
-417 -422 425 426 0
417 418 -421 425 426 0
417 418 -421 -426 0
417 418 421 422 -425 0
417 418 421 422 425 426 0
417 418 421 422 -426 0
417 418 -422 -425 0
417 418 -422 425 426 0
-418 -421 425 426 0
-418 -421 -426 0
-418 421 422 425 426 0
-418 421 422 -426 0
-419 421 422 -427 0
-419 421 422 427 428 0
-419 -422 -427 0
-419 -422 427 428 0
419 420 -421 427 428 0
419 420 -421 -428 0
419 420 421 422 -427 0
419 420 421 422 427 428 0
419 420 421 422 -428 0
419 420 -422 -427 0
419 420 -422 427 428 0
-420 -421 427 428 0
-420 -421 -428 0
-420 421 422 427 428 0
-420 421 422 -428 0
-423 425 426 -427 0
-423 425 426 427 428 0
-423 -426 -427 0
-423 -426 427 428 0
423 424 -425 427 428 0
423 424 -425 -428 0
423 424 425 426 -427 0
423 424 425 426 427 428 0
423 424 425 426 -428 0
423 424 -426 -427 0
423 424 -426 427 428 0
-424 -425 427 428 0
-424 -425 -428 0
-424 425 426 427 428 0
-424 425 426 -428 0
-429 431 432 -443 0
-429 431 432 443 444 0
-429 -432 -443 0
-429 -432 443 444 0
429 430 -431 443 444 0
429 430 -431 -444 0
429 430 431 432 -443 0
429 430 431 432 443 444 0
429 430 431 432 -444 0
429 430 -432 -443 0
429 430 -432 443 444 0
-430 -431 443 444 0
-430 -431 -444 0
-430 431 432 443 444 0
-430 431 432 -444 0
-429 433 434 -445 0
-429 433 434 445 446 0
-429 -434 -445 0
-429 -434 445 446 0
429 430 -433 445 446 0
429 430 -433 -446 0
429 430 433 434 -445 0
429 430 433 434 445 446 0
429 430 433 434 -446 0
429 430 -434 -445 0
429 430 -434 445 446 0
-430 -433 445 446 0
-430 -433 -446 0
-430 433 434 445 446 0
-430 433 434 -446 0
-429 435 436 -447 0
-429 435 436 447 448 0
-429 -436 -447 0
-429 -436 447 448 0
429 430 -435 447 448 0
429 430 -435 -448 0
429 430 435 436 -447 0
429 430 435 436 447 448 0
429 430 435 436 -448 0
429 430 -436 -447 0
429 430 -436 447 448 0
-430 -435 447 448 0
-430 -435 -448 0
-430 435 436 447 448 0
-430 435 436 -448 0
-429 437 438 -449 0
-429 437 438 449 450 0
-429 -438 -449 0
-429 -438 449 450 0
429 430 -437 449 450 0
429 430 -437 -450 0
429 430 437 438 -449 0
429 430 437 438 449 450 0
429 430 437 438 -450 0
429 430 -438 -449 0
429 430 -438 449 450 0
-430 -437 449 450 0
-430 -437 -450 0
-430 437 438 449 450 0
-430 437 438 -450 0
-429 439 440 -451 0
-429 439 440 451 452 0
-429 -440 -451 0
-429 -440 451 452 0
429 430 -439 451 452 0
429 430 -439 -452 0
429 430 439 440 -451 0
429 430 439 440 451 452 0
429 430 439 440 -452 0
429 430 -440 -451 0
429 430 -440 451 452 0
-430 -439 451 452 0
-430 -439 -452 0
-430 439 440 451 452 0
-430 439 440 -452 0
-429 441 442 -453 0
-429 441 442 453 454 0
-429 -442 -453 0
-429 -442 453 454 0
429 430 -441 453 454 0
429 430 -441 -454 0
429 430 441 442 -453 0
429 430 441 442 453 454 0
429 430 441 442 -454 0
429 430 -442 -453 0
429 430 -442 453 454 0
-430 -441 453 454 0
-430 -441 -454 0
-430 441 442 453 454 0
-430 441 442 -454 0
-431 433 434 -455 0
-431 433 434 455 456 0
-431 -434 -455 0
-431 -434 455 456 0
431 432 -433 455 456 0
431 432 -433 -456 0
431 432 433 434 -455 0
431 432 433 434 455 456 0
431 432 433 434 -456 0
431 432 -434 -455 0
431 432 -434 455 456 0
-432 -433 455 456 0
-432 -433 -456 0
-432 433 434 455 456 0
-432 433 434 -456 0
-431 435 436 -457 0
-431 435 436 457 458 0
-431 -436 -457 0
-431 -436 457 458 0
431 432 -435 457 458 0
431 432 -435 -458 0
431 432 435 436 -457 0
431 432 435 436 457 458 0
431 432 435 436 -458 0
431 432 -436 -457 0
431 432 -436 457 458 0
-432 -435 457 458 0
-432 -435 -458 0
-432 435 436 457 458 0
-432 435 436 -458 0
-431 437 438 -459 0
-431 437 438 459 460 0
-431 -438 -459 0
-431 -438 459 460 0
431 432 -437 459 460 0
431 432 -437 -460 0
431 432 437 438 -459 0
431 432 437 438 459 460 0
431 432 437 438 -460 0
431 432 -438 -459 0
431 432 -438 459 460 0
-432 -437 459 460 0
-432 -437 -460 0
-432 437 438 459 460 0
-432 437 438 -460 0
-431 439 440 -461 0
-431 439 440 461 462 0
-431 -440 -461 0
-431 -440 461 462 0
431 432 -439 461 462 0
431 432 -439 -462 0
431 432 439 440 -461 0
431 432 439 440 461 462 0
431 432 439 440 -462 0
431 432 -440 -461 0
431 432 -440 461 462 0
-432 -439 461 462 0
-432 -439 -462 0
-432 439 440 461 462 0
-432 439 440 -462 0
-431 441 442 -463 0
-431 441 442 463 464 0
-431 -442 -463 0
-431 -442 463 464 0
431 432 -441 463 464 0
431 432 -441 -464 0
431 432 441 442 -463 0
431 432 441 442 463 464 0
431 432 441 442 -464 0
431 432 -442 -463 0
431 432 -442 463 464 0
-432 -441 463 464 0
-432 -441 -464 0
-432 441 442 463 464 0
-432 441 442 -464 0
-433 435 436 -465 0
-433 435 436 465 466 0
-433 -436 -465 0
-433 -436 465 466 0
433 434 -435 465 466 0
433 434 -435 -466 0
433 434 435 436 -465 0
433 434 435 436 465 466 0
433 434 435 436 -466 0
433 434 -436 -465 0
433 434 -436 465 466 0
-434 -435 465 466 0
-434 -435 -466 0
-434 435 436 465 466 0
-434 435 436 -466 0
-433 437 438 -467 0
-433 437 438 467 468 0
-433 -438 -467 0
-433 -438 467 468 0
433 434 -437 467 468 0
433 434 -437 -468 0
433 434 437 438 -467 0
433 434 437 438 467 468 0
433 434 437 438 -468 0
433 434 -438 -467 0
433 434 -438 467 468 0
-434 -437 467 468 0
-434 -437 -468 0
-434 437 438 467 468 0
-434 437 438 -468 0
-433 439 440 -469 0
-433 439 440 469 470 0
-433 -440 -469 0
-433 -440 469 470 0
433 434 -439 469 470 0
433 434 -439 -470 0
433 434 439 440 -469 0
433 434 439 440 469 470 0
433 434 439 440 -470 0
433 434 -440 -469 0
433 434 -440 469 470 0
-434 -439 469 470 0
-434 -439 -470 0
-434 439 440 469 470 0
-434 439 440 -470 0
-433 441 442 -471 0
-433 441 442 471 472 0
-433 -442 -471 0
-433 -442 471 472 0
433 434 -441 471 472 0
433 434 -441 -472 0
433 434 441 442 -471 0
433 434 441 442 471 472 0
433 434 441 442 -472 0
433 434 -442 -471 0
433 434 -442 471 472 0
-434 -441 471 472 0
-434 -441 -472 0
-434 441 442 471 472 0
-434 441 442 -472 0
-435 437 438 -473 0
-435 437 438 473 474 0
-435 -438 -473 0
-435 -438 473 474 0
435 436 -437 473 474 0
435 436 -437 -474 0
435 436 437 438 -473 0
435 436 437 438 473 474 0
435 436 437 438 -474 0
435 436 -438 -473 0
435 436 -438 473 474 0
-436 -437 473 474 0
-436 -437 -474 0
-436 437 438 473 474 0
-436 437 438 -474 0
-435 439 440 -475 0
-435 439 440 475 476 0
-435 -440 -475 0
-435 -440 475 476 0
435 436 -439 475 476 0
435 436 -439 -476 0
435 436 439 440 -475 0
435 436 439 440 475 476 0
435 436 439 440 -476 0
435 436 -440 -475 0
435 436 -440 475 476 0
-436 -439 475 476 0
-436 -439 -476 0
-436 439 440 475 476 0
-436 439 440 -476 0
-435 441 442 -477 0
-435 441 442 477 478 0
-435 -442 -477 0
-435 -442 477 478 0
435 436 -441 477 478 0
435 436 -441 -478 0
435 436 441 442 -477 0
435 436 441 442 477 478 0
435 436 441 442 -478 0
435 436 -442 -477 0
435 436 -442 477 478 0
-436 -441 477 478 0
-436 -441 -478 0
-436 441 442 477 478 0
-436 441 442 -478 0
-437 439 440 -479 0
-437 439 440 479 480 0
-437 -440 -479 0
-437 -440 479 480 0
437 438 -439 479 480 0
437 438 -439 -480 0
437 438 439 440 -479 0
437 438 439 440 479 480 0
437 438 439 440 -480 0
437 438 -440 -479 0
437 438 -440 479 480 0
-438 -439 479 480 0
-438 -439 -480 0
-438 439 440 479 480 0
-438 439 440 -480 0
-437 441 442 -481 0
-437 441 442 481 482 0
-437 -442 -481 0
-437 -442 481 482 0
437 438 -441 481 482 0
437 438 -441 -482 0
437 438 441 442 -481 0
437 438 441 442 481 482 0
437 438 441 442 -482 0
437 438 -442 -481 0
437 438 -442 481 482 0
-438 -441 481 482 0
-438 -441 -482 0
-438 441 442 481 482 0
-438 441 442 -482 0
-439 441 442 -483 0
-439 441 442 483 484 0
-439 -442 -483 0
-439 -442 483 484 0
439 440 -441 483 484 0
439 440 -441 -484 0
439 440 441 442 -483 0
439 440 441 442 483 484 0
439 440 441 442 -484 0
439 440 -442 -483 0
439 440 -442 483 484 0
-440 -441 483 484 0
-440 -441 -484 0
-440 441 442 483 484 0
-440 441 442 -484 0
-443 445 446 -455 0
-443 445 446 455 456 0
-443 -446 -455 0
-443 -446 455 456 0
443 444 -445 455 456 0
443 444 -445 -456 0
443 444 445 446 -455 0
443 444 445 446 455 456 0
443 444 445 446 -456 0
443 444 -446 -455 0
443 444 -446 455 456 0
-444 -445 455 456 0
-444 -445 -456 0
-444 445 446 455 456 0
-444 445 446 -456 0
-443 447 448 -457 0
-443 447 448 457 458 0
-443 -448 -457 0
-443 -448 457 458 0
443 444 -447 457 458 0
443 444 -447 -458 0
443 444 447 448 -457 0
443 444 447 448 457 458 0
443 444 447 448 -458 0
443 444 -448 -457 0
443 444 -448 457 458 0
-444 -447 457 458 0
-444 -447 -458 0
-444 447 448 457 458 0
-444 447 448 -458 0
-443 449 450 -459 0
-443 449 450 459 460 0
-443 -450 -459 0
-443 -450 459 460 0
443 444 -449 459 460 0
443 444 -449 -460 0
443 444 449 450 -459 0
443 444 449 450 459 460 0
443 444 449 450 -460 0
443 444 -450 -459 0
443 444 -450 459 460 0
-444 -449 459 460 0
-444 -449 -460 0
-444 449 450 459 460 0
-444 449 450 -460 0
-443 451 452 -461 0
-443 451 452 461 462 0
-443 -452 -461 0
-443 -452 461 462 0
443 444 -451 461 462 0
443 444 -451 -462 0
443 444 451 452 -461 0
443 444 451 452 461 462 0
443 444 451 452 -462 0
443 444 -452 -461 0
443 444 -452 461 462 0
-444 -451 461 462 0
-444 -451 -462 0
-444 451 452 461 462 0
-444 451 452 -462 0
-443 453 454 -463 0
-443 453 454 463 464 0
-443 -454 -463 0
-443 -454 463 464 0
443 444 -453 463 464 0
443 444 -453 -464 0
443 444 453 454 -463 0
443 444 453 454 463 464 0
443 444 453 454 -464 0
443 444 -454 -463 0
443 444 -454 463 464 0
-444 -453 463 464 0
-444 -453 -464 0
-444 453 454 463 464 0
-444 453 454 -464 0
-445 447 448 -465 0
-445 447 448 465 466 0
-445 -448 -465 0
-445 -448 465 466 0
445 446 -447 465 466 0
445 446 -447 -466 0
445 446 447 448 -465 0
445 446 447 448 465 466 0
445 446 447 448 -466 0
445 446 -448 -465 0
445 446 -448 465 466 0
-446 -447 465 466 0
-446 -447 -466 0
-446 447 448 465 466 0
-446 447 448 -466 0
-445 449 450 -467 0
-445 449 450 467 468 0
-445 -450 -467 0
-445 -450 467 468 0
445 446 -449 467 468 0
445 446 -449 -468 0
445 446 449 450 -467 0
445 446 449 450 467 468 0
445 446 449 450 -468 0
445 446 -450 -467 0
445 446 -450 467 468 0
-446 -449 467 468 0
-446 -449 -468 0
-446 449 450 467 468 0
-446 449 450 -468 0
-445 451 452 -469 0
-445 451 452 469 470 0
-445 -452 -469 0
-445 -452 469 470 0
445 446 -451 469 470 0
445 446 -451 -470 0
445 446 451 452 -469 0
445 446 451 452 469 470 0
445 446 451 452 -470 0
445 446 -452 -469 0
445 446 -452 469 470 0
-446 -451 469 470 0
-446 -451 -470 0
-446 451 452 469 470 0
-446 451 452 -470 0
-445 453 454 -471 0
-445 453 454 471 472 0
-445 -454 -471 0
-445 -454 471 472 0
445 446 -453 471 472 0
445 446 -453 -472 0
445 446 453 454 -471 0
445 446 453 454 471 472 0
445 446 453 454 -472 0
445 446 -454 -471 0
445 446 -454 471 472 0
-446 -453 471 472 0
-446 -453 -472 0
-446 453 454 471 472 0
-446 453 454 -472 0
-447 449 450 -473 0
-447 449 450 473 474 0
-447 -450 -473 0
-447 -450 473 474 0
447 448 -449 473 474 0
447 448 -449 -474 0
447 448 449 450 -473 0
447 448 449 450 473 474 0
447 448 449 450 -474 0
447 448 -450 -473 0
447 448 -450 473 474 0
-448 -449 473 474 0
-448 -449 -474 0
-448 449 450 473 474 0
-448 449 450 -474 0
-447 451 452 -475 0
-447 451 452 475 476 0
-447 -452 -475 0
-447 -452 475 476 0
447 448 -451 475 476 0
447 448 -451 -476 0
447 448 451 452 -475 0
447 448 451 452 475 476 0
447 448 451 452 -476 0
447 448 -452 -475 0
447 448 -452 475 476 0
-448 -451 475 476 0
-448 -451 -476 0
-448 451 452 475 476 0
-448 451 452 -476 0
-447 453 454 -477 0
-447 453 454 477 478 0
-447 -454 -477 0
-447 -454 477 478 0
447 448 -453 477 478 0
447 448 -453 -478 0
447 448 453 454 -477 0
447 448 453 454 477 478 0
447 448 453 454 -478 0
447 448 -454 -477 0
447 448 -454 477 478 0
-448 -453 477 478 0
-448 -453 -478 0
-448 453 454 477 478 0
-448 453 454 -478 0
-449 451 452 -479 0
-449 451 452 479 480 0
-449 -452 -479 0
-449 -452 479 480 0
449 450 -451 479 480 0
449 450 -451 -480 0
449 450 451 452 -479 0
449 450 451 452 479 480 0
449 450 451 452 -480 0
449 450 -452 -479 0
449 450 -452 479 480 0
-450 -451 479 480 0
-450 -451 -480 0
-450 451 452 479 480 0
-450 451 452 -480 0
-449 453 454 -481 0
-449 453 454 481 482 0
-449 -454 -481 0
-449 -454 481 482 0
449 450 -453 481 482 0
449 450 -453 -482 0
449 450 453 454 -481 0
449 450 453 454 481 482 0
449 450 453 454 -482 0
449 450 -454 -481 0
449 450 -454 481 482 0
-450 -453 481 482 0
-450 -453 -482 0
-450 453 454 481 482 0
-450 453 454 -482 0
-451 453 454 -483 0
-451 453 454 483 484 0
-451 -454 -483 0
-451 -454 483 484 0
451 452 -453 483 484 0
451 452 -453 -484 0
451 452 453 454 -483 0
451 452 453 454 483 484 0
451 452 453 454 -484 0
451 452 -454 -483 0
451 452 -454 483 484 0
-452 -453 483 484 0
-452 -453 -484 0
-452 453 454 483 484 0
-452 453 454 -484 0
-455 457 458 -465 0
-455 457 458 465 466 0
-455 -458 -465 0
-455 -458 465 466 0
455 456 -457 465 466 0
455 456 -457 -466 0
455 456 457 458 -465 0
455 456 457 458 465 466 0
455 456 457 458 -466 0
455 456 -458 -465 0
455 456 -458 465 466 0
-456 -457 465 466 0
-456 -457 -466 0
-456 457 458 465 466 0
-456 457 458 -466 0
-455 459 460 -467 0
-455 459 460 467 468 0
-455 -460 -467 0
-455 -460 467 468 0
455 456 -459 467 468 0
455 456 -459 -468 0
455 456 459 460 -467 0
455 456 459 460 467 468 0
455 456 459 460 -468 0
455 456 -460 -467 0
455 456 -460 467 468 0
-456 -459 467 468 0
-456 -459 -468 0
-456 459 460 467 468 0
-456 459 460 -468 0
-455 461 462 -469 0
-455 461 462 469 470 0
-455 -462 -469 0
-455 -462 469 470 0
455 456 -461 469 470 0
455 456 -461 -470 0
455 456 461 462 -469 0
455 456 461 462 469 470 0
455 456 461 462 -470 0
455 456 -462 -469 0
455 456 -462 469 470 0
-456 -461 469 470 0
-456 -461 -470 0
-456 461 462 469 470 0
-456 461 462 -470 0
-455 463 464 -471 0
-455 463 464 471 472 0
-455 -464 -471 0
-455 -464 471 472 0
455 456 -463 471 472 0
455 456 -463 -472 0
455 456 463 464 -471 0
455 456 463 464 471 472 0
455 456 463 464 -472 0
455 456 -464 -471 0
455 456 -464 471 472 0
-456 -463 471 472 0
-456 -463 -472 0
-456 463 464 471 472 0
-456 463 464 -472 0
-457 459 460 -473 0
-457 459 460 473 474 0
-457 -460 -473 0
-457 -460 473 474 0
457 458 -459 473 474 0
457 458 -459 -474 0
457 458 459 460 -473 0
457 458 459 460 473 474 0
457 458 459 460 -474 0
457 458 -460 -473 0
457 458 -460 473 474 0
-458 -459 473 474 0
-458 -459 -474 0
-458 459 460 473 474 0
-458 459 460 -474 0
-457 461 462 -475 0
-457 461 462 475 476 0
-457 -462 -475 0
-457 -462 475 476 0
457 458 -461 475 476 0
457 458 -461 -476 0
457 458 461 462 -475 0
457 458 461 462 475 476 0
457 458 461 462 -476 0
457 458 -462 -475 0
457 458 -462 475 476 0
-458 -461 475 476 0
-458 -461 -476 0
-458 461 462 475 476 0
-458 461 462 -476 0
-457 463 464 -477 0
-457 463 464 477 478 0
-457 -464 -477 0
-457 -464 477 478 0
457 458 -463 477 478 0
457 458 -463 -478 0
457 458 463 464 -477 0
457 458 463 464 477 478 0
457 458 463 464 -478 0
457 458 -464 -477 0
457 458 -464 477 478 0
-458 -463 477 478 0
-458 -463 -478 0
-458 463 464 477 478 0
-458 463 464 -478 0
-459 461 462 -479 0
-459 461 462 479 480 0
-459 -462 -479 0
-459 -462 479 480 0
459 460 -461 479 480 0
459 460 -461 -480 0
459 460 461 462 -479 0
459 460 461 462 479 480 0
459 460 461 462 -480 0
459 460 -462 -479 0
459 460 -462 479 480 0
-460 -461 479 480 0
-460 -461 -480 0
-460 461 462 479 480 0
-460 461 462 -480 0
-459 463 464 -481 0
-459 463 464 481 482 0
-459 -464 -481 0
-459 -464 481 482 0
459 460 -463 481 482 0
459 460 -463 -482 0
459 460 463 464 -481 0
459 460 463 464 481 482 0
459 460 463 464 -482 0
459 460 -464 -481 0
459 460 -464 481 482 0
-460 -463 481 482 0
-460 -463 -482 0
-460 463 464 481 482 0
-460 463 464 -482 0
-461 463 464 -483 0
-461 463 464 483 484 0
-461 -464 -483 0
-461 -464 483 484 0
461 462 -463 483 484 0
461 462 -463 -484 0
461 462 463 464 -483 0
461 462 463 464 483 484 0
461 462 463 464 -484 0
461 462 -464 -483 0
461 462 -464 483 484 0
-462 -463 483 484 0
-462 -463 -484 0
-462 463 464 483 484 0
-462 463 464 -484 0
-465 467 468 -473 0
-465 467 468 473 474 0
-465 -468 -473 0
-465 -468 473 474 0
465 466 -467 473 474 0
465 466 -467 -474 0
465 466 467 468 -473 0
465 466 467 468 473 474 0
465 466 467 468 -474 0
465 466 -468 -473 0
465 466 -468 473 474 0
-466 -467 473 474 0
-466 -467 -474 0
-466 467 468 473 474 0
-466 467 468 -474 0
-465 469 470 -475 0
-465 469 470 475 476 0
-465 -470 -475 0
-465 -470 475 476 0
465 466 -469 475 476 0
465 466 -469 -476 0
465 466 469 470 -475 0
465 466 469 470 475 476 0
465 466 469 470 -476 0
465 466 -470 -475 0
465 466 -470 475 476 0
-466 -469 475 476 0
-466 -469 -476 0
-466 469 470 475 476 0
-466 469 470 -476 0
-465 471 472 -477 0
-465 471 472 477 478 0
-465 -472 -477 0
-465 -472 477 478 0
465 466 -471 477 478 0
465 466 -471 -478 0
465 466 471 472 -477 0
465 466 471 472 477 478 0
465 466 471 472 -478 0
465 466 -472 -477 0
465 466 -472 477 478 0
-466 -471 477 478 0
-466 -471 -478 0
-466 471 472 477 478 0
-466 471 472 -478 0
-467 469 470 -479 0
-467 469 470 479 480 0
-467 -470 -479 0
-467 -470 479 480 0
467 468 -469 479 480 0
467 468 -469 -480 0
467 468 469 470 -479 0
467 468 469 470 479 480 0
467 468 469 470 -480 0
467 468 -470 -479 0
467 468 -470 479 480 0
-468 -469 479 480 0
-468 -469 -480 0
-468 469 470 479 480 0
-468 469 470 -480 0
-467 471 472 -481 0
-467 471 472 481 482 0
-467 -472 -481 0
-467 -472 481 482 0
467 468 -471 481 482 0
467 468 -471 -482 0
467 468 471 472 -481 0
467 468 471 472 481 482 0
467 468 471 472 -482 0
467 468 -472 -481 0
467 468 -472 481 482 0
-468 -471 481 482 0
-468 -471 -482 0
-468 471 472 481 482 0
-468 471 472 -482 0
-469 471 472 -483 0
-469 471 472 483 484 0
-469 -472 -483 0
-469 -472 483 484 0
469 470 -471 483 484 0
469 470 -471 -484 0
469 470 471 472 -483 0
469 470 471 472 483 484 0
469 470 471 472 -484 0
469 470 -472 -483 0
469 470 -472 483 484 0
-470 -471 483 484 0
-470 -471 -484 0
-470 471 472 483 484 0
-470 471 472 -484 0
-473 475 476 -479 0
-473 475 476 479 480 0
-473 -476 -479 0
-473 -476 479 480 0
473 474 -475 479 480 0
473 474 -475 -480 0
473 474 475 476 -479 0
473 474 475 476 479 480 0
473 474 475 476 -480 0
473 474 -476 -479 0
473 474 -476 479 480 0
-474 -475 479 480 0
-474 -475 -480 0
-474 475 476 479 480 0
-474 475 476 -480 0
-473 477 478 -481 0
-473 477 478 481 482 0
-473 -478 -481 0
-473 -478 481 482 0
473 474 -477 481 482 0
473 474 -477 -482 0
473 474 477 478 -481 0
473 474 477 478 481 482 0
473 474 477 478 -482 0
473 474 -478 -481 0
473 474 -478 481 482 0
-474 -477 481 482 0
-474 -477 -482 0
-474 477 478 481 482 0
-474 477 478 -482 0
-475 477 478 -483 0
-475 477 478 483 484 0
-475 -478 -483 0
-475 -478 483 484 0
475 476 -477 483 484 0
475 476 -477 -484 0
475 476 477 478 -483 0
475 476 477 478 483 484 0
475 476 477 478 -484 0
475 476 -478 -483 0
475 476 -478 483 484 0
-476 -477 483 484 0
-476 -477 -484 0
-476 477 478 483 484 0
-476 477 478 -484 0
-479 481 482 -483 0
-479 481 482 483 484 0
-479 -482 -483 0
-479 -482 483 484 0
479 480 -481 483 484 0
479 480 -481 -484 0
479 480 481 482 -483 0
479 480 481 482 483 484 0
479 480 481 482 -484 0
479 480 -482 -483 0
479 480 -482 483 484 0
-480 -481 483 484 0
-480 -481 -484 0
-480 481 482 483 484 0
-480 481 482 -484 0
-485 487 488 -499 0
-485 487 488 499 500 0
-485 -488 -499 0
-485 -488 499 500 0
485 486 -487 499 500 0
485 486 -487 -500 0
485 486 487 488 -499 0
485 486 487 488 499 500 0
485 486 487 488 -500 0
485 486 -488 -499 0
485 486 -488 499 500 0
-486 -487 499 500 0
-486 -487 -500 0
-486 487 488 499 500 0
-486 487 488 -500 0
-485 489 490 -501 0
-485 489 490 501 502 0
-485 -490 -501 0
-485 -490 501 502 0
485 486 -489 501 502 0
485 486 -489 -502 0
485 486 489 490 -501 0
485 486 489 490 501 502 0
485 486 489 490 -502 0
485 486 -490 -501 0
485 486 -490 501 502 0
-486 -489 501 502 0
-486 -489 -502 0
-486 489 490 501 502 0
-486 489 490 -502 0
-485 491 492 -503 0
-485 491 492 503 504 0
-485 -492 -503 0
-485 -492 503 504 0
485 486 -491 503 504 0
485 486 -491 -504 0
485 486 491 492 -503 0
485 486 491 492 503 504 0
485 486 491 492 -504 0
485 486 -492 -503 0
485 486 -492 503 504 0
-486 -491 503 504 0
-486 -491 -504 0
-486 491 492 503 504 0
-486 491 492 -504 0
-485 493 494 -505 0
-485 493 494 505 506 0
-485 -494 -505 0
-485 -494 505 506 0
485 486 -493 505 506 0
485 486 -493 -506 0
485 486 493 494 -505 0
485 486 493 494 505 506 0
485 486 493 494 -506 0
485 486 -494 -505 0
485 486 -494 505 506 0
-486 -493 505 506 0
-486 -493 -506 0
-486 493 494 505 506 0
-486 493 494 -506 0
-485 495 496 -507 0
-485 495 496 507 508 0
-485 -496 -507 0
-485 -496 507 508 0
485 486 -495 507 508 0
485 486 -495 -508 0
485 486 495 496 -507 0
485 486 495 496 507 508 0
485 486 495 496 -508 0
485 486 -496 -507 0
485 486 -496 507 508 0
-486 -495 507 508 0
-486 -495 -508 0
-486 495 496 507 508 0
-486 495 496 -508 0
-485 497 498 -509 0
-485 497 498 509 510 0
-485 -498 -509 0
-485 -498 509 510 0
485 486 -497 509 510 0
485 486 -497 -510 0
485 486 497 498 -509 0
485 486 497 498 509 510 0
485 486 497 498 -510 0
485 486 -498 -509 0
485 486 -498 509 510 0
-486 -497 509 510 0
-486 -497 -510 0
-486 497 498 509 510 0
-486 497 498 -510 0
-487 489 490 -511 0
-487 489 490 511 512 0
-487 -490 -511 0
-487 -490 511 512 0
487 488 -489 511 512 0
487 488 -489 -512 0
487 488 489 490 -511 0
487 488 489 490 511 512 0
487 488 489 490 -512 0
487 488 -490 -511 0
487 488 -490 511 512 0
-488 -489 511 512 0
-488 -489 -512 0
-488 489 490 511 512 0
-488 489 490 -512 0
-487 491 492 -513 0
-487 491 492 513 514 0
-487 -492 -513 0
-487 -492 513 514 0
487 488 -491 513 514 0
487 488 -491 -514 0
487 488 491 492 -513 0
487 488 491 492 513 514 0
487 488 491 492 -514 0
487 488 -492 -513 0
487 488 -492 513 514 0
-488 -491 513 514 0
-488 -491 -514 0
-488 491 492 513 514 0
-488 491 492 -514 0
-487 493 494 -515 0
-487 493 494 515 516 0
-487 -494 -515 0
-487 -494 515 516 0
487 488 -493 515 516 0
487 488 -493 -516 0
487 488 493 494 -515 0
487 488 493 494 515 516 0
487 488 493 494 -516 0
487 488 -494 -515 0
487 488 -494 515 516 0
-488 -493 515 516 0
-488 -493 -516 0
-488 493 494 515 516 0
-488 493 494 -516 0
-487 495 496 -517 0
-487 495 496 517 518 0
-487 -496 -517 0
-487 -496 517 518 0
487 488 -495 517 518 0
487 488 -495 -518 0
487 488 495 496 -517 0
487 488 495 496 517 518 0
487 488 495 496 -518 0
487 488 -496 -517 0
487 488 -496 517 518 0
-488 -495 517 518 0
-488 -495 -518 0
-488 495 496 517 518 0
-488 495 496 -518 0
-487 497 498 -519 0
-487 497 498 519 520 0
-487 -498 -519 0
-487 -498 519 520 0
487 488 -497 519 520 0
487 488 -497 -520 0
487 488 497 498 -519 0
487 488 497 498 519 520 0
487 488 497 498 -520 0
487 488 -498 -519 0
487 488 -498 519 520 0
-488 -497 519 520 0
-488 -497 -520 0
-488 497 498 519 520 0
-488 497 498 -520 0
-489 491 492 -521 0
-489 491 492 521 522 0
-489 -492 -521 0
-489 -492 521 522 0
489 490 -491 521 522 0
489 490 -491 -522 0
489 490 491 492 -521 0
489 490 491 492 521 522 0
489 490 491 492 -522 0
489 490 -492 -521 0
489 490 -492 521 522 0
-490 -491 521 522 0
-490 -491 -522 0
-490 491 492 521 522 0
-490 491 492 -522 0
-489 493 494 -523 0
-489 493 494 523 524 0
-489 -494 -523 0
-489 -494 523 524 0
489 490 -493 523 524 0
489 490 -493 -524 0
489 490 493 494 -523 0
489 490 493 494 523 524 0
489 490 493 494 -524 0
489 490 -494 -523 0
489 490 -494 523 524 0
-490 -493 523 524 0
-490 -493 -524 0
-490 493 494 523 524 0
-490 493 494 -524 0
-489 495 496 -525 0
-489 495 496 525 526 0
-489 -496 -525 0
-489 -496 525 526 0
489 490 -495 525 526 0
489 490 -495 -526 0
489 490 495 496 -525 0
489 490 495 496 525 526 0
489 490 495 496 -526 0
489 490 -496 -525 0
489 490 -496 525 526 0
-490 -495 525 526 0
-490 -495 -526 0
-490 495 496 525 526 0
-490 495 496 -526 0
-489 497 498 -527 0
-489 497 498 527 528 0
-489 -498 -527 0
-489 -498 527 528 0
489 490 -497 527 528 0
489 490 -497 -528 0
489 490 497 498 -527 0
489 490 497 498 527 528 0
489 490 497 498 -528 0
489 490 -498 -527 0
489 490 -498 527 528 0
-490 -497 527 528 0
-490 -497 -528 0
-490 497 498 527 528 0
-490 497 498 -528 0
-491 493 494 -529 0
-491 493 494 529 530 0
-491 -494 -529 0
-491 -494 529 530 0
491 492 -493 529 530 0
491 492 -493 -530 0
491 492 493 494 -529 0
491 492 493 494 529 530 0
491 492 493 494 -530 0
491 492 -494 -529 0
491 492 -494 529 530 0
-492 -493 529 530 0
-492 -493 -530 0
-492 493 494 529 530 0
-492 493 494 -530 0
-491 495 496 -531 0
-491 495 496 531 532 0
-491 -496 -531 0
-491 -496 531 532 0
491 492 -495 531 532 0
491 492 -495 -532 0
491 492 495 496 -531 0
491 492 495 496 531 532 0
491 492 495 496 -532 0
491 492 -496 -531 0
491 492 -496 531 532 0
-492 -495 531 532 0
-492 -495 -532 0
-492 495 496 531 532 0
-492 495 496 -532 0
-491 497 498 -533 0
-491 497 498 533 534 0
-491 -498 -533 0
-491 -498 533 534 0
491 492 -497 533 534 0
491 492 -497 -534 0
491 492 497 498 -533 0
491 492 497 498 533 534 0
491 492 497 498 -534 0
491 492 -498 -533 0
491 492 -498 533 534 0
-492 -497 533 534 0
-492 -497 -534 0
-492 497 498 533 534 0
-492 497 498 -534 0
-493 495 496 -535 0
-493 495 496 535 536 0
-493 -496 -535 0
-493 -496 535 536 0
493 494 -495 535 536 0
493 494 -495 -536 0
493 494 495 496 -535 0
493 494 495 496 535 536 0
493 494 495 496 -536 0
493 494 -496 -535 0
493 494 -496 535 536 0
-494 -495 535 536 0
-494 -495 -536 0
-494 495 496 535 536 0
-494 495 496 -536 0
-493 497 498 -537 0
-493 497 498 537 538 0
-493 -498 -537 0
-493 -498 537 538 0
493 494 -497 537 538 0
493 494 -497 -538 0
493 494 497 498 -537 0
493 494 497 498 537 538 0
493 494 497 498 -538 0
493 494 -498 -537 0
493 494 -498 537 538 0
-494 -497 537 538 0
-494 -497 -538 0
-494 497 498 537 538 0
-494 497 498 -538 0
-495 497 498 -539 0
-495 497 498 539 540 0
-495 -498 -539 0
-495 -498 539 540 0
495 496 -497 539 540 0
495 496 -497 -540 0
495 496 497 498 -539 0
495 496 497 498 539 540 0
495 496 497 498 -540 0
495 496 -498 -539 0
495 496 -498 539 540 0
-496 -497 539 540 0
-496 -497 -540 0
-496 497 498 539 540 0
-496 497 498 -540 0
-499 501 502 -511 0
-499 501 502 511 512 0
-499 -502 -511 0
-499 -502 511 512 0
499 500 -501 511 512 0
499 500 -501 -512 0
499 500 501 502 -511 0
499 500 501 502 511 512 0
499 500 501 502 -512 0
499 500 -502 -511 0
499 500 -502 511 512 0
-500 -501 511 512 0
-500 -501 -512 0
-500 501 502 511 512 0
-500 501 502 -512 0
-499 503 504 -513 0
-499 503 504 513 514 0
-499 -504 -513 0
-499 -504 513 514 0
499 500 -503 513 514 0
499 500 -503 -514 0
499 500 503 504 -513 0
499 500 503 504 513 514 0
499 500 503 504 -514 0
499 500 -504 -513 0
499 500 -504 513 514 0
-500 -503 513 514 0
-500 -503 -514 0
-500 503 504 513 514 0
-500 503 504 -514 0
-499 505 506 -515 0
-499 505 506 515 516 0
-499 -506 -515 0
-499 -506 515 516 0
499 500 -505 515 516 0
499 500 -505 -516 0
499 500 505 506 -515 0
499 500 505 506 515 516 0
499 500 505 506 -516 0
499 500 -506 -515 0
499 500 -506 515 516 0
-500 -505 515 516 0
-500 -505 -516 0
-500 505 506 515 516 0
-500 505 506 -516 0
-499 507 508 -517 0
-499 507 508 517 518 0
-499 -508 -517 0
-499 -508 517 518 0
499 500 -507 517 518 0
499 500 -507 -518 0
499 500 507 508 -517 0
499 500 507 508 517 518 0
499 500 507 508 -518 0
499 500 -508 -517 0
499 500 -508 517 518 0
-500 -507 517 518 0
-500 -507 -518 0
-500 507 508 517 518 0
-500 507 508 -518 0
-499 509 510 -519 0
-499 509 510 519 520 0
-499 -510 -519 0
-499 -510 519 520 0
499 500 -509 519 520 0
499 500 -509 -520 0
499 500 509 510 -519 0
499 500 509 510 519 520 0
499 500 509 510 -520 0
499 500 -510 -519 0
499 500 -510 519 520 0
-500 -509 519 520 0
-500 -509 -520 0
-500 509 510 519 520 0
-500 509 510 -520 0
-501 503 504 -521 0
-501 503 504 521 522 0
-501 -504 -521 0
-501 -504 521 522 0
501 502 -503 521 522 0
501 502 -503 -522 0
501 502 503 504 -521 0
501 502 503 504 521 522 0
501 502 503 504 -522 0
501 502 -504 -521 0
501 502 -504 521 522 0
-502 -503 521 522 0
-502 -503 -522 0
-502 503 504 521 522 0
-502 503 504 -522 0
-501 505 506 -523 0
-501 505 506 523 524 0
-501 -506 -523 0
-501 -506 523 524 0
501 502 -505 523 524 0
501 502 -505 -524 0
501 502 505 506 -523 0
501 502 505 506 523 524 0
501 502 505 506 -524 0
501 502 -506 -523 0
501 502 -506 523 524 0
-502 -505 523 524 0
-502 -505 -524 0
-502 505 506 523 524 0
-502 505 506 -524 0
-501 507 508 -525 0
-501 507 508 525 526 0
-501 -508 -525 0
-501 -508 525 526 0
501 502 -507 525 526 0
501 502 -507 -526 0
501 502 507 508 -525 0
501 502 507 508 525 526 0
501 502 507 508 -526 0
501 502 -508 -525 0
501 502 -508 525 526 0
-502 -507 525 526 0
-502 -507 -526 0
-502 507 508 525 526 0
-502 507 508 -526 0
-501 509 510 -527 0
-501 509 510 527 528 0
-501 -510 -527 0
-501 -510 527 528 0
501 502 -509 527 528 0
501 502 -509 -528 0
501 502 509 510 -527 0
501 502 509 510 527 528 0
501 502 509 510 -528 0
501 502 -510 -527 0
501 502 -510 527 528 0
-502 -509 527 528 0
-502 -509 -528 0
-502 509 510 527 528 0
-502 509 510 -528 0
-503 505 506 -529 0
-503 505 506 529 530 0
-503 -506 -529 0
-503 -506 529 530 0
503 504 -505 529 530 0
503 504 -505 -530 0
503 504 505 506 -529 0
503 504 505 506 529 530 0
503 504 505 506 -530 0
503 504 -506 -529 0
503 504 -506 529 530 0
-504 -505 529 530 0
-504 -505 -530 0
-504 505 506 529 530 0
-504 505 506 -530 0
-503 507 508 -531 0
-503 507 508 531 532 0
-503 -508 -531 0
-503 -508 531 532 0
503 504 -507 531 532 0
503 504 -507 -532 0
503 504 507 508 -531 0
503 504 507 508 531 532 0
503 504 507 508 -532 0
503 504 -508 -531 0
503 504 -508 531 532 0
-504 -507 531 532 0
-504 -507 -532 0
-504 507 508 531 532 0
-504 507 508 -532 0
-503 509 510 -533 0
-503 509 510 533 534 0
-503 -510 -533 0
-503 -510 533 534 0
503 504 -509 533 534 0
503 504 -509 -534 0
503 504 509 510 -533 0
503 504 509 510 533 534 0
503 504 509 510 -534 0
503 504 -510 -533 0
503 504 -510 533 534 0
-504 -509 533 534 0
-504 -509 -534 0
-504 509 510 533 534 0
-504 509 510 -534 0
-505 507 508 -535 0
-505 507 508 535 536 0
-505 -508 -535 0
-505 -508 535 536 0
505 506 -507 535 536 0
505 506 -507 -536 0
505 506 507 508 -535 0
505 506 507 508 535 536 0
505 506 507 508 -536 0
505 506 -508 -535 0
505 506 -508 535 536 0
-506 -507 535 536 0
-506 -507 -536 0
-506 507 508 535 536 0
-506 507 508 -536 0
-505 509 510 -537 0
-505 509 510 537 538 0
-505 -510 -537 0
-505 -510 537 538 0
505 506 -509 537 538 0
505 506 -509 -538 0
505 506 509 510 -537 0
505 506 509 510 537 538 0
505 506 509 510 -538 0
505 506 -510 -537 0
505 506 -510 537 538 0
-506 -509 537 538 0
-506 -509 -538 0
-506 509 510 537 538 0
-506 509 510 -538 0
-507 509 510 -539 0
-507 509 510 539 540 0
-507 -510 -539 0
-507 -510 539 540 0
507 508 -509 539 540 0
507 508 -509 -540 0
507 508 509 510 -539 0
507 508 509 510 539 540 0
507 508 509 510 -540 0
507 508 -510 -539 0
507 508 -510 539 540 0
-508 -509 539 540 0
-508 -509 -540 0
-508 509 510 539 540 0
-508 509 510 -540 0
-511 513 514 -521 0
-511 513 514 521 522 0
-511 -514 -521 0
-511 -514 521 522 0
511 512 -513 521 522 0
511 512 -513 -522 0
511 512 513 514 -521 0
511 512 513 514 521 522 0
511 512 513 514 -522 0
511 512 -514 -521 0
511 512 -514 521 522 0
-512 -513 521 522 0
-512 -513 -522 0
-512 513 514 521 522 0
-512 513 514 -522 0
-511 515 516 -523 0
-511 515 516 523 524 0
-511 -516 -523 0
-511 -516 523 524 0
511 512 -515 523 524 0
511 512 -515 -524 0
511 512 515 516 -523 0
511 512 515 516 523 524 0
511 512 515 516 -524 0
511 512 -516 -523 0
511 512 -516 523 524 0
-512 -515 523 524 0
-512 -515 -524 0
-512 515 516 523 524 0
-512 515 516 -524 0
-511 517 518 -525 0
-511 517 518 525 526 0
-511 -518 -525 0
-511 -518 525 526 0
511 512 -517 525 526 0
511 512 -517 -526 0
511 512 517 518 -525 0
511 512 517 518 525 526 0
511 512 517 518 -526 0
511 512 -518 -525 0
511 512 -518 525 526 0
-512 -517 525 526 0
-512 -517 -526 0
-512 517 518 525 526 0
-512 517 518 -526 0
-511 519 520 -527 0
-511 519 520 527 528 0
-511 -520 -527 0
-511 -520 527 528 0
511 512 -519 527 528 0
511 512 -519 -528 0
511 512 519 520 -527 0
511 512 519 520 527 528 0
511 512 519 520 -528 0
511 512 -520 -527 0
511 512 -520 527 528 0
-512 -519 527 528 0
-512 -519 -528 0
-512 519 520 527 528 0
-512 519 520 -528 0
-513 515 516 -529 0
-513 515 516 529 530 0
-513 -516 -529 0
-513 -516 529 530 0
513 514 -515 529 530 0
513 514 -515 -530 0
513 514 515 516 -529 0
513 514 515 516 529 530 0
513 514 515 516 -530 0
513 514 -516 -529 0
513 514 -516 529 530 0
-514 -515 529 530 0
-514 -515 -530 0
-514 515 516 529 530 0
-514 515 516 -530 0
-513 517 518 -531 0
-513 517 518 531 532 0
-513 -518 -531 0
-513 -518 531 532 0
513 514 -517 531 532 0
513 514 -517 -532 0
513 514 517 518 -531 0
513 514 517 518 531 532 0
513 514 517 518 -532 0
513 514 -518 -531 0
513 514 -518 531 532 0
-514 -517 531 532 0
-514 -517 -532 0
-514 517 518 531 532 0
-514 517 518 -532 0
-513 519 520 -533 0
-513 519 520 533 534 0
-513 -520 -533 0
-513 -520 533 534 0
513 514 -519 533 534 0
513 514 -519 -534 0
513 514 519 520 -533 0
513 514 519 520 533 534 0
513 514 519 520 -534 0
513 514 -520 -533 0
513 514 -520 533 534 0
-514 -519 533 534 0
-514 -519 -534 0
-514 519 520 533 534 0
-514 519 520 -534 0
-515 517 518 -535 0
-515 517 518 535 536 0
-515 -518 -535 0
-515 -518 535 536 0
515 516 -517 535 536 0
515 516 -517 -536 0
515 516 517 518 -535 0
515 516 517 518 535 536 0
515 516 517 518 -536 0
515 516 -518 -535 0
515 516 -518 535 536 0
-516 -517 535 536 0
-516 -517 -536 0
-516 517 518 535 536 0
-516 517 518 -536 0
-515 519 520 -537 0
-515 519 520 537 538 0
-515 -520 -537 0
-515 -520 537 538 0
515 516 -519 537 538 0
515 516 -519 -538 0
515 516 519 520 -537 0
515 516 519 520 537 538 0
515 516 519 520 -538 0
515 516 -520 -537 0
515 516 -520 537 538 0
-516 -519 537 538 0
-516 -519 -538 0
-516 519 520 537 538 0
-516 519 520 -538 0
-517 519 520 -539 0
-517 519 520 539 540 0
-517 -520 -539 0
-517 -520 539 540 0
517 518 -519 539 540 0
517 518 -519 -540 0
517 518 519 520 -539 0
517 518 519 520 539 540 0
517 518 519 520 -540 0
517 518 -520 -539 0
517 518 -520 539 540 0
-518 -519 539 540 0
-518 -519 -540 0
-518 519 520 539 540 0
-518 519 520 -540 0
-521 523 524 -529 0
-521 523 524 529 530 0
-521 -524 -529 0
-521 -524 529 530 0
521 522 -523 529 530 0
521 522 -523 -530 0
521 522 523 524 -529 0
521 522 523 524 529 530 0
521 522 523 524 -530 0
521 522 -524 -529 0
521 522 -524 529 530 0
-522 -523 529 530 0
-522 -523 -530 0
-522 523 524 529 530 0
-522 523 524 -530 0
-521 525 526 -531 0
-521 525 526 531 532 0
-521 -526 -531 0
-521 -526 531 532 0
521 522 -525 531 532 0
521 522 -525 -532 0
521 522 525 526 -531 0
521 522 525 526 531 532 0
521 522 525 526 -532 0
521 522 -526 -531 0
521 522 -526 531 532 0
-522 -525 531 532 0
-522 -525 -532 0
-522 525 526 531 532 0
-522 525 526 -532 0
-521 527 528 -533 0
-521 527 528 533 534 0
-521 -528 -533 0
-521 -528 533 534 0
521 522 -527 533 534 0
521 522 -527 -534 0
521 522 527 528 -533 0
521 522 527 528 533 534 0
521 522 527 528 -534 0
521 522 -528 -533 0
521 522 -528 533 534 0
-522 -527 533 534 0
-522 -527 -534 0
-522 527 528 533 534 0
-522 527 528 -534 0
-523 525 526 -535 0
-523 525 526 535 536 0
-523 -526 -535 0
-523 -526 535 536 0
523 524 -525 535 536 0
523 524 -525 -536 0
523 524 525 526 -535 0
523 524 525 526 535 536 0
523 524 525 526 -536 0
523 524 -526 -535 0
523 524 -526 535 536 0
-524 -525 535 536 0
-524 -525 -536 0
-524 525 526 535 536 0
-524 525 526 -536 0
-523 527 528 -537 0
-523 527 528 537 538 0
-523 -528 -537 0
-523 -528 537 538 0
523 524 -527 537 538 0
523 524 -527 -538 0
523 524 527 528 -537 0
523 524 527 528 537 538 0
523 524 527 528 -538 0
523 524 -528 -537 0
523 524 -528 537 538 0
-524 -527 537 538 0
-524 -527 -538 0
-524 527 528 537 538 0
-524 527 528 -538 0
-525 527 528 -539 0
-525 527 528 539 540 0
-525 -528 -539 0
-525 -528 539 540 0
525 526 -527 539 540 0
525 526 -527 -540 0
525 526 527 528 -539 0
525 526 527 528 539 540 0
525 526 527 528 -540 0
525 526 -528 -539 0
525 526 -528 539 540 0
-526 -527 539 540 0
-526 -527 -540 0
-526 527 528 539 540 0
-526 527 528 -540 0
-529 531 532 -535 0
-529 531 532 535 536 0
-529 -532 -535 0
-529 -532 535 536 0
529 530 -531 535 536 0
529 530 -531 -536 0
529 530 531 532 -535 0
529 530 531 532 535 536 0
529 530 531 532 -536 0
529 530 -532 -535 0
529 530 -532 535 536 0
-530 -531 535 536 0
-530 -531 -536 0
-530 531 532 535 536 0
-530 531 532 -536 0
-529 533 534 -537 0
-529 533 534 537 538 0
-529 -534 -537 0
-529 -534 537 538 0
529 530 -533 537 538 0
529 530 -533 -538 0
529 530 533 534 -537 0
529 530 533 534 537 538 0
529 530 533 534 -538 0
529 530 -534 -537 0
529 530 -534 537 538 0
-530 -533 537 538 0
-530 -533 -538 0
-530 533 534 537 538 0
-530 533 534 -538 0
-531 533 534 -539 0
-531 533 534 539 540 0
-531 -534 -539 0
-531 -534 539 540 0
531 532 -533 539 540 0
531 532 -533 -540 0
531 532 533 534 -539 0
531 532 533 534 539 540 0
531 532 533 534 -540 0
531 532 -534 -539 0
531 532 -534 539 540 0
-532 -533 539 540 0
-532 -533 -540 0
-532 533 534 539 540 0
-532 533 534 -540 0
-535 537 538 -539 0
-535 537 538 539 540 0
-535 -538 -539 0
-535 -538 539 540 0
535 536 -537 539 540 0
535 536 -537 -540 0
535 536 537 538 -539 0
535 536 537 538 539 540 0
535 536 537 538 -540 0
535 536 -538 -539 0
535 536 -538 539 540 0
-536 -537 539 540 0
-536 -537 -540 0
-536 537 538 539 540 0
-536 537 538 -540 0
9 2 1 -37 -93 149 150 0
9 2 1 -37 -93 -150 0
9 2 1 -37 93 94 -149 0
9 2 1 -37 93 94 149 150 0
9 2 1 -37 93 94 -150 0
9 2 1 -37 -94 -149 0
9 2 1 -37 -94 149 150 0
9 2 1 -37 -94 -150 0
9 2 1 37 38 -93 -149 0
9 2 1 37 38 -93 149 150 0
9 2 1 37 38 -93 -150 0
9 2 1 37 38 93 94 -149 0
9 2 1 37 38 93 94 -150 0
9 2 1 37 38 -94 -149 0
9 2 1 37 38 -94 149 150 0
9 2 1 37 38 -94 -150 0
9 2 1 -38 -93 -149 0
9 2 1 -38 -93 149 150 0
9 2 1 -38 -93 -150 0
9 2 1 -38 93 94 -149 0
9 2 1 -38 93 94 149 150 0
9 2 1 -38 93 94 -150 0
9 2 1 -38 -94 -149 0
9 2 1 -38 -94 149 150 0
9 2 -1 -37 -93 -149 0
9 2 -1 -37 -93 149 150 0
9 2 -1 -37 93 94 -149 0
9 2 -1 -37 93 94 149 150 0
9 2 -1 -37 93 94 -150 0
9 2 -1 -37 -94 -149 0
9 2 -1 -37 -94 149 150 0
9 2 -1 -37 -94 -150 0
9 2 -1 37 38 -93 -149 0
9 2 -1 37 38 -93 149 150 0
9 2 -1 37 38 -93 -150 0
9 2 -1 37 38 93 94 -149 0
9 2 -1 37 38 93 94 -150 0
9 2 -1 37 38 -94 -149 0
9 2 -1 37 38 -94 149 150 0
9 2 -1 37 38 -94 -150 0
9 2 -1 -38 -93 -149 0
9 2 -1 -38 -93 149 150 0
9 2 -1 -38 -93 -150 0
9 2 -1 -38 93 94 -149 0
9 2 -1 -38 93 94 149 150 0
9 2 -1 -38 93 94 -150 0
9 2 -1 -38 -94 149 150 0
9 2 -1 -38 -94 -150 0
9 -2 1 -37 -93 -149 0
9 -2 1 -37 -93 149 150 0
9 -2 1 -37 -93 -150 0
9 -2 1 -37 93 94 -149 0
9 -2 1 -37 93 94 149 150 0
9 -2 1 -37 93 94 -150 0
9 -2 1 -37 -94 149 150 0
9 -2 1 -37 -94 -150 0
9 -2 1 37 38 -93 -149 0
9 -2 1 37 38 -93 149 150 0
9 -2 1 37 38 -93 -150 0
9 -2 1 37 38 93 94 -149 0
9 -2 1 37 38 93 94 -150 0
9 -2 1 37 38 -94 -149 0
9 -2 1 37 38 -94 149 150 0
9 -2 1 37 38 -94 -150 0
9 -2 1 -38 -93 -149 0
9 -2 1 -38 -93 149 150 0
9 -2 1 -38 93 94 -149 0
9 -2 1 -38 93 94 149 150 0
9 -2 1 -38 93 94 -150 0
9 -2 1 -38 -94 -149 0
9 -2 1 -38 -94 149 150 0
9 -2 1 -38 -94 -150 0
9 -2 -1 -37 -93 -149 0
9 -2 -1 -37 -93 149 150 0
9 -2 -1 -37 -93 -150 0
9 -2 -1 -37 93 94 -149 0
9 -2 -1 -37 93 94 149 150 0
9 -2 -1 -37 93 94 -150 0
9 -2 -1 -37 -94 -149 0
9 -2 -1 -37 -94 149 150 0
9 -2 -1 37 38 -93 -149 0
9 -2 -1 37 38 -93 149 150 0
9 -2 -1 37 38 -93 -150 0
9 -2 -1 37 38 93 94 -149 0
9 -2 -1 37 38 93 94 -150 0
9 -2 -1 37 38 -94 -149 0
9 -2 -1 37 38 -94 149 150 0
9 -2 -1 37 38 -94 -150 0
9 -2 -1 -38 -93 149 150 0
9 -2 -1 -38 -93 -150 0
9 -2 -1 -38 93 94 -149 0
9 -2 -1 -38 93 94 149 150 0
9 -2 -1 -38 93 94 -150 0
9 -2 -1 -38 -94 -149 0
9 -2 -1 -38 -94 149 150 0
9 -2 -1 -38 -94 -150 0
-9 2 1 -37 -93 -149 0
-9 2 1 -37 -93 149 150 0
-9 2 1 -37 -93 -150 0
-9 2 1 -37 93 94 -149 0
-9 2 1 -37 93 94 149 150 0
-9 2 1 -37 93 94 -150 0
-9 2 1 -37 -94 -149 0
-9 2 1 -37 -94 149 150 0
-9 2 1 37 38 -93 -149 0
-9 2 1 37 38 -93 149 150 0
-9 2 1 37 38 -93 -150 0
-9 2 1 37 38 93 94 -149 0
-9 2 1 37 38 93 94 -150 0
-9 2 1 37 38 -94 -149 0
-9 2 1 37 38 -94 149 150 0
-9 2 1 37 38 -94 -150 0
-9 2 1 -38 -93 149 150 0
-9 2 1 -38 -93 -150 0
-9 2 1 -38 93 94 -149 0
-9 2 1 -38 93 94 149 150 0
-9 2 1 -38 93 94 -150 0
-9 2 1 -38 -94 -149 0
-9 2 1 -38 -94 149 150 0
-9 2 1 -38 -94 -150 0
-9 2 -1 -37 -93 -149 0
-9 2 -1 -37 -93 149 150 0
-9 2 -1 -37 -93 -150 0
-9 2 -1 -37 93 94 -149 0
-9 2 -1 -37 93 94 149 150 0
-9 2 -1 -37 93 94 -150 0
-9 2 -1 -37 -94 149 150 0
-9 2 -1 -37 -94 -150 0
-9 2 -1 37 38 -93 -149 0
-9 2 -1 37 38 -93 149 150 0
-9 2 -1 37 38 -93 -150 0
-9 2 -1 37 38 93 94 -149 0
-9 2 -1 37 38 93 94 -150 0
-9 2 -1 37 38 -94 -149 0
-9 2 -1 37 38 -94 149 150 0
-9 2 -1 37 38 -94 -150 0
-9 2 -1 -38 -93 -149 0
-9 2 -1 -38 -93 149 150 0
-9 2 -1 -38 93 94 -149 0
-9 2 -1 -38 93 94 149 150 0
-9 2 -1 -38 93 94 -150 0
-9 2 -1 -38 -94 -149 0
-9 2 -1 -38 -94 149 150 0
-9 2 -1 -38 -94 -150 0
-9 -2 1 -37 -93 -149 0
-9 -2 1 -37 -93 149 150 0
-9 -2 1 -37 93 94 -149 0
-9 -2 1 -37 93 94 149 150 0
-9 -2 1 -37 93 94 -150 0
-9 -2 1 -37 -94 -149 0
-9 -2 1 -37 -94 149 150 0
-9 -2 1 -37 -94 -150 0
-9 -2 1 37 38 -93 -149 0
-9 -2 1 37 38 -93 149 150 0
-9 -2 1 37 38 -93 -150 0
-9 -2 1 37 38 93 94 -149 0
-9 -2 1 37 38 93 94 -150 0
-9 -2 1 37 38 -94 -149 0
-9 -2 1 37 38 -94 149 150 0
-9 -2 1 37 38 -94 -150 0
-9 -2 1 -38 -93 -149 0
-9 -2 1 -38 -93 149 150 0
-9 -2 1 -38 -93 -150 0
-9 -2 1 -38 93 94 -149 0
-9 -2 1 -38 93 94 149 150 0
-9 -2 1 -38 93 94 -150 0
-9 -2 1 -38 -94 149 150 0
-9 -2 1 -38 -94 -150 0
-9 -2 -1 -37 -93 149 150 0
-9 -2 -1 -37 -93 -150 0
-9 -2 -1 -37 93 94 -149 0
-9 -2 -1 -37 93 94 149 150 0
-9 -2 -1 -37 93 94 -150 0
-9 -2 -1 -37 -94 -149 0
-9 -2 -1 -37 -94 149 150 0
-9 -2 -1 -37 -94 -150 0
-9 -2 -1 37 38 -93 -149 0
-9 -2 -1 37 38 -93 149 150 0
-9 -2 -1 37 38 -93 -150 0
-9 -2 -1 37 38 93 94 -149 0
-9 -2 -1 37 38 93 94 -150 0
-9 -2 -1 37 38 -94 -149 0
-9 -2 -1 37 38 -94 149 150 0
-9 -2 -1 37 38 -94 -150 0
-9 -2 -1 -38 -93 -149 0
-9 -2 -1 -38 -93 149 150 0
-9 -2 -1 -38 -93 -150 0
-9 -2 -1 -38 93 94 -149 0
-9 -2 -1 -38 93 94 149 150 0
-9 -2 -1 -38 93 94 -150 0
-9 -2 -1 -38 -94 -149 0
-9 -2 -1 -38 -94 149 150 0
10 3 1 -39 -95 205 206 0
10 3 1 -39 -95 -206 0
10 3 1 -39 95 96 -205 0
10 3 1 -39 95 96 205 206 0
10 3 1 -39 95 96 -206 0
10 3 1 -39 -96 -205 0
10 3 1 -39 -96 205 206 0
10 3 1 -39 -96 -206 0
10 3 1 39 40 -95 -205 0
10 3 1 39 40 -95 205 206 0
10 3 1 39 40 -95 -206 0
10 3 1 39 40 95 96 -205 0
10 3 1 39 40 95 96 -206 0
10 3 1 39 40 -96 -205 0
10 3 1 39 40 -96 205 206 0
10 3 1 39 40 -96 -206 0
10 3 1 -40 -95 -205 0
10 3 1 -40 -95 205 206 0
10 3 1 -40 -95 -206 0
10 3 1 -40 95 96 -205 0
10 3 1 -40 95 96 205 206 0
10 3 1 -40 95 96 -206 0
10 3 1 -40 -96 -205 0
10 3 1 -40 -96 205 206 0
10 3 -1 -39 -95 -205 0
10 3 -1 -39 -95 205 206 0
10 3 -1 -39 95 96 -205 0
10 3 -1 -39 95 96 205 206 0
10 3 -1 -39 95 96 -206 0
10 3 -1 -39 -96 -205 0
10 3 -1 -39 -96 205 206 0
10 3 -1 -39 -96 -206 0
10 3 -1 39 40 -95 -205 0
10 3 -1 39 40 -95 205 206 0
10 3 -1 39 40 -95 -206 0
10 3 -1 39 40 95 96 -205 0
10 3 -1 39 40 95 96 -206 0
10 3 -1 39 40 -96 -205 0
10 3 -1 39 40 -96 205 206 0
10 3 -1 39 40 -96 -206 0
10 3 -1 -40 -95 -205 0
10 3 -1 -40 -95 205 206 0
10 3 -1 -40 -95 -206 0
10 3 -1 -40 95 96 -205 0
10 3 -1 -40 95 96 205 206 0
10 3 -1 -40 95 96 -206 0
10 3 -1 -40 -96 205 206 0
10 3 -1 -40 -96 -206 0
10 -3 1 -39 -95 -205 0
10 -3 1 -39 -95 205 206 0
10 -3 1 -39 -95 -206 0
10 -3 1 -39 95 96 -205 0
10 -3 1 -39 95 96 205 206 0
10 -3 1 -39 95 96 -206 0
10 -3 1 -39 -96 205 206 0
10 -3 1 -39 -96 -206 0
10 -3 1 39 40 -95 -205 0
10 -3 1 39 40 -95 205 206 0
10 -3 1 39 40 -95 -206 0
10 -3 1 39 40 95 96 -205 0
10 -3 1 39 40 95 96 -206 0
10 -3 1 39 40 -96 -205 0
10 -3 1 39 40 -96 205 206 0
10 -3 1 39 40 -96 -206 0
10 -3 1 -40 -95 -205 0
10 -3 1 -40 -95 205 206 0
10 -3 1 -40 95 96 -205 0
10 -3 1 -40 95 96 205 206 0
10 -3 1 -40 95 96 -206 0
10 -3 1 -40 -96 -205 0
10 -3 1 -40 -96 205 206 0
10 -3 1 -40 -96 -206 0
10 -3 -1 -39 -95 -205 0
10 -3 -1 -39 -95 205 206 0
10 -3 -1 -39 -95 -206 0
10 -3 -1 -39 95 96 -205 0
10 -3 -1 -39 95 96 205 206 0
10 -3 -1 -39 95 96 -206 0
10 -3 -1 -39 -96 -205 0
10 -3 -1 -39 -96 205 206 0
10 -3 -1 39 40 -95 -205 0
10 -3 -1 39 40 -95 205 206 0
10 -3 -1 39 40 -95 -206 0
10 -3 -1 39 40 95 96 -205 0
10 -3 -1 39 40 95 96 -206 0
10 -3 -1 39 40 -96 -205 0
10 -3 -1 39 40 -96 205 206 0
10 -3 -1 39 40 -96 -206 0
10 -3 -1 -40 -95 205 206 0
10 -3 -1 -40 -95 -206 0
10 -3 -1 -40 95 96 -205 0
10 -3 -1 -40 95 96 205 206 0
10 -3 -1 -40 95 96 -206 0
10 -3 -1 -40 -96 -205 0
10 -3 -1 -40 -96 205 206 0
10 -3 -1 -40 -96 -206 0
-10 3 1 -39 -95 -205 0
-10 3 1 -39 -95 205 206 0
-10 3 1 -39 -95 -206 0
-10 3 1 -39 95 96 -205 0
-10 3 1 -39 95 96 205 206 0
-10 3 1 -39 95 96 -206 0
-10 3 1 -39 -96 -205 0
-10 3 1 -39 -96 205 206 0
-10 3 1 39 40 -95 -205 0
-10 3 1 39 40 -95 205 206 0
-10 3 1 39 40 -95 -206 0
-10 3 1 39 40 95 96 -205 0
-10 3 1 39 40 95 96 -206 0
-10 3 1 39 40 -96 -205 0
-10 3 1 39 40 -96 205 206 0
-10 3 1 39 40 -96 -206 0
-10 3 1 -40 -95 205 206 0
-10 3 1 -40 -95 -206 0
-10 3 1 -40 95 96 -205 0
-10 3 1 -40 95 96 205 206 0
-10 3 1 -40 95 96 -206 0
-10 3 1 -40 -96 -205 0
-10 3 1 -40 -96 205 206 0
-10 3 1 -40 -96 -206 0
-10 3 -1 -39 -95 -205 0
-10 3 -1 -39 -95 205 206 0
-10 3 -1 -39 -95 -206 0
-10 3 -1 -39 95 96 -205 0
-10 3 -1 -39 95 96 205 206 0
-10 3 -1 -39 95 96 -206 0
-10 3 -1 -39 -96 205 206 0
-10 3 -1 -39 -96 -206 0
-10 3 -1 39 40 -95 -205 0
-10 3 -1 39 40 -95 205 206 0
-10 3 -1 39 40 -95 -206 0
-10 3 -1 39 40 95 96 -205 0
-10 3 -1 39 40 95 96 -206 0
-10 3 -1 39 40 -96 -205 0
-10 3 -1 39 40 -96 205 206 0
-10 3 -1 39 40 -96 -206 0
-10 3 -1 -40 -95 -205 0
-10 3 -1 -40 -95 205 206 0
-10 3 -1 -40 95 96 -205 0
-10 3 -1 -40 95 96 205 206 0
-10 3 -1 -40 95 96 -206 0
-10 3 -1 -40 -96 -205 0
-10 3 -1 -40 -96 205 206 0
-10 3 -1 -40 -96 -206 0
-10 -3 1 -39 -95 -205 0
-10 -3 1 -39 -95 205 206 0
-10 -3 1 -39 95 96 -205 0
-10 -3 1 -39 95 96 205 206 0
-10 -3 1 -39 95 96 -206 0
-10 -3 1 -39 -96 -205 0
-10 -3 1 -39 -96 205 206 0
-10 -3 1 -39 -96 -206 0
-10 -3 1 39 40 -95 -205 0
-10 -3 1 39 40 -95 205 206 0
-10 -3 1 39 40 -95 -206 0
-10 -3 1 39 40 95 96 -205 0
-10 -3 1 39 40 95 96 -206 0
-10 -3 1 39 40 -96 -205 0
-10 -3 1 39 40 -96 205 206 0
-10 -3 1 39 40 -96 -206 0
-10 -3 1 -40 -95 -205 0
-10 -3 1 -40 -95 205 206 0
-10 -3 1 -40 -95 -206 0
-10 -3 1 -40 95 96 -205 0
-10 -3 1 -40 95 96 205 206 0
-10 -3 1 -40 95 96 -206 0
-10 -3 1 -40 -96 205 206 0
-10 -3 1 -40 -96 -206 0
-10 -3 -1 -39 -95 205 206 0
-10 -3 -1 -39 -95 -206 0
-10 -3 -1 -39 95 96 -205 0
-10 -3 -1 -39 95 96 205 206 0
-10 -3 -1 -39 95 96 -206 0
-10 -3 -1 -39 -96 -205 0
-10 -3 -1 -39 -96 205 206 0
-10 -3 -1 -39 -96 -206 0
-10 -3 -1 39 40 -95 -205 0
-10 -3 -1 39 40 -95 205 206 0
-10 -3 -1 39 40 -95 -206 0
-10 -3 -1 39 40 95 96 -205 0
-10 -3 -1 39 40 95 96 -206 0
-10 -3 -1 39 40 -96 -205 0
-10 -3 -1 39 40 -96 205 206 0
-10 -3 -1 39 40 -96 -206 0
-10 -3 -1 -40 -95 -205 0
-10 -3 -1 -40 -95 205 206 0
-10 -3 -1 -40 -95 -206 0
-10 -3 -1 -40 95 96 -205 0
-10 -3 -1 -40 95 96 205 206 0
-10 -3 -1 -40 95 96 -206 0
-10 -3 -1 -40 -96 -205 0
-10 -3 -1 -40 -96 205 206 0
11 4 1 -41 -97 261 262 0
11 4 1 -41 -97 -262 0
11 4 1 -41 97 98 -261 0
11 4 1 -41 97 98 261 262 0
11 4 1 -41 97 98 -262 0
11 4 1 -41 -98 -261 0
11 4 1 -41 -98 261 262 0
11 4 1 -41 -98 -262 0
11 4 1 41 42 -97 -261 0
11 4 1 41 42 -97 261 262 0
11 4 1 41 42 -97 -262 0
11 4 1 41 42 97 98 -261 0
11 4 1 41 42 97 98 -262 0
11 4 1 41 42 -98 -261 0
11 4 1 41 42 -98 261 262 0
11 4 1 41 42 -98 -262 0
11 4 1 -42 -97 -261 0
11 4 1 -42 -97 261 262 0
11 4 1 -42 -97 -262 0
11 4 1 -42 97 98 -261 0
11 4 1 -42 97 98 261 262 0
11 4 1 -42 97 98 -262 0
11 4 1 -42 -98 -261 0
11 4 1 -42 -98 261 262 0
11 4 -1 -41 -97 -261 0
11 4 -1 -41 -97 261 262 0
11 4 -1 -41 97 98 -261 0
11 4 -1 -41 97 98 261 262 0
11 4 -1 -41 97 98 -262 0
11 4 -1 -41 -98 -261 0
11 4 -1 -41 -98 261 262 0
11 4 -1 -41 -98 -262 0
11 4 -1 41 42 -97 -261 0
11 4 -1 41 42 -97 261 262 0
11 4 -1 41 42 -97 -262 0
11 4 -1 41 42 97 98 -261 0
11 4 -1 41 42 97 98 -262 0
11 4 -1 41 42 -98 -261 0
11 4 -1 41 42 -98 261 262 0
11 4 -1 41 42 -98 -262 0
11 4 -1 -42 -97 -261 0
11 4 -1 -42 -97 261 262 0
11 4 -1 -42 -97 -262 0
11 4 -1 -42 97 98 -261 0
11 4 -1 -42 97 98 261 262 0
11 4 -1 -42 97 98 -262 0
11 4 -1 -42 -98 261 262 0
11 4 -1 -42 -98 -262 0
11 -4 1 -41 -97 -261 0
11 -4 1 -41 -97 261 262 0
11 -4 1 -41 -97 -262 0
11 -4 1 -41 97 98 -261 0
11 -4 1 -41 97 98 261 262 0
11 -4 1 -41 97 98 -262 0
11 -4 1 -41 -98 261 262 0
11 -4 1 -41 -98 -262 0
11 -4 1 41 42 -97 -261 0
11 -4 1 41 42 -97 261 262 0
11 -4 1 41 42 -97 -262 0
11 -4 1 41 42 97 98 -261 0
11 -4 1 41 42 97 98 -262 0
11 -4 1 41 42 -98 -261 0
11 -4 1 41 42 -98 261 262 0
11 -4 1 41 42 -98 -262 0
11 -4 1 -42 -97 -261 0
11 -4 1 -42 -97 261 262 0
11 -4 1 -42 97 98 -261 0
11 -4 1 -42 97 98 261 262 0
11 -4 1 -42 97 98 -262 0
11 -4 1 -42 -98 -261 0
11 -4 1 -42 -98 261 262 0
11 -4 1 -42 -98 -262 0
11 -4 -1 -41 -97 -261 0
11 -4 -1 -41 -97 261 262 0
11 -4 -1 -41 -97 -262 0
11 -4 -1 -41 97 98 -261 0
11 -4 -1 -41 97 98 261 262 0
11 -4 -1 -41 97 98 -262 0
11 -4 -1 -41 -98 -261 0
11 -4 -1 -41 -98 261 262 0
11 -4 -1 41 42 -97 -261 0
11 -4 -1 41 42 -97 261 262 0
11 -4 -1 41 42 -97 -262 0
11 -4 -1 41 42 97 98 -261 0
11 -4 -1 41 42 97 98 -262 0
11 -4 -1 41 42 -98 -261 0
11 -4 -1 41 42 -98 261 262 0
11 -4 -1 41 42 -98 -262 0
11 -4 -1 -42 -97 261 262 0
11 -4 -1 -42 -97 -262 0
11 -4 -1 -42 97 98 -261 0
11 -4 -1 -42 97 98 261 262 0
11 -4 -1 -42 97 98 -262 0
11 -4 -1 -42 -98 -261 0
11 -4 -1 -42 -98 261 262 0
11 -4 -1 -42 -98 -262 0
-11 4 1 -41 -97 -261 0
-11 4 1 -41 -97 261 262 0
-11 4 1 -41 -97 -262 0
-11 4 1 -41 97 98 -261 0
-11 4 1 -41 97 98 261 262 0
-11 4 1 -41 97 98 -262 0
-11 4 1 -41 -98 -261 0
-11 4 1 -41 -98 261 262 0
-11 4 1 41 42 -97 -261 0
-11 4 1 41 42 -97 261 262 0
-11 4 1 41 42 -97 -262 0
-11 4 1 41 42 97 98 -261 0
-11 4 1 41 42 97 98 -262 0
-11 4 1 41 42 -98 -261 0
-11 4 1 41 42 -98 261 262 0
-11 4 1 41 42 -98 -262 0
-11 4 1 -42 -97 261 262 0
-11 4 1 -42 -97 -262 0
-11 4 1 -42 97 98 -261 0
-11 4 1 -42 97 98 261 262 0
-11 4 1 -42 97 98 -262 0
-11 4 1 -42 -98 -261 0
-11 4 1 -42 -98 261 262 0
-11 4 1 -42 -98 -262 0
-11 4 -1 -41 -97 -261 0
-11 4 -1 -41 -97 261 262 0
-11 4 -1 -41 -97 -262 0
-11 4 -1 -41 97 98 -261 0
-11 4 -1 -41 97 98 261 262 0
-11 4 -1 -41 97 98 -262 0
-11 4 -1 -41 -98 261 262 0
-11 4 -1 -41 -98 -262 0
-11 4 -1 41 42 -97 -261 0
-11 4 -1 41 42 -97 261 262 0
-11 4 -1 41 42 -97 -262 0
-11 4 -1 41 42 97 98 -261 0
-11 4 -1 41 42 97 98 -262 0
-11 4 -1 41 42 -98 -261 0
-11 4 -1 41 42 -98 261 262 0
-11 4 -1 41 42 -98 -262 0
-11 4 -1 -42 -97 -261 0
-11 4 -1 -42 -97 261 262 0
-11 4 -1 -42 97 98 -261 0
-11 4 -1 -42 97 98 261 262 0
-11 4 -1 -42 97 98 -262 0
-11 4 -1 -42 -98 -261 0
-11 4 -1 -42 -98 261 262 0
-11 4 -1 -42 -98 -262 0
-11 -4 1 -41 -97 -261 0
-11 -4 1 -41 -97 261 262 0
-11 -4 1 -41 97 98 -261 0
-11 -4 1 -41 97 98 261 262 0
-11 -4 1 -41 97 98 -262 0
-11 -4 1 -41 -98 -261 0
-11 -4 1 -41 -98 261 262 0
-11 -4 1 -41 -98 -262 0
-11 -4 1 41 42 -97 -261 0
-11 -4 1 41 42 -97 261 262 0
-11 -4 1 41 42 -97 -262 0
-11 -4 1 41 42 97 98 -261 0
-11 -4 1 41 42 97 98 -262 0
-11 -4 1 41 42 -98 -261 0
-11 -4 1 41 42 -98 261 262 0
-11 -4 1 41 42 -98 -262 0
-11 -4 1 -42 -97 -261 0
-11 -4 1 -42 -97 261 262 0
-11 -4 1 -42 -97 -262 0
-11 -4 1 -42 97 98 -261 0
-11 -4 1 -42 97 98 261 262 0
-11 -4 1 -42 97 98 -262 0
-11 -4 1 -42 -98 261 262 0
-11 -4 1 -42 -98 -262 0
-11 -4 -1 -41 -97 261 262 0
-11 -4 -1 -41 -97 -262 0
-11 -4 -1 -41 97 98 -261 0
-11 -4 -1 -41 97 98 261 262 0
-11 -4 -1 -41 97 98 -262 0
-11 -4 -1 -41 -98 -261 0
-11 -4 -1 -41 -98 261 262 0
-11 -4 -1 -41 -98 -262 0
-11 -4 -1 41 42 -97 -261 0
-11 -4 -1 41 42 -97 261 262 0
-11 -4 -1 41 42 -97 -262 0
-11 -4 -1 41 42 97 98 -261 0
-11 -4 -1 41 42 97 98 -262 0
-11 -4 -1 41 42 -98 -261 0
-11 -4 -1 41 42 -98 261 262 0
-11 -4 -1 41 42 -98 -262 0
-11 -4 -1 -42 -97 -261 0
-11 -4 -1 -42 -97 261 262 0
-11 -4 -1 -42 -97 -262 0
-11 -4 -1 -42 97 98 -261 0
-11 -4 -1 -42 97 98 261 262 0
-11 -4 -1 -42 97 98 -262 0
-11 -4 -1 -42 -98 -261 0
-11 -4 -1 -42 -98 261 262 0
12 5 1 -43 -99 317 318 0
12 5 1 -43 -99 -318 0
12 5 1 -43 99 100 -317 0
12 5 1 -43 99 100 317 318 0
12 5 1 -43 99 100 -318 0
12 5 1 -43 -100 -317 0
12 5 1 -43 -100 317 318 0
12 5 1 -43 -100 -318 0
12 5 1 43 44 -99 -317 0
12 5 1 43 44 -99 317 318 0
12 5 1 43 44 -99 -318 0
12 5 1 43 44 99 100 -317 0
12 5 1 43 44 99 100 -318 0
12 5 1 43 44 -100 -317 0
12 5 1 43 44 -100 317 318 0
12 5 1 43 44 -100 -318 0
12 5 1 -44 -99 -317 0
12 5 1 -44 -99 317 318 0
12 5 1 -44 -99 -318 0
12 5 1 -44 99 100 -317 0
12 5 1 -44 99 100 317 318 0
12 5 1 -44 99 100 -318 0
12 5 1 -44 -100 -317 0
12 5 1 -44 -100 317 318 0
12 5 -1 -43 -99 -317 0
12 5 -1 -43 -99 317 318 0
12 5 -1 -43 99 100 -317 0
12 5 -1 -43 99 100 317 318 0
12 5 -1 -43 99 100 -318 0
12 5 -1 -43 -100 -317 0
12 5 -1 -43 -100 317 318 0
12 5 -1 -43 -100 -318 0
12 5 -1 43 44 -99 -317 0
12 5 -1 43 44 -99 317 318 0
12 5 -1 43 44 -99 -318 0
12 5 -1 43 44 99 100 -317 0
12 5 -1 43 44 99 100 -318 0
12 5 -1 43 44 -100 -317 0
12 5 -1 43 44 -100 317 318 0
12 5 -1 43 44 -100 -318 0
12 5 -1 -44 -99 -317 0
12 5 -1 -44 -99 317 318 0
12 5 -1 -44 -99 -318 0
12 5 -1 -44 99 100 -317 0
12 5 -1 -44 99 100 317 318 0
12 5 -1 -44 99 100 -318 0
12 5 -1 -44 -100 317 318 0
12 5 -1 -44 -100 -318 0
12 -5 1 -43 -99 -317 0
12 -5 1 -43 -99 317 318 0
12 -5 1 -43 -99 -318 0
12 -5 1 -43 99 100 -317 0
12 -5 1 -43 99 100 317 318 0
12 -5 1 -43 99 100 -318 0
12 -5 1 -43 -100 317 318 0
12 -5 1 -43 -100 -318 0
12 -5 1 43 44 -99 -317 0
12 -5 1 43 44 -99 317 318 0
12 -5 1 43 44 -99 -318 0
12 -5 1 43 44 99 100 -317 0
12 -5 1 43 44 99 100 -318 0
12 -5 1 43 44 -100 -317 0
12 -5 1 43 44 -100 317 318 0
12 -5 1 43 44 -100 -318 0
12 -5 1 -44 -99 -317 0
12 -5 1 -44 -99 317 318 0
12 -5 1 -44 99 100 -317 0
12 -5 1 -44 99 100 317 318 0
12 -5 1 -44 99 100 -318 0
12 -5 1 -44 -100 -317 0
12 -5 1 -44 -100 317 318 0
12 -5 1 -44 -100 -318 0
12 -5 -1 -43 -99 -317 0
12 -5 -1 -43 -99 317 318 0
12 -5 -1 -43 -99 -318 0
12 -5 -1 -43 99 100 -317 0
12 -5 -1 -43 99 100 317 318 0
12 -5 -1 -43 99 100 -318 0
12 -5 -1 -43 -100 -317 0
12 -5 -1 -43 -100 317 318 0
12 -5 -1 43 44 -99 -317 0
12 -5 -1 43 44 -99 317 318 0
12 -5 -1 43 44 -99 -318 0
12 -5 -1 43 44 99 100 -317 0
12 -5 -1 43 44 99 100 -318 0
12 -5 -1 43 44 -100 -317 0
12 -5 -1 43 44 -100 317 318 0
12 -5 -1 43 44 -100 -318 0
12 -5 -1 -44 -99 317 318 0
12 -5 -1 -44 -99 -318 0
12 -5 -1 -44 99 100 -317 0
12 -5 -1 -44 99 100 317 318 0
12 -5 -1 -44 99 100 -318 0
12 -5 -1 -44 -100 -317 0
12 -5 -1 -44 -100 317 318 0
12 -5 -1 -44 -100 -318 0
-12 5 1 -43 -99 -317 0
-12 5 1 -43 -99 317 318 0
-12 5 1 -43 -99 -318 0
-12 5 1 -43 99 100 -317 0
-12 5 1 -43 99 100 317 318 0
-12 5 1 -43 99 100 -318 0
-12 5 1 -43 -100 -317 0
-12 5 1 -43 -100 317 318 0
-12 5 1 43 44 -99 -317 0
-12 5 1 43 44 -99 317 318 0
-12 5 1 43 44 -99 -318 0
-12 5 1 43 44 99 100 -317 0
-12 5 1 43 44 99 100 -318 0
-12 5 1 43 44 -100 -317 0
-12 5 1 43 44 -100 317 318 0
-12 5 1 43 44 -100 -318 0
-12 5 1 -44 -99 317 318 0
-12 5 1 -44 -99 -318 0
-12 5 1 -44 99 100 -317 0
-12 5 1 -44 99 100 317 318 0
-12 5 1 -44 99 100 -318 0
-12 5 1 -44 -100 -317 0
-12 5 1 -44 -100 317 318 0
-12 5 1 -44 -100 -318 0
-12 5 -1 -43 -99 -317 0
-12 5 -1 -43 -99 317 318 0
-12 5 -1 -43 -99 -318 0
-12 5 -1 -43 99 100 -317 0
-12 5 -1 -43 99 100 317 318 0
-12 5 -1 -43 99 100 -318 0
-12 5 -1 -43 -100 317 318 0
-12 5 -1 -43 -100 -318 0
-12 5 -1 43 44 -99 -317 0
-12 5 -1 43 44 -99 317 318 0
-12 5 -1 43 44 -99 -318 0
-12 5 -1 43 44 99 100 -317 0
-12 5 -1 43 44 99 100 -318 0
-12 5 -1 43 44 -100 -317 0
-12 5 -1 43 44 -100 317 318 0
-12 5 -1 43 44 -100 -318 0
-12 5 -1 -44 -99 -317 0
-12 5 -1 -44 -99 317 318 0
-12 5 -1 -44 99 100 -317 0
-12 5 -1 -44 99 100 317 318 0
-12 5 -1 -44 99 100 -318 0
-12 5 -1 -44 -100 -317 0
-12 5 -1 -44 -100 317 318 0
-12 5 -1 -44 -100 -318 0
-12 -5 1 -43 -99 -317 0
-12 -5 1 -43 -99 317 318 0
-12 -5 1 -43 99 100 -317 0
-12 -5 1 -43 99 100 317 318 0
-12 -5 1 -43 99 100 -318 0
-12 -5 1 -43 -100 -317 0
-12 -5 1 -43 -100 317 318 0
-12 -5 1 -43 -100 -318 0
-12 -5 1 43 44 -99 -317 0
-12 -5 1 43 44 -99 317 318 0
-12 -5 1 43 44 -99 -318 0
-12 -5 1 43 44 99 100 -317 0
-12 -5 1 43 44 99 100 -318 0
-12 -5 1 43 44 -100 -317 0
-12 -5 1 43 44 -100 317 318 0
-12 -5 1 43 44 -100 -318 0
-12 -5 1 -44 -99 -317 0
-12 -5 1 -44 -99 317 318 0
-12 -5 1 -44 -99 -318 0
-12 -5 1 -44 99 100 -317 0
-12 -5 1 -44 99 100 317 318 0
-12 -5 1 -44 99 100 -318 0
-12 -5 1 -44 -100 317 318 0
-12 -5 1 -44 -100 -318 0
-12 -5 -1 -43 -99 317 318 0
-12 -5 -1 -43 -99 -318 0
-12 -5 -1 -43 99 100 -317 0
-12 -5 -1 -43 99 100 317 318 0
-12 -5 -1 -43 99 100 -318 0
-12 -5 -1 -43 -100 -317 0
-12 -5 -1 -43 -100 317 318 0
-12 -5 -1 -43 -100 -318 0
-12 -5 -1 43 44 -99 -317 0
-12 -5 -1 43 44 -99 317 318 0
-12 -5 -1 43 44 -99 -318 0
-12 -5 -1 43 44 99 100 -317 0
-12 -5 -1 43 44 99 100 -318 0
-12 -5 -1 43 44 -100 -317 0
-12 -5 -1 43 44 -100 317 318 0
-12 -5 -1 43 44 -100 -318 0
-12 -5 -1 -44 -99 -317 0
-12 -5 -1 -44 -99 317 318 0
-12 -5 -1 -44 -99 -318 0
-12 -5 -1 -44 99 100 -317 0
-12 -5 -1 -44 99 100 317 318 0
-12 -5 -1 -44 99 100 -318 0
-12 -5 -1 -44 -100 -317 0
-12 -5 -1 -44 -100 317 318 0
13 6 1 -45 -101 373 374 0
13 6 1 -45 -101 -374 0
13 6 1 -45 101 102 -373 0
13 6 1 -45 101 102 373 374 0
13 6 1 -45 101 102 -374 0
13 6 1 -45 -102 -373 0
13 6 1 -45 -102 373 374 0
13 6 1 -45 -102 -374 0
13 6 1 45 46 -101 -373 0
13 6 1 45 46 -101 373 374 0
13 6 1 45 46 -101 -374 0
13 6 1 45 46 101 102 -373 0
13 6 1 45 46 101 102 -374 0
13 6 1 45 46 -102 -373 0
13 6 1 45 46 -102 373 374 0
13 6 1 45 46 -102 -374 0
13 6 1 -46 -101 -373 0
13 6 1 -46 -101 373 374 0
13 6 1 -46 -101 -374 0
13 6 1 -46 101 102 -373 0
13 6 1 -46 101 102 373 374 0
13 6 1 -46 101 102 -374 0
13 6 1 -46 -102 -373 0
13 6 1 -46 -102 373 374 0
13 6 -1 -45 -101 -373 0
13 6 -1 -45 -101 373 374 0
13 6 -1 -45 101 102 -373 0
13 6 -1 -45 101 102 373 374 0
13 6 -1 -45 101 102 -374 0
13 6 -1 -45 -102 -373 0
13 6 -1 -45 -102 373 374 0
13 6 -1 -45 -102 -374 0
13 6 -1 45 46 -101 -373 0
13 6 -1 45 46 -101 373 374 0
13 6 -1 45 46 -101 -374 0
13 6 -1 45 46 101 102 -373 0
13 6 -1 45 46 101 102 -374 0
13 6 -1 45 46 -102 -373 0
13 6 -1 45 46 -102 373 374 0
13 6 -1 45 46 -102 -374 0
13 6 -1 -46 -101 -373 0
13 6 -1 -46 -101 373 374 0
13 6 -1 -46 -101 -374 0
13 6 -1 -46 101 102 -373 0
13 6 -1 -46 101 102 373 374 0
13 6 -1 -46 101 102 -374 0
13 6 -1 -46 -102 373 374 0
13 6 -1 -46 -102 -374 0
13 -6 1 -45 -101 -373 0
13 -6 1 -45 -101 373 374 0
13 -6 1 -45 -101 -374 0
13 -6 1 -45 101 102 -373 0
13 -6 1 -45 101 102 373 374 0
13 -6 1 -45 101 102 -374 0
13 -6 1 -45 -102 373 374 0
13 -6 1 -45 -102 -374 0
13 -6 1 45 46 -101 -373 0
13 -6 1 45 46 -101 373 374 0
13 -6 1 45 46 -101 -374 0
13 -6 1 45 46 101 102 -373 0
13 -6 1 45 46 101 102 -374 0
13 -6 1 45 46 -102 -373 0
13 -6 1 45 46 -102 373 374 0
13 -6 1 45 46 -102 -374 0
13 -6 1 -46 -101 -373 0
13 -6 1 -46 -101 373 374 0
13 -6 1 -46 101 102 -373 0
13 -6 1 -46 101 102 373 374 0
13 -6 1 -46 101 102 -374 0
13 -6 1 -46 -102 -373 0
13 -6 1 -46 -102 373 374 0
13 -6 1 -46 -102 -374 0
13 -6 -1 -45 -101 -373 0
13 -6 -1 -45 -101 373 374 0
13 -6 -1 -45 -101 -374 0
13 -6 -1 -45 101 102 -373 0
13 -6 -1 -45 101 102 373 374 0
13 -6 -1 -45 101 102 -374 0
13 -6 -1 -45 -102 -373 0
13 -6 -1 -45 -102 373 374 0
13 -6 -1 45 46 -101 -373 0
13 -6 -1 45 46 -101 373 374 0
13 -6 -1 45 46 -101 -374 0
13 -6 -1 45 46 101 102 -373 0
13 -6 -1 45 46 101 102 -374 0
13 -6 -1 45 46 -102 -373 0
13 -6 -1 45 46 -102 373 374 0
13 -6 -1 45 46 -102 -374 0
13 -6 -1 -46 -101 373 374 0
13 -6 -1 -46 -101 -374 0
13 -6 -1 -46 101 102 -373 0
13 -6 -1 -46 101 102 373 374 0
13 -6 -1 -46 101 102 -374 0
13 -6 -1 -46 -102 -373 0
13 -6 -1 -46 -102 373 374 0
13 -6 -1 -46 -102 -374 0
-13 6 1 -45 -101 -373 0
-13 6 1 -45 -101 373 374 0
-13 6 1 -45 -101 -374 0
-13 6 1 -45 101 102 -373 0
-13 6 1 -45 101 102 373 374 0
-13 6 1 -45 101 102 -374 0
-13 6 1 -45 -102 -373 0
-13 6 1 -45 -102 373 374 0
-13 6 1 45 46 -101 -373 0
-13 6 1 45 46 -101 373 374 0
-13 6 1 45 46 -101 -374 0
-13 6 1 45 46 101 102 -373 0
-13 6 1 45 46 101 102 -374 0
-13 6 1 45 46 -102 -373 0
-13 6 1 45 46 -102 373 374 0
-13 6 1 45 46 -102 -374 0
-13 6 1 -46 -101 373 374 0
-13 6 1 -46 -101 -374 0
-13 6 1 -46 101 102 -373 0
-13 6 1 -46 101 102 373 374 0
-13 6 1 -46 101 102 -374 0
-13 6 1 -46 -102 -373 0
-13 6 1 -46 -102 373 374 0
-13 6 1 -46 -102 -374 0
-13 6 -1 -45 -101 -373 0
-13 6 -1 -45 -101 373 374 0
-13 6 -1 -45 -101 -374 0
-13 6 -1 -45 101 102 -373 0
-13 6 -1 -45 101 102 373 374 0
-13 6 -1 -45 101 102 -374 0
-13 6 -1 -45 -102 373 374 0
-13 6 -1 -45 -102 -374 0
-13 6 -1 45 46 -101 -373 0
-13 6 -1 45 46 -101 373 374 0
-13 6 -1 45 46 -101 -374 0
-13 6 -1 45 46 101 102 -373 0
-13 6 -1 45 46 101 102 -374 0
-13 6 -1 45 46 -102 -373 0
-13 6 -1 45 46 -102 373 374 0
-13 6 -1 45 46 -102 -374 0
-13 6 -1 -46 -101 -373 0
-13 6 -1 -46 -101 373 374 0
-13 6 -1 -46 101 102 -373 0
-13 6 -1 -46 101 102 373 374 0
-13 6 -1 -46 101 102 -374 0
-13 6 -1 -46 -102 -373 0
-13 6 -1 -46 -102 373 374 0
-13 6 -1 -46 -102 -374 0
-13 -6 1 -45 -101 -373 0
-13 -6 1 -45 -101 373 374 0
-13 -6 1 -45 101 102 -373 0
-13 -6 1 -45 101 102 373 374 0
-13 -6 1 -45 101 102 -374 0
-13 -6 1 -45 -102 -373 0
-13 -6 1 -45 -102 373 374 0
-13 -6 1 -45 -102 -374 0
-13 -6 1 45 46 -101 -373 0
-13 -6 1 45 46 -101 373 374 0
-13 -6 1 45 46 -101 -374 0
-13 -6 1 45 46 101 102 -373 0
-13 -6 1 45 46 101 102 -374 0
-13 -6 1 45 46 -102 -373 0
-13 -6 1 45 46 -102 373 374 0
-13 -6 1 45 46 -102 -374 0
-13 -6 1 -46 -101 -373 0
-13 -6 1 -46 -101 373 374 0
-13 -6 1 -46 -101 -374 0
-13 -6 1 -46 101 102 -373 0
-13 -6 1 -46 101 102 373 374 0
-13 -6 1 -46 101 102 -374 0
-13 -6 1 -46 -102 373 374 0
-13 -6 1 -46 -102 -374 0
-13 -6 -1 -45 -101 373 374 0
-13 -6 -1 -45 -101 -374 0
-13 -6 -1 -45 101 102 -373 0
-13 -6 -1 -45 101 102 373 374 0
-13 -6 -1 -45 101 102 -374 0
-13 -6 -1 -45 -102 -373 0
-13 -6 -1 -45 -102 373 374 0
-13 -6 -1 -45 -102 -374 0
-13 -6 -1 45 46 -101 -373 0
-13 -6 -1 45 46 -101 373 374 0
-13 -6 -1 45 46 -101 -374 0
-13 -6 -1 45 46 101 102 -373 0
-13 -6 -1 45 46 101 102 -374 0
-13 -6 -1 45 46 -102 -373 0
-13 -6 -1 45 46 -102 373 374 0
-13 -6 -1 45 46 -102 -374 0
-13 -6 -1 -46 -101 -373 0
-13 -6 -1 -46 -101 373 374 0
-13 -6 -1 -46 -101 -374 0
-13 -6 -1 -46 101 102 -373 0
-13 -6 -1 -46 101 102 373 374 0
-13 -6 -1 -46 101 102 -374 0
-13 -6 -1 -46 -102 -373 0
-13 -6 -1 -46 -102 373 374 0
14 7 1 -47 -103 429 430 0
14 7 1 -47 -103 -430 0
14 7 1 -47 103 104 -429 0
14 7 1 -47 103 104 429 430 0
14 7 1 -47 103 104 -430 0
14 7 1 -47 -104 -429 0
14 7 1 -47 -104 429 430 0
14 7 1 -47 -104 -430 0
14 7 1 47 48 -103 -429 0
14 7 1 47 48 -103 429 430 0
14 7 1 47 48 -103 -430 0
14 7 1 47 48 103 104 -429 0
14 7 1 47 48 103 104 -430 0
14 7 1 47 48 -104 -429 0
14 7 1 47 48 -104 429 430 0
14 7 1 47 48 -104 -430 0
14 7 1 -48 -103 -429 0
14 7 1 -48 -103 429 430 0
14 7 1 -48 -103 -430 0
14 7 1 -48 103 104 -429 0
14 7 1 -48 103 104 429 430 0
14 7 1 -48 103 104 -430 0
14 7 1 -48 -104 -429 0
14 7 1 -48 -104 429 430 0
14 7 -1 -47 -103 -429 0
14 7 -1 -47 -103 429 430 0
14 7 -1 -47 103 104 -429 0
14 7 -1 -47 103 104 429 430 0
14 7 -1 -47 103 104 -430 0
14 7 -1 -47 -104 -429 0
14 7 -1 -47 -104 429 430 0
14 7 -1 -47 -104 -430 0
14 7 -1 47 48 -103 -429 0
14 7 -1 47 48 -103 429 430 0
14 7 -1 47 48 -103 -430 0
14 7 -1 47 48 103 104 -429 0
14 7 -1 47 48 103 104 -430 0
14 7 -1 47 48 -104 -429 0
14 7 -1 47 48 -104 429 430 0
14 7 -1 47 48 -104 -430 0
14 7 -1 -48 -103 -429 0
14 7 -1 -48 -103 429 430 0
14 7 -1 -48 -103 -430 0
14 7 -1 -48 103 104 -429 0
14 7 -1 -48 103 104 429 430 0
14 7 -1 -48 103 104 -430 0
14 7 -1 -48 -104 429 430 0
14 7 -1 -48 -104 -430 0
14 -7 1 -47 -103 -429 0
14 -7 1 -47 -103 429 430 0
14 -7 1 -47 -103 -430 0
14 -7 1 -47 103 104 -429 0
14 -7 1 -47 103 104 429 430 0
14 -7 1 -47 103 104 -430 0
14 -7 1 -47 -104 429 430 0
14 -7 1 -47 -104 -430 0
14 -7 1 47 48 -103 -429 0
14 -7 1 47 48 -103 429 430 0
14 -7 1 47 48 -103 -430 0
14 -7 1 47 48 103 104 -429 0
14 -7 1 47 48 103 104 -430 0
14 -7 1 47 48 -104 -429 0
14 -7 1 47 48 -104 429 430 0
14 -7 1 47 48 -104 -430 0
14 -7 1 -48 -103 -429 0
14 -7 1 -48 -103 429 430 0
14 -7 1 -48 103 104 -429 0
14 -7 1 -48 103 104 429 430 0
14 -7 1 -48 103 104 -430 0
14 -7 1 -48 -104 -429 0
14 -7 1 -48 -104 429 430 0
14 -7 1 -48 -104 -430 0
14 -7 -1 -47 -103 -429 0
14 -7 -1 -47 -103 429 430 0
14 -7 -1 -47 -103 -430 0
14 -7 -1 -47 103 104 -429 0
14 -7 -1 -47 103 104 429 430 0
14 -7 -1 -47 103 104 -430 0
14 -7 -1 -47 -104 -429 0
14 -7 -1 -47 -104 429 430 0
14 -7 -1 47 48 -103 -429 0
14 -7 -1 47 48 -103 429 430 0
14 -7 -1 47 48 -103 -430 0
14 -7 -1 47 48 103 104 -429 0
14 -7 -1 47 48 103 104 -430 0
14 -7 -1 47 48 -104 -429 0
14 -7 -1 47 48 -104 429 430 0
14 -7 -1 47 48 -104 -430 0
14 -7 -1 -48 -103 429 430 0
14 -7 -1 -48 -103 -430 0
14 -7 -1 -48 103 104 -429 0
14 -7 -1 -48 103 104 429 430 0
14 -7 -1 -48 103 104 -430 0
14 -7 -1 -48 -104 -429 0
14 -7 -1 -48 -104 429 430 0
14 -7 -1 -48 -104 -430 0
-14 7 1 -47 -103 -429 0
-14 7 1 -47 -103 429 430 0
-14 7 1 -47 -103 -430 0
-14 7 1 -47 103 104 -429 0
-14 7 1 -47 103 104 429 430 0
-14 7 1 -47 103 104 -430 0
-14 7 1 -47 -104 -429 0
-14 7 1 -47 -104 429 430 0
-14 7 1 47 48 -103 -429 0
-14 7 1 47 48 -103 429 430 0
-14 7 1 47 48 -103 -430 0
-14 7 1 47 48 103 104 -429 0
-14 7 1 47 48 103 104 -430 0
-14 7 1 47 48 -104 -429 0
-14 7 1 47 48 -104 429 430 0
-14 7 1 47 48 -104 -430 0
-14 7 1 -48 -103 429 430 0
-14 7 1 -48 -103 -430 0
-14 7 1 -48 103 104 -429 0
-14 7 1 -48 103 104 429 430 0
-14 7 1 -48 103 104 -430 0
-14 7 1 -48 -104 -429 0
-14 7 1 -48 -104 429 430 0
-14 7 1 -48 -104 -430 0
-14 7 -1 -47 -103 -429 0
-14 7 -1 -47 -103 429 430 0
-14 7 -1 -47 -103 -430 0
-14 7 -1 -47 103 104 -429 0
-14 7 -1 -47 103 104 429 430 0
-14 7 -1 -47 103 104 -430 0
-14 7 -1 -47 -104 429 430 0
-14 7 -1 -47 -104 -430 0
-14 7 -1 47 48 -103 -429 0
-14 7 -1 47 48 -103 429 430 0
-14 7 -1 47 48 -103 -430 0
-14 7 -1 47 48 103 104 -429 0
-14 7 -1 47 48 103 104 -430 0
-14 7 -1 47 48 -104 -429 0
-14 7 -1 47 48 -104 429 430 0
-14 7 -1 47 48 -104 -430 0
-14 7 -1 -48 -103 -429 0
-14 7 -1 -48 -103 429 430 0
-14 7 -1 -48 103 104 -429 0
-14 7 -1 -48 103 104 429 430 0
-14 7 -1 -48 103 104 -430 0
-14 7 -1 -48 -104 -429 0
-14 7 -1 -48 -104 429 430 0
-14 7 -1 -48 -104 -430 0
-14 -7 1 -47 -103 -429 0
-14 -7 1 -47 -103 429 430 0
-14 -7 1 -47 103 104 -429 0
-14 -7 1 -47 103 104 429 430 0
-14 -7 1 -47 103 104 -430 0
-14 -7 1 -47 -104 -429 0
-14 -7 1 -47 -104 429 430 0
-14 -7 1 -47 -104 -430 0
-14 -7 1 47 48 -103 -429 0
-14 -7 1 47 48 -103 429 430 0
-14 -7 1 47 48 -103 -430 0
-14 -7 1 47 48 103 104 -429 0
-14 -7 1 47 48 103 104 -430 0
-14 -7 1 47 48 -104 -429 0
-14 -7 1 47 48 -104 429 430 0
-14 -7 1 47 48 -104 -430 0
-14 -7 1 -48 -103 -429 0
-14 -7 1 -48 -103 429 430 0
-14 -7 1 -48 -103 -430 0
-14 -7 1 -48 103 104 -429 0
-14 -7 1 -48 103 104 429 430 0
-14 -7 1 -48 103 104 -430 0
-14 -7 1 -48 -104 429 430 0
-14 -7 1 -48 -104 -430 0
-14 -7 -1 -47 -103 429 430 0
-14 -7 -1 -47 -103 -430 0
-14 -7 -1 -47 103 104 -429 0
-14 -7 -1 -47 103 104 429 430 0
-14 -7 -1 -47 103 104 -430 0
-14 -7 -1 -47 -104 -429 0
-14 -7 -1 -47 -104 429 430 0
-14 -7 -1 -47 -104 -430 0
-14 -7 -1 47 48 -103 -429 0
-14 -7 -1 47 48 -103 429 430 0
-14 -7 -1 47 48 -103 -430 0
-14 -7 -1 47 48 103 104 -429 0
-14 -7 -1 47 48 103 104 -430 0
-14 -7 -1 47 48 -104 -429 0
-14 -7 -1 47 48 -104 429 430 0
-14 -7 -1 47 48 -104 -430 0
-14 -7 -1 -48 -103 -429 0
-14 -7 -1 -48 -103 429 430 0
-14 -7 -1 -48 -103 -430 0
-14 -7 -1 -48 103 104 -429 0
-14 -7 -1 -48 103 104 429 430 0
-14 -7 -1 -48 103 104 -430 0
-14 -7 -1 -48 -104 -429 0
-14 -7 -1 -48 -104 429 430 0
15 8 1 -49 -105 485 486 0
15 8 1 -49 -105 -486 0
15 8 1 -49 105 106 -485 0
15 8 1 -49 105 106 485 486 0
15 8 1 -49 105 106 -486 0
15 8 1 -49 -106 -485 0
15 8 1 -49 -106 485 486 0
15 8 1 -49 -106 -486 0
15 8 1 49 50 -105 -485 0
15 8 1 49 50 -105 485 486 0
15 8 1 49 50 -105 -486 0
15 8 1 49 50 105 106 -485 0
15 8 1 49 50 105 106 -486 0
15 8 1 49 50 -106 -485 0
15 8 1 49 50 -106 485 486 0
15 8 1 49 50 -106 -486 0
15 8 1 -50 -105 -485 0
15 8 1 -50 -105 485 486 0
15 8 1 -50 -105 -486 0
15 8 1 -50 105 106 -485 0
15 8 1 -50 105 106 485 486 0
15 8 1 -50 105 106 -486 0
15 8 1 -50 -106 -485 0
15 8 1 -50 -106 485 486 0
15 8 -1 -49 -105 -485 0
15 8 -1 -49 -105 485 486 0
15 8 -1 -49 105 106 -485 0
15 8 -1 -49 105 106 485 486 0
15 8 -1 -49 105 106 -486 0
15 8 -1 -49 -106 -485 0
15 8 -1 -49 -106 485 486 0
15 8 -1 -49 -106 -486 0
15 8 -1 49 50 -105 -485 0
15 8 -1 49 50 -105 485 486 0
15 8 -1 49 50 -105 -486 0
15 8 -1 49 50 105 106 -485 0
15 8 -1 49 50 105 106 -486 0
15 8 -1 49 50 -106 -485 0
15 8 -1 49 50 -106 485 486 0
15 8 -1 49 50 -106 -486 0
15 8 -1 -50 -105 -485 0
15 8 -1 -50 -105 485 486 0
15 8 -1 -50 -105 -486 0
15 8 -1 -50 105 106 -485 0
15 8 -1 -50 105 106 485 486 0
15 8 -1 -50 105 106 -486 0
15 8 -1 -50 -106 485 486 0
15 8 -1 -50 -106 -486 0
15 -8 1 -49 -105 -485 0
15 -8 1 -49 -105 485 486 0
15 -8 1 -49 -105 -486 0
15 -8 1 -49 105 106 -485 0
15 -8 1 -49 105 106 485 486 0
15 -8 1 -49 105 106 -486 0
15 -8 1 -49 -106 485 486 0
15 -8 1 -49 -106 -486 0
15 -8 1 49 50 -105 -485 0
15 -8 1 49 50 -105 485 486 0
15 -8 1 49 50 -105 -486 0
15 -8 1 49 50 105 106 -485 0
15 -8 1 49 50 105 106 -486 0
15 -8 1 49 50 -106 -485 0
15 -8 1 49 50 -106 485 486 0
15 -8 1 49 50 -106 -486 0
15 -8 1 -50 -105 -485 0
15 -8 1 -50 -105 485 486 0
15 -8 1 -50 105 106 -485 0
15 -8 1 -50 105 106 485 486 0
15 -8 1 -50 105 106 -486 0
15 -8 1 -50 -106 -485 0
15 -8 1 -50 -106 485 486 0
15 -8 1 -50 -106 -486 0
15 -8 -1 -49 -105 -485 0
15 -8 -1 -49 -105 485 486 0
15 -8 -1 -49 -105 -486 0
15 -8 -1 -49 105 106 -485 0
15 -8 -1 -49 105 106 485 486 0
15 -8 -1 -49 105 106 -486 0
15 -8 -1 -49 -106 -485 0
15 -8 -1 -49 -106 485 486 0
15 -8 -1 49 50 -105 -485 0
15 -8 -1 49 50 -105 485 486 0
15 -8 -1 49 50 -105 -486 0
15 -8 -1 49 50 105 106 -485 0
15 -8 -1 49 50 105 106 -486 0
15 -8 -1 49 50 -106 -485 0
15 -8 -1 49 50 -106 485 486 0
15 -8 -1 49 50 -106 -486 0
15 -8 -1 -50 -105 485 486 0
15 -8 -1 -50 -105 -486 0
15 -8 -1 -50 105 106 -485 0
15 -8 -1 -50 105 106 485 486 0
15 -8 -1 -50 105 106 -486 0
15 -8 -1 -50 -106 -485 0
15 -8 -1 -50 -106 485 486 0
15 -8 -1 -50 -106 -486 0
-15 8 1 -49 -105 -485 0
-15 8 1 -49 -105 485 486 0
-15 8 1 -49 -105 -486 0
-15 8 1 -49 105 106 -485 0
-15 8 1 -49 105 106 485 486 0
-15 8 1 -49 105 106 -486 0
-15 8 1 -49 -106 -485 0
-15 8 1 -49 -106 485 486 0
-15 8 1 49 50 -105 -485 0
-15 8 1 49 50 -105 485 486 0
-15 8 1 49 50 -105 -486 0
-15 8 1 49 50 105 106 -485 0
-15 8 1 49 50 105 106 -486 0
-15 8 1 49 50 -106 -485 0
-15 8 1 49 50 -106 485 486 0
-15 8 1 49 50 -106 -486 0
-15 8 1 -50 -105 485 486 0
-15 8 1 -50 -105 -486 0
-15 8 1 -50 105 106 -485 0
-15 8 1 -50 105 106 485 486 0
-15 8 1 -50 105 106 -486 0
-15 8 1 -50 -106 -485 0
-15 8 1 -50 -106 485 486 0
-15 8 1 -50 -106 -486 0
-15 8 -1 -49 -105 -485 0
-15 8 -1 -49 -105 485 486 0
-15 8 -1 -49 -105 -486 0
-15 8 -1 -49 105 106 -485 0
-15 8 -1 -49 105 106 485 486 0
-15 8 -1 -49 105 106 -486 0
-15 8 -1 -49 -106 485 486 0
-15 8 -1 -49 -106 -486 0
-15 8 -1 49 50 -105 -485 0
-15 8 -1 49 50 -105 485 486 0
-15 8 -1 49 50 -105 -486 0
-15 8 -1 49 50 105 106 -485 0
-15 8 -1 49 50 105 106 -486 0
-15 8 -1 49 50 -106 -485 0
-15 8 -1 49 50 -106 485 486 0
-15 8 -1 49 50 -106 -486 0
-15 8 -1 -50 -105 -485 0
-15 8 -1 -50 -105 485 486 0
-15 8 -1 -50 105 106 -485 0
-15 8 -1 -50 105 106 485 486 0
-15 8 -1 -50 105 106 -486 0
-15 8 -1 -50 -106 -485 0
-15 8 -1 -50 -106 485 486 0
-15 8 -1 -50 -106 -486 0
-15 -8 1 -49 -105 -485 0
-15 -8 1 -49 -105 485 486 0
-15 -8 1 -49 105 106 -485 0
-15 -8 1 -49 105 106 485 486 0
-15 -8 1 -49 105 106 -486 0
-15 -8 1 -49 -106 -485 0
-15 -8 1 -49 -106 485 486 0
-15 -8 1 -49 -106 -486 0
-15 -8 1 49 50 -105 -485 0
-15 -8 1 49 50 -105 485 486 0
-15 -8 1 49 50 -105 -486 0
-15 -8 1 49 50 105 106 -485 0
-15 -8 1 49 50 105 106 -486 0
-15 -8 1 49 50 -106 -485 0
-15 -8 1 49 50 -106 485 486 0
-15 -8 1 49 50 -106 -486 0
-15 -8 1 -50 -105 -485 0
-15 -8 1 -50 -105 485 486 0
-15 -8 1 -50 -105 -486 0
-15 -8 1 -50 105 106 -485 0
-15 -8 1 -50 105 106 485 486 0
-15 -8 1 -50 105 106 -486 0
-15 -8 1 -50 -106 485 486 0
-15 -8 1 -50 -106 -486 0
-15 -8 -1 -49 -105 485 486 0
-15 -8 -1 -49 -105 -486 0
-15 -8 -1 -49 105 106 -485 0
-15 -8 -1 -49 105 106 485 486 0
-15 -8 -1 -49 105 106 -486 0
-15 -8 -1 -49 -106 -485 0
-15 -8 -1 -49 -106 485 486 0
-15 -8 -1 -49 -106 -486 0
-15 -8 -1 49 50 -105 -485 0
-15 -8 -1 49 50 -105 485 486 0
-15 -8 -1 49 50 -105 -486 0
-15 -8 -1 49 50 105 106 -485 0
-15 -8 -1 49 50 105 106 -486 0
-15 -8 -1 49 50 -106 -485 0
-15 -8 -1 49 50 -106 485 486 0
-15 -8 -1 49 50 -106 -486 0
-15 -8 -1 -50 -105 -485 0
-15 -8 -1 -50 -105 485 486 0
-15 -8 -1 -50 -105 -486 0
-15 -8 -1 -50 105 106 -485 0
-15 -8 -1 -50 105 106 485 486 0
-15 -8 -1 -50 105 106 -486 0
-15 -8 -1 -50 -106 -485 0
-15 -8 -1 -50 -106 485 486 0
16 3 2 -51 -151 207 208 0
16 3 2 -51 -151 -208 0
16 3 2 -51 151 152 -207 0
16 3 2 -51 151 152 207 208 0
16 3 2 -51 151 152 -208 0
16 3 2 -51 -152 -207 0
16 3 2 -51 -152 207 208 0
16 3 2 -51 -152 -208 0
16 3 2 51 52 -151 -207 0
16 3 2 51 52 -151 207 208 0
16 3 2 51 52 -151 -208 0
16 3 2 51 52 151 152 -207 0
16 3 2 51 52 151 152 -208 0
16 3 2 51 52 -152 -207 0
16 3 2 51 52 -152 207 208 0
16 3 2 51 52 -152 -208 0
16 3 2 -52 -151 -207 0
16 3 2 -52 -151 207 208 0
16 3 2 -52 -151 -208 0
16 3 2 -52 151 152 -207 0
16 3 2 -52 151 152 207 208 0
16 3 2 -52 151 152 -208 0
16 3 2 -52 -152 -207 0
16 3 2 -52 -152 207 208 0
16 3 -2 -51 -151 -207 0
16 3 -2 -51 -151 207 208 0
16 3 -2 -51 151 152 -207 0
16 3 -2 -51 151 152 207 208 0
16 3 -2 -51 151 152 -208 0
16 3 -2 -51 -152 -207 0
16 3 -2 -51 -152 207 208 0
16 3 -2 -51 -152 -208 0
16 3 -2 51 52 -151 -207 0
16 3 -2 51 52 -151 207 208 0
16 3 -2 51 52 -151 -208 0
16 3 -2 51 52 151 152 -207 0
16 3 -2 51 52 151 152 -208 0
16 3 -2 51 52 -152 -207 0
16 3 -2 51 52 -152 207 208 0
16 3 -2 51 52 -152 -208 0
16 3 -2 -52 -151 -207 0
16 3 -2 -52 -151 207 208 0
16 3 -2 -52 -151 -208 0
16 3 -2 -52 151 152 -207 0
16 3 -2 -52 151 152 207 208 0
16 3 -2 -52 151 152 -208 0
16 3 -2 -52 -152 207 208 0
16 3 -2 -52 -152 -208 0
16 -3 2 -51 -151 -207 0
16 -3 2 -51 -151 207 208 0
16 -3 2 -51 -151 -208 0
16 -3 2 -51 151 152 -207 0
16 -3 2 -51 151 152 207 208 0
16 -3 2 -51 151 152 -208 0
16 -3 2 -51 -152 207 208 0
16 -3 2 -51 -152 -208 0
16 -3 2 51 52 -151 -207 0
16 -3 2 51 52 -151 207 208 0
16 -3 2 51 52 -151 -208 0
16 -3 2 51 52 151 152 -207 0
16 -3 2 51 52 151 152 -208 0
16 -3 2 51 52 -152 -207 0
16 -3 2 51 52 -152 207 208 0
16 -3 2 51 52 -152 -208 0
16 -3 2 -52 -151 -207 0
16 -3 2 -52 -151 207 208 0
16 -3 2 -52 151 152 -207 0
16 -3 2 -52 151 152 207 208 0
16 -3 2 -52 151 152 -208 0
16 -3 2 -52 -152 -207 0
16 -3 2 -52 -152 207 208 0
16 -3 2 -52 -152 -208 0
16 -3 -2 -51 -151 -207 0
16 -3 -2 -51 -151 207 208 0
16 -3 -2 -51 -151 -208 0
16 -3 -2 -51 151 152 -207 0
16 -3 -2 -51 151 152 207 208 0
16 -3 -2 -51 151 152 -208 0
16 -3 -2 -51 -152 -207 0
16 -3 -2 -51 -152 207 208 0
16 -3 -2 51 52 -151 -207 0
16 -3 -2 51 52 -151 207 208 0
16 -3 -2 51 52 -151 -208 0
16 -3 -2 51 52 151 152 -207 0
16 -3 -2 51 52 151 152 -208 0
16 -3 -2 51 52 -152 -207 0
16 -3 -2 51 52 -152 207 208 0
16 -3 -2 51 52 -152 -208 0
16 -3 -2 -52 -151 207 208 0
16 -3 -2 -52 -151 -208 0
16 -3 -2 -52 151 152 -207 0
16 -3 -2 -52 151 152 207 208 0
16 -3 -2 -52 151 152 -208 0
16 -3 -2 -52 -152 -207 0
16 -3 -2 -52 -152 207 208 0
16 -3 -2 -52 -152 -208 0
-16 3 2 -51 -151 -207 0
-16 3 2 -51 -151 207 208 0
-16 3 2 -51 -151 -208 0
-16 3 2 -51 151 152 -207 0
-16 3 2 -51 151 152 207 208 0
-16 3 2 -51 151 152 -208 0
-16 3 2 -51 -152 -207 0
-16 3 2 -51 -152 207 208 0
-16 3 2 51 52 -151 -207 0
-16 3 2 51 52 -151 207 208 0
-16 3 2 51 52 -151 -208 0
-16 3 2 51 52 151 152 -207 0
-16 3 2 51 52 151 152 -208 0
-16 3 2 51 52 -152 -207 0
-16 3 2 51 52 -152 207 208 0
-16 3 2 51 52 -152 -208 0
-16 3 2 -52 -151 207 208 0
-16 3 2 -52 -151 -208 0
-16 3 2 -52 151 152 -207 0
-16 3 2 -52 151 152 207 208 0
-16 3 2 -52 151 152 -208 0
-16 3 2 -52 -152 -207 0
-16 3 2 -52 -152 207 208 0
-16 3 2 -52 -152 -208 0
-16 3 -2 -51 -151 -207 0
-16 3 -2 -51 -151 207 208 0
-16 3 -2 -51 -151 -208 0
-16 3 -2 -51 151 152 -207 0
-16 3 -2 -51 151 152 207 208 0
-16 3 -2 -51 151 152 -208 0
-16 3 -2 -51 -152 207 208 0
-16 3 -2 -51 -152 -208 0
-16 3 -2 51 52 -151 -207 0
-16 3 -2 51 52 -151 207 208 0
-16 3 -2 51 52 -151 -208 0
-16 3 -2 51 52 151 152 -207 0
-16 3 -2 51 52 151 152 -208 0
-16 3 -2 51 52 -152 -207 0
-16 3 -2 51 52 -152 207 208 0
-16 3 -2 51 52 -152 -208 0
-16 3 -2 -52 -151 -207 0
-16 3 -2 -52 -151 207 208 0
-16 3 -2 -52 151 152 -207 0
-16 3 -2 -52 151 152 207 208 0
-16 3 -2 -52 151 152 -208 0
-16 3 -2 -52 -152 -207 0
-16 3 -2 -52 -152 207 208 0
-16 3 -2 -52 -152 -208 0
-16 -3 2 -51 -151 -207 0
-16 -3 2 -51 -151 207 208 0
-16 -3 2 -51 151 152 -207 0
-16 -3 2 -51 151 152 207 208 0
-16 -3 2 -51 151 152 -208 0
-16 -3 2 -51 -152 -207 0
-16 -3 2 -51 -152 207 208 0
-16 -3 2 -51 -152 -208 0
-16 -3 2 51 52 -151 -207 0
-16 -3 2 51 52 -151 207 208 0
-16 -3 2 51 52 -151 -208 0
-16 -3 2 51 52 151 152 -207 0
-16 -3 2 51 52 151 152 -208 0
-16 -3 2 51 52 -152 -207 0
-16 -3 2 51 52 -152 207 208 0
-16 -3 2 51 52 -152 -208 0
-16 -3 2 -52 -151 -207 0
-16 -3 2 -52 -151 207 208 0
-16 -3 2 -52 -151 -208 0
-16 -3 2 -52 151 152 -207 0
-16 -3 2 -52 151 152 207 208 0
-16 -3 2 -52 151 152 -208 0
-16 -3 2 -52 -152 207 208 0
-16 -3 2 -52 -152 -208 0
-16 -3 -2 -51 -151 207 208 0
-16 -3 -2 -51 -151 -208 0
-16 -3 -2 -51 151 152 -207 0
-16 -3 -2 -51 151 152 207 208 0
-16 -3 -2 -51 151 152 -208 0
-16 -3 -2 -51 -152 -207 0
-16 -3 -2 -51 -152 207 208 0
-16 -3 -2 -51 -152 -208 0
-16 -3 -2 51 52 -151 -207 0
-16 -3 -2 51 52 -151 207 208 0
-16 -3 -2 51 52 -151 -208 0
-16 -3 -2 51 52 151 152 -207 0
-16 -3 -2 51 52 151 152 -208 0
-16 -3 -2 51 52 -152 -207 0
-16 -3 -2 51 52 -152 207 208 0
-16 -3 -2 51 52 -152 -208 0
-16 -3 -2 -52 -151 -207 0
-16 -3 -2 -52 -151 207 208 0
-16 -3 -2 -52 -151 -208 0
-16 -3 -2 -52 151 152 -207 0
-16 -3 -2 -52 151 152 207 208 0
-16 -3 -2 -52 151 152 -208 0
-16 -3 -2 -52 -152 -207 0
-16 -3 -2 -52 -152 207 208 0
17 4 2 -53 -153 263 264 0
17 4 2 -53 -153 -264 0
17 4 2 -53 153 154 -263 0
17 4 2 -53 153 154 263 264 0
17 4 2 -53 153 154 -264 0
17 4 2 -53 -154 -263 0
17 4 2 -53 -154 263 264 0
17 4 2 -53 -154 -264 0
17 4 2 53 54 -153 -263 0
17 4 2 53 54 -153 263 264 0
17 4 2 53 54 -153 -264 0
17 4 2 53 54 153 154 -263 0
17 4 2 53 54 153 154 -264 0
17 4 2 53 54 -154 -263 0
17 4 2 53 54 -154 263 264 0
17 4 2 53 54 -154 -264 0
17 4 2 -54 -153 -263 0
17 4 2 -54 -153 263 264 0
17 4 2 -54 -153 -264 0
17 4 2 -54 153 154 -263 0
17 4 2 -54 153 154 263 264 0
17 4 2 -54 153 154 -264 0
17 4 2 -54 -154 -263 0
17 4 2 -54 -154 263 264 0
17 4 -2 -53 -153 -263 0
17 4 -2 -53 -153 263 264 0
17 4 -2 -53 153 154 -263 0
17 4 -2 -53 153 154 263 264 0
17 4 -2 -53 153 154 -264 0
17 4 -2 -53 -154 -263 0
17 4 -2 -53 -154 263 264 0
17 4 -2 -53 -154 -264 0
17 4 -2 53 54 -153 -263 0
17 4 -2 53 54 -153 263 264 0
17 4 -2 53 54 -153 -264 0
17 4 -2 53 54 153 154 -263 0
17 4 -2 53 54 153 154 -264 0
17 4 -2 53 54 -154 -263 0
17 4 -2 53 54 -154 263 264 0
17 4 -2 53 54 -154 -264 0
17 4 -2 -54 -153 -263 0
17 4 -2 -54 -153 263 264 0
17 4 -2 -54 -153 -264 0
17 4 -2 -54 153 154 -263 0
17 4 -2 -54 153 154 263 264 0
17 4 -2 -54 153 154 -264 0
17 4 -2 -54 -154 263 264 0
17 4 -2 -54 -154 -264 0
17 -4 2 -53 -153 -263 0
17 -4 2 -53 -153 263 264 0
17 -4 2 -53 -153 -264 0
17 -4 2 -53 153 154 -263 0
17 -4 2 -53 153 154 263 264 0
17 -4 2 -53 153 154 -264 0
17 -4 2 -53 -154 263 264 0
17 -4 2 -53 -154 -264 0
17 -4 2 53 54 -153 -263 0
17 -4 2 53 54 -153 263 264 0
17 -4 2 53 54 -153 -264 0
17 -4 2 53 54 153 154 -263 0
17 -4 2 53 54 153 154 -264 0
17 -4 2 53 54 -154 -263 0
17 -4 2 53 54 -154 263 264 0
17 -4 2 53 54 -154 -264 0
17 -4 2 -54 -153 -263 0
17 -4 2 -54 -153 263 264 0
17 -4 2 -54 153 154 -263 0
17 -4 2 -54 153 154 263 264 0
17 -4 2 -54 153 154 -264 0
17 -4 2 -54 -154 -263 0
17 -4 2 -54 -154 263 264 0
17 -4 2 -54 -154 -264 0
17 -4 -2 -53 -153 -263 0
17 -4 -2 -53 -153 263 264 0
17 -4 -2 -53 -153 -264 0
17 -4 -2 -53 153 154 -263 0
17 -4 -2 -53 153 154 263 264 0
17 -4 -2 -53 153 154 -264 0
17 -4 -2 -53 -154 -263 0
17 -4 -2 -53 -154 263 264 0
17 -4 -2 53 54 -153 -263 0
17 -4 -2 53 54 -153 263 264 0
17 -4 -2 53 54 -153 -264 0
17 -4 -2 53 54 153 154 -263 0
17 -4 -2 53 54 153 154 -264 0
17 -4 -2 53 54 -154 -263 0
17 -4 -2 53 54 -154 263 264 0
17 -4 -2 53 54 -154 -264 0
17 -4 -2 -54 -153 263 264 0
17 -4 -2 -54 -153 -264 0
17 -4 -2 -54 153 154 -263 0
17 -4 -2 -54 153 154 263 264 0
17 -4 -2 -54 153 154 -264 0
17 -4 -2 -54 -154 -263 0
17 -4 -2 -54 -154 263 264 0
17 -4 -2 -54 -154 -264 0
-17 4 2 -53 -153 -263 0
-17 4 2 -53 -153 263 264 0
-17 4 2 -53 -153 -264 0
-17 4 2 -53 153 154 -263 0
-17 4 2 -53 153 154 263 264 0
-17 4 2 -53 153 154 -264 0
-17 4 2 -53 -154 -263 0
-17 4 2 -53 -154 263 264 0
-17 4 2 53 54 -153 -263 0
-17 4 2 53 54 -153 263 264 0
-17 4 2 53 54 -153 -264 0
-17 4 2 53 54 153 154 -263 0
-17 4 2 53 54 153 154 -264 0
-17 4 2 53 54 -154 -263 0
-17 4 2 53 54 -154 263 264 0
-17 4 2 53 54 -154 -264 0
-17 4 2 -54 -153 263 264 0
-17 4 2 -54 -153 -264 0
-17 4 2 -54 153 154 -263 0
-17 4 2 -54 153 154 263 264 0
-17 4 2 -54 153 154 -264 0
-17 4 2 -54 -154 -263 0
-17 4 2 -54 -154 263 264 0
-17 4 2 -54 -154 -264 0
-17 4 -2 -53 -153 -263 0
-17 4 -2 -53 -153 263 264 0
-17 4 -2 -53 -153 -264 0
-17 4 -2 -53 153 154 -263 0
-17 4 -2 -53 153 154 263 264 0
-17 4 -2 -53 153 154 -264 0
-17 4 -2 -53 -154 263 264 0
-17 4 -2 -53 -154 -264 0
-17 4 -2 53 54 -153 -263 0
-17 4 -2 53 54 -153 263 264 0
-17 4 -2 53 54 -153 -264 0
-17 4 -2 53 54 153 154 -263 0
-17 4 -2 53 54 153 154 -264 0
-17 4 -2 53 54 -154 -263 0
-17 4 -2 53 54 -154 263 264 0
-17 4 -2 53 54 -154 -264 0
-17 4 -2 -54 -153 -263 0
-17 4 -2 -54 -153 263 264 0
-17 4 -2 -54 153 154 -263 0
-17 4 -2 -54 153 154 263 264 0
-17 4 -2 -54 153 154 -264 0
-17 4 -2 -54 -154 -263 0
-17 4 -2 -54 -154 263 264 0
-17 4 -2 -54 -154 -264 0
-17 -4 2 -53 -153 -263 0
-17 -4 2 -53 -153 263 264 0
-17 -4 2 -53 153 154 -263 0
-17 -4 2 -53 153 154 263 264 0
-17 -4 2 -53 153 154 -264 0
-17 -4 2 -53 -154 -263 0
-17 -4 2 -53 -154 263 264 0
-17 -4 2 -53 -154 -264 0
-17 -4 2 53 54 -153 -263 0
-17 -4 2 53 54 -153 263 264 0
-17 -4 2 53 54 -153 -264 0
-17 -4 2 53 54 153 154 -263 0
-17 -4 2 53 54 153 154 -264 0
-17 -4 2 53 54 -154 -263 0
-17 -4 2 53 54 -154 263 264 0
-17 -4 2 53 54 -154 -264 0
-17 -4 2 -54 -153 -263 0
-17 -4 2 -54 -153 263 264 0
-17 -4 2 -54 -153 -264 0
-17 -4 2 -54 153 154 -263 0
-17 -4 2 -54 153 154 263 264 0
-17 -4 2 -54 153 154 -264 0
-17 -4 2 -54 -154 263 264 0
-17 -4 2 -54 -154 -264 0
-17 -4 -2 -53 -153 263 264 0
-17 -4 -2 -53 -153 -264 0
-17 -4 -2 -53 153 154 -263 0
-17 -4 -2 -53 153 154 263 264 0
-17 -4 -2 -53 153 154 -264 0
-17 -4 -2 -53 -154 -263 0
-17 -4 -2 -53 -154 263 264 0
-17 -4 -2 -53 -154 -264 0
-17 -4 -2 53 54 -153 -263 0
-17 -4 -2 53 54 -153 263 264 0
-17 -4 -2 53 54 -153 -264 0
-17 -4 -2 53 54 153 154 -263 0
-17 -4 -2 53 54 153 154 -264 0
-17 -4 -2 53 54 -154 -263 0
-17 -4 -2 53 54 -154 263 264 0
-17 -4 -2 53 54 -154 -264 0
-17 -4 -2 -54 -153 -263 0
-17 -4 -2 -54 -153 263 264 0
-17 -4 -2 -54 -153 -264 0
-17 -4 -2 -54 153 154 -263 0
-17 -4 -2 -54 153 154 263 264 0
-17 -4 -2 -54 153 154 -264 0
-17 -4 -2 -54 -154 -263 0
-17 -4 -2 -54 -154 263 264 0
18 5 2 -55 -155 319 320 0
18 5 2 -55 -155 -320 0
18 5 2 -55 155 156 -319 0
18 5 2 -55 155 156 319 320 0
18 5 2 -55 155 156 -320 0
18 5 2 -55 -156 -319 0
18 5 2 -55 -156 319 320 0
18 5 2 -55 -156 -320 0
18 5 2 55 56 -155 -319 0
18 5 2 55 56 -155 319 320 0
18 5 2 55 56 -155 -320 0
18 5 2 55 56 155 156 -319 0
18 5 2 55 56 155 156 -320 0
18 5 2 55 56 -156 -319 0
18 5 2 55 56 -156 319 320 0
18 5 2 55 56 -156 -320 0
18 5 2 -56 -155 -319 0
18 5 2 -56 -155 319 320 0
18 5 2 -56 -155 -320 0
18 5 2 -56 155 156 -319 0
18 5 2 -56 155 156 319 320 0
18 5 2 -56 155 156 -320 0
18 5 2 -56 -156 -319 0
18 5 2 -56 -156 319 320 0
18 5 -2 -55 -155 -319 0
18 5 -2 -55 -155 319 320 0
18 5 -2 -55 155 156 -319 0
18 5 -2 -55 155 156 319 320 0
18 5 -2 -55 155 156 -320 0
18 5 -2 -55 -156 -319 0
18 5 -2 -55 -156 319 320 0
18 5 -2 -55 -156 -320 0
18 5 -2 55 56 -155 -319 0
18 5 -2 55 56 -155 319 320 0
18 5 -2 55 56 -155 -320 0
18 5 -2 55 56 155 156 -319 0
18 5 -2 55 56 155 156 -320 0
18 5 -2 55 56 -156 -319 0
18 5 -2 55 56 -156 319 320 0
18 5 -2 55 56 -156 -320 0
18 5 -2 -56 -155 -319 0
18 5 -2 -56 -155 319 320 0
18 5 -2 -56 -155 -320 0
18 5 -2 -56 155 156 -319 0
18 5 -2 -56 155 156 319 320 0
18 5 -2 -56 155 156 -320 0
18 5 -2 -56 -156 319 320 0
18 5 -2 -56 -156 -320 0
18 -5 2 -55 -155 -319 0
18 -5 2 -55 -155 319 320 0
18 -5 2 -55 -155 -320 0
18 -5 2 -55 155 156 -319 0
18 -5 2 -55 155 156 319 320 0
18 -5 2 -55 155 156 -320 0
18 -5 2 -55 -156 319 320 0
18 -5 2 -55 -156 -320 0
18 -5 2 55 56 -155 -319 0
18 -5 2 55 56 -155 319 320 0
18 -5 2 55 56 -155 -320 0
18 -5 2 55 56 155 156 -319 0
18 -5 2 55 56 155 156 -320 0
18 -5 2 55 56 -156 -319 0
18 -5 2 55 56 -156 319 320 0
18 -5 2 55 56 -156 -320 0
18 -5 2 -56 -155 -319 0
18 -5 2 -56 -155 319 320 0
18 -5 2 -56 155 156 -319 0
18 -5 2 -56 155 156 319 320 0
18 -5 2 -56 155 156 -320 0
18 -5 2 -56 -156 -319 0
18 -5 2 -56 -156 319 320 0
18 -5 2 -56 -156 -320 0
18 -5 -2 -55 -155 -319 0
18 -5 -2 -55 -155 319 320 0
18 -5 -2 -55 -155 -320 0
18 -5 -2 -55 155 156 -319 0
18 -5 -2 -55 155 156 319 320 0
18 -5 -2 -55 155 156 -320 0
18 -5 -2 -55 -156 -319 0
18 -5 -2 -55 -156 319 320 0
18 -5 -2 55 56 -155 -319 0
18 -5 -2 55 56 -155 319 320 0
18 -5 -2 55 56 -155 -320 0
18 -5 -2 55 56 155 156 -319 0
18 -5 -2 55 56 155 156 -320 0
18 -5 -2 55 56 -156 -319 0
18 -5 -2 55 56 -156 319 320 0
18 -5 -2 55 56 -156 -320 0
18 -5 -2 -56 -155 319 320 0
18 -5 -2 -56 -155 -320 0
18 -5 -2 -56 155 156 -319 0
18 -5 -2 -56 155 156 319 320 0
18 -5 -2 -56 155 156 -320 0
18 -5 -2 -56 -156 -319 0
18 -5 -2 -56 -156 319 320 0
18 -5 -2 -56 -156 -320 0
-18 5 2 -55 -155 -319 0
-18 5 2 -55 -155 319 320 0
-18 5 2 -55 -155 -320 0
-18 5 2 -55 155 156 -319 0
-18 5 2 -55 155 156 319 320 0
-18 5 2 -55 155 156 -320 0
-18 5 2 -55 -156 -319 0
-18 5 2 -55 -156 319 320 0
-18 5 2 55 56 -155 -319 0
-18 5 2 55 56 -155 319 320 0
-18 5 2 55 56 -155 -320 0
-18 5 2 55 56 155 156 -319 0
-18 5 2 55 56 155 156 -320 0
-18 5 2 55 56 -156 -319 0
-18 5 2 55 56 -156 319 320 0
-18 5 2 55 56 -156 -320 0
-18 5 2 -56 -155 319 320 0
-18 5 2 -56 -155 -320 0
-18 5 2 -56 155 156 -319 0
-18 5 2 -56 155 156 319 320 0
-18 5 2 -56 155 156 -320 0
-18 5 2 -56 -156 -319 0
-18 5 2 -56 -156 319 320 0
-18 5 2 -56 -156 -320 0
-18 5 -2 -55 -155 -319 0
-18 5 -2 -55 -155 319 320 0
-18 5 -2 -55 -155 -320 0
-18 5 -2 -55 155 156 -319 0
-18 5 -2 -55 155 156 319 320 0
-18 5 -2 -55 155 156 -320 0
-18 5 -2 -55 -156 319 320 0
-18 5 -2 -55 -156 -320 0
-18 5 -2 55 56 -155 -319 0
-18 5 -2 55 56 -155 319 320 0
-18 5 -2 55 56 -155 -320 0
-18 5 -2 55 56 155 156 -319 0
-18 5 -2 55 56 155 156 -320 0
-18 5 -2 55 56 -156 -319 0
-18 5 -2 55 56 -156 319 320 0
-18 5 -2 55 56 -156 -320 0
-18 5 -2 -56 -155 -319 0
-18 5 -2 -56 -155 319 320 0
-18 5 -2 -56 155 156 -319 0
-18 5 -2 -56 155 156 319 320 0
-18 5 -2 -56 155 156 -320 0
-18 5 -2 -56 -156 -319 0
-18 5 -2 -56 -156 319 320 0
-18 5 -2 -56 -156 -320 0
-18 -5 2 -55 -155 -319 0
-18 -5 2 -55 -155 319 320 0
-18 -5 2 -55 155 156 -319 0
-18 -5 2 -55 155 156 319 320 0
-18 -5 2 -55 155 156 -320 0
-18 -5 2 -55 -156 -319 0
-18 -5 2 -55 -156 319 320 0
-18 -5 2 -55 -156 -320 0
-18 -5 2 55 56 -155 -319 0
-18 -5 2 55 56 -155 319 320 0
-18 -5 2 55 56 -155 -320 0
-18 -5 2 55 56 155 156 -319 0
-18 -5 2 55 56 155 156 -320 0
-18 -5 2 55 56 -156 -319 0
-18 -5 2 55 56 -156 319 320 0
-18 -5 2 55 56 -156 -320 0
-18 -5 2 -56 -155 -319 0
-18 -5 2 -56 -155 319 320 0
-18 -5 2 -56 -155 -320 0
-18 -5 2 -56 155 156 -319 0
-18 -5 2 -56 155 156 319 320 0
-18 -5 2 -56 155 156 -320 0
-18 -5 2 -56 -156 319 320 0
-18 -5 2 -56 -156 -320 0
-18 -5 -2 -55 -155 319 320 0
-18 -5 -2 -55 -155 -320 0
-18 -5 -2 -55 155 156 -319 0
-18 -5 -2 -55 155 156 319 320 0
-18 -5 -2 -55 155 156 -320 0
-18 -5 -2 -55 -156 -319 0
-18 -5 -2 -55 -156 319 320 0
-18 -5 -2 -55 -156 -320 0
-18 -5 -2 55 56 -155 -319 0
-18 -5 -2 55 56 -155 319 320 0
-18 -5 -2 55 56 -155 -320 0
-18 -5 -2 55 56 155 156 -319 0
-18 -5 -2 55 56 155 156 -320 0
-18 -5 -2 55 56 -156 -319 0
-18 -5 -2 55 56 -156 319 320 0
-18 -5 -2 55 56 -156 -320 0
-18 -5 -2 -56 -155 -319 0
-18 -5 -2 -56 -155 319 320 0
-18 -5 -2 -56 -155 -320 0
-18 -5 -2 -56 155 156 -319 0
-18 -5 -2 -56 155 156 319 320 0
-18 -5 -2 -56 155 156 -320 0
-18 -5 -2 -56 -156 -319 0
-18 -5 -2 -56 -156 319 320 0
19 6 2 -57 -157 375 376 0
19 6 2 -57 -157 -376 0
19 6 2 -57 157 158 -375 0
19 6 2 -57 157 158 375 376 0
19 6 2 -57 157 158 -376 0
19 6 2 -57 -158 -375 0
19 6 2 -57 -158 375 376 0
19 6 2 -57 -158 -376 0
19 6 2 57 58 -157 -375 0
19 6 2 57 58 -157 375 376 0
19 6 2 57 58 -157 -376 0
19 6 2 57 58 157 158 -375 0
19 6 2 57 58 157 158 -376 0
19 6 2 57 58 -158 -375 0
19 6 2 57 58 -158 375 376 0
19 6 2 57 58 -158 -376 0
19 6 2 -58 -157 -375 0
19 6 2 -58 -157 375 376 0
19 6 2 -58 -157 -376 0
19 6 2 -58 157 158 -375 0
19 6 2 -58 157 158 375 376 0
19 6 2 -58 157 158 -376 0
19 6 2 -58 -158 -375 0
19 6 2 -58 -158 375 376 0
19 6 -2 -57 -157 -375 0
19 6 -2 -57 -157 375 376 0
19 6 -2 -57 157 158 -375 0
19 6 -2 -57 157 158 375 376 0
19 6 -2 -57 157 158 -376 0
19 6 -2 -57 -158 -375 0
19 6 -2 -57 -158 375 376 0
19 6 -2 -57 -158 -376 0
19 6 -2 57 58 -157 -375 0
19 6 -2 57 58 -157 375 376 0
19 6 -2 57 58 -157 -376 0
19 6 -2 57 58 157 158 -375 0
19 6 -2 57 58 157 158 -376 0
19 6 -2 57 58 -158 -375 0
19 6 -2 57 58 -158 375 376 0
19 6 -2 57 58 -158 -376 0
19 6 -2 -58 -157 -375 0
19 6 -2 -58 -157 375 376 0
19 6 -2 -58 -157 -376 0
19 6 -2 -58 157 158 -375 0
19 6 -2 -58 157 158 375 376 0
19 6 -2 -58 157 158 -376 0
19 6 -2 -58 -158 375 376 0
19 6 -2 -58 -158 -376 0
19 -6 2 -57 -157 -375 0
19 -6 2 -57 -157 375 376 0
19 -6 2 -57 -157 -376 0
19 -6 2 -57 157 158 -375 0
19 -6 2 -57 157 158 375 376 0
19 -6 2 -57 157 158 -376 0
19 -6 2 -57 -158 375 376 0
19 -6 2 -57 -158 -376 0
19 -6 2 57 58 -157 -375 0
19 -6 2 57 58 -157 375 376 0
19 -6 2 57 58 -157 -376 0
19 -6 2 57 58 157 158 -375 0
19 -6 2 57 58 157 158 -376 0
19 -6 2 57 58 -158 -375 0
19 -6 2 57 58 -158 375 376 0
19 -6 2 57 58 -158 -376 0
19 -6 2 -58 -157 -375 0
19 -6 2 -58 -157 375 376 0
19 -6 2 -58 157 158 -375 0
19 -6 2 -58 157 158 375 376 0
19 -6 2 -58 157 158 -376 0
19 -6 2 -58 -158 -375 0
19 -6 2 -58 -158 375 376 0
19 -6 2 -58 -158 -376 0
19 -6 -2 -57 -157 -375 0
19 -6 -2 -57 -157 375 376 0
19 -6 -2 -57 -157 -376 0
19 -6 -2 -57 157 158 -375 0
19 -6 -2 -57 157 158 375 376 0
19 -6 -2 -57 157 158 -376 0
19 -6 -2 -57 -158 -375 0
19 -6 -2 -57 -158 375 376 0
19 -6 -2 57 58 -157 -375 0
19 -6 -2 57 58 -157 375 376 0
19 -6 -2 57 58 -157 -376 0
19 -6 -2 57 58 157 158 -375 0
19 -6 -2 57 58 157 158 -376 0
19 -6 -2 57 58 -158 -375 0
19 -6 -2 57 58 -158 375 376 0
19 -6 -2 57 58 -158 -376 0
19 -6 -2 -58 -157 375 376 0
19 -6 -2 -58 -157 -376 0
19 -6 -2 -58 157 158 -375 0
19 -6 -2 -58 157 158 375 376 0
19 -6 -2 -58 157 158 -376 0
19 -6 -2 -58 -158 -375 0
19 -6 -2 -58 -158 375 376 0
19 -6 -2 -58 -158 -376 0
-19 6 2 -57 -157 -375 0
-19 6 2 -57 -157 375 376 0
-19 6 2 -57 -157 -376 0
-19 6 2 -57 157 158 -375 0
-19 6 2 -57 157 158 375 376 0
-19 6 2 -57 157 158 -376 0
-19 6 2 -57 -158 -375 0
-19 6 2 -57 -158 375 376 0
-19 6 2 57 58 -157 -375 0
-19 6 2 57 58 -157 375 376 0
-19 6 2 57 58 -157 -376 0
-19 6 2 57 58 157 158 -375 0
-19 6 2 57 58 157 158 -376 0
-19 6 2 57 58 -158 -375 0
-19 6 2 57 58 -158 375 376 0
-19 6 2 57 58 -158 -376 0
-19 6 2 -58 -157 375 376 0
-19 6 2 -58 -157 -376 0
-19 6 2 -58 157 158 -375 0
-19 6 2 -58 157 158 375 376 0
-19 6 2 -58 157 158 -376 0
-19 6 2 -58 -158 -375 0
-19 6 2 -58 -158 375 376 0
-19 6 2 -58 -158 -376 0
-19 6 -2 -57 -157 -375 0
-19 6 -2 -57 -157 375 376 0
-19 6 -2 -57 -157 -376 0
-19 6 -2 -57 157 158 -375 0
-19 6 -2 -57 157 158 375 376 0
-19 6 -2 -57 157 158 -376 0
-19 6 -2 -57 -158 375 376 0
-19 6 -2 -57 -158 -376 0
-19 6 -2 57 58 -157 -375 0
-19 6 -2 57 58 -157 375 376 0
-19 6 -2 57 58 -157 -376 0
-19 6 -2 57 58 157 158 -375 0
-19 6 -2 57 58 157 158 -376 0
-19 6 -2 57 58 -158 -375 0
-19 6 -2 57 58 -158 375 376 0
-19 6 -2 57 58 -158 -376 0
-19 6 -2 -58 -157 -375 0
-19 6 -2 -58 -157 375 376 0
-19 6 -2 -58 157 158 -375 0
-19 6 -2 -58 157 158 375 376 0
-19 6 -2 -58 157 158 -376 0
-19 6 -2 -58 -158 -375 0
-19 6 -2 -58 -158 375 376 0
-19 6 -2 -58 -158 -376 0
-19 -6 2 -57 -157 -375 0
-19 -6 2 -57 -157 375 376 0
-19 -6 2 -57 157 158 -375 0
-19 -6 2 -57 157 158 375 376 0
-19 -6 2 -57 157 158 -376 0
-19 -6 2 -57 -158 -375 0
-19 -6 2 -57 -158 375 376 0
-19 -6 2 -57 -158 -376 0
-19 -6 2 57 58 -157 -375 0
-19 -6 2 57 58 -157 375 376 0
-19 -6 2 57 58 -157 -376 0
-19 -6 2 57 58 157 158 -375 0
-19 -6 2 57 58 157 158 -376 0
-19 -6 2 57 58 -158 -375 0
-19 -6 2 57 58 -158 375 376 0
-19 -6 2 57 58 -158 -376 0
-19 -6 2 -58 -157 -375 0
-19 -6 2 -58 -157 375 376 0
-19 -6 2 -58 -157 -376 0
-19 -6 2 -58 157 158 -375 0
-19 -6 2 -58 157 158 375 376 0
-19 -6 2 -58 157 158 -376 0
-19 -6 2 -58 -158 375 376 0
-19 -6 2 -58 -158 -376 0
-19 -6 -2 -57 -157 375 376 0
-19 -6 -2 -57 -157 -376 0
-19 -6 -2 -57 157 158 -375 0
-19 -6 -2 -57 157 158 375 376 0
-19 -6 -2 -57 157 158 -376 0
-19 -6 -2 -57 -158 -375 0
-19 -6 -2 -57 -158 375 376 0
-19 -6 -2 -57 -158 -376 0
-19 -6 -2 57 58 -157 -375 0
-19 -6 -2 57 58 -157 375 376 0
-19 -6 -2 57 58 -157 -376 0
-19 -6 -2 57 58 157 158 -375 0
-19 -6 -2 57 58 157 158 -376 0
-19 -6 -2 57 58 -158 -375 0
-19 -6 -2 57 58 -158 375 376 0
-19 -6 -2 57 58 -158 -376 0
-19 -6 -2 -58 -157 -375 0
-19 -6 -2 -58 -157 375 376 0
-19 -6 -2 -58 -157 -376 0
-19 -6 -2 -58 157 158 -375 0
-19 -6 -2 -58 157 158 375 376 0
-19 -6 -2 -58 157 158 -376 0
-19 -6 -2 -58 -158 -375 0
-19 -6 -2 -58 -158 375 376 0
20 7 2 -59 -159 431 432 0
20 7 2 -59 -159 -432 0
20 7 2 -59 159 160 -431 0
20 7 2 -59 159 160 431 432 0
20 7 2 -59 159 160 -432 0
20 7 2 -59 -160 -431 0
20 7 2 -59 -160 431 432 0
20 7 2 -59 -160 -432 0
20 7 2 59 60 -159 -431 0
20 7 2 59 60 -159 431 432 0
20 7 2 59 60 -159 -432 0
20 7 2 59 60 159 160 -431 0
20 7 2 59 60 159 160 -432 0
20 7 2 59 60 -160 -431 0
20 7 2 59 60 -160 431 432 0
20 7 2 59 60 -160 -432 0
20 7 2 -60 -159 -431 0
20 7 2 -60 -159 431 432 0
20 7 2 -60 -159 -432 0
20 7 2 -60 159 160 -431 0
20 7 2 -60 159 160 431 432 0
20 7 2 -60 159 160 -432 0
20 7 2 -60 -160 -431 0
20 7 2 -60 -160 431 432 0
20 7 -2 -59 -159 -431 0
20 7 -2 -59 -159 431 432 0
20 7 -2 -59 159 160 -431 0
20 7 -2 -59 159 160 431 432 0
20 7 -2 -59 159 160 -432 0
20 7 -2 -59 -160 -431 0
20 7 -2 -59 -160 431 432 0
20 7 -2 -59 -160 -432 0
20 7 -2 59 60 -159 -431 0
20 7 -2 59 60 -159 431 432 0
20 7 -2 59 60 -159 -432 0
20 7 -2 59 60 159 160 -431 0
20 7 -2 59 60 159 160 -432 0
20 7 -2 59 60 -160 -431 0
20 7 -2 59 60 -160 431 432 0
20 7 -2 59 60 -160 -432 0
20 7 -2 -60 -159 -431 0
20 7 -2 -60 -159 431 432 0
20 7 -2 -60 -159 -432 0
20 7 -2 -60 159 160 -431 0
20 7 -2 -60 159 160 431 432 0
20 7 -2 -60 159 160 -432 0
20 7 -2 -60 -160 431 432 0
20 7 -2 -60 -160 -432 0
20 -7 2 -59 -159 -431 0
20 -7 2 -59 -159 431 432 0
20 -7 2 -59 -159 -432 0
20 -7 2 -59 159 160 -431 0
20 -7 2 -59 159 160 431 432 0
20 -7 2 -59 159 160 -432 0
20 -7 2 -59 -160 431 432 0
20 -7 2 -59 -160 -432 0
20 -7 2 59 60 -159 -431 0
20 -7 2 59 60 -159 431 432 0
20 -7 2 59 60 -159 -432 0
20 -7 2 59 60 159 160 -431 0
20 -7 2 59 60 159 160 -432 0
20 -7 2 59 60 -160 -431 0
20 -7 2 59 60 -160 431 432 0
20 -7 2 59 60 -160 -432 0
20 -7 2 -60 -159 -431 0
20 -7 2 -60 -159 431 432 0
20 -7 2 -60 159 160 -431 0
20 -7 2 -60 159 160 431 432 0
20 -7 2 -60 159 160 -432 0
20 -7 2 -60 -160 -431 0
20 -7 2 -60 -160 431 432 0
20 -7 2 -60 -160 -432 0
20 -7 -2 -59 -159 -431 0
20 -7 -2 -59 -159 431 432 0
20 -7 -2 -59 -159 -432 0
20 -7 -2 -59 159 160 -431 0
20 -7 -2 -59 159 160 431 432 0
20 -7 -2 -59 159 160 -432 0
20 -7 -2 -59 -160 -431 0
20 -7 -2 -59 -160 431 432 0
20 -7 -2 59 60 -159 -431 0
20 -7 -2 59 60 -159 431 432 0
20 -7 -2 59 60 -159 -432 0
20 -7 -2 59 60 159 160 -431 0
20 -7 -2 59 60 159 160 -432 0
20 -7 -2 59 60 -160 -431 0
20 -7 -2 59 60 -160 431 432 0
20 -7 -2 59 60 -160 -432 0
20 -7 -2 -60 -159 431 432 0
20 -7 -2 -60 -159 -432 0
20 -7 -2 -60 159 160 -431 0
20 -7 -2 -60 159 160 431 432 0
20 -7 -2 -60 159 160 -432 0
20 -7 -2 -60 -160 -431 0
20 -7 -2 -60 -160 431 432 0
20 -7 -2 -60 -160 -432 0
-20 7 2 -59 -159 -431 0
-20 7 2 -59 -159 431 432 0
-20 7 2 -59 -159 -432 0
-20 7 2 -59 159 160 -431 0
-20 7 2 -59 159 160 431 432 0
-20 7 2 -59 159 160 -432 0
-20 7 2 -59 -160 -431 0
-20 7 2 -59 -160 431 432 0
-20 7 2 59 60 -159 -431 0
-20 7 2 59 60 -159 431 432 0
-20 7 2 59 60 -159 -432 0
-20 7 2 59 60 159 160 -431 0
-20 7 2 59 60 159 160 -432 0
-20 7 2 59 60 -160 -431 0
-20 7 2 59 60 -160 431 432 0
-20 7 2 59 60 -160 -432 0
-20 7 2 -60 -159 431 432 0
-20 7 2 -60 -159 -432 0
-20 7 2 -60 159 160 -431 0
-20 7 2 -60 159 160 431 432 0
-20 7 2 -60 159 160 -432 0
-20 7 2 -60 -160 -431 0
-20 7 2 -60 -160 431 432 0
-20 7 2 -60 -160 -432 0
-20 7 -2 -59 -159 -431 0
-20 7 -2 -59 -159 431 432 0
-20 7 -2 -59 -159 -432 0
-20 7 -2 -59 159 160 -431 0
-20 7 -2 -59 159 160 431 432 0
-20 7 -2 -59 159 160 -432 0
-20 7 -2 -59 -160 431 432 0
-20 7 -2 -59 -160 -432 0
-20 7 -2 59 60 -159 -431 0
-20 7 -2 59 60 -159 431 432 0
-20 7 -2 59 60 -159 -432 0
-20 7 -2 59 60 159 160 -431 0
-20 7 -2 59 60 159 160 -432 0
-20 7 -2 59 60 -160 -431 0
-20 7 -2 59 60 -160 431 432 0
-20 7 -2 59 60 -160 -432 0
-20 7 -2 -60 -159 -431 0
-20 7 -2 -60 -159 431 432 0
-20 7 -2 -60 159 160 -431 0
-20 7 -2 -60 159 160 431 432 0
-20 7 -2 -60 159 160 -432 0
-20 7 -2 -60 -160 -431 0
-20 7 -2 -60 -160 431 432 0
-20 7 -2 -60 -160 -432 0
-20 -7 2 -59 -159 -431 0
-20 -7 2 -59 -159 431 432 0
-20 -7 2 -59 159 160 -431 0
-20 -7 2 -59 159 160 431 432 0
-20 -7 2 -59 159 160 -432 0
-20 -7 2 -59 -160 -431 0
-20 -7 2 -59 -160 431 432 0
-20 -7 2 -59 -160 -432 0
-20 -7 2 59 60 -159 -431 0
-20 -7 2 59 60 -159 431 432 0
-20 -7 2 59 60 -159 -432 0
-20 -7 2 59 60 159 160 -431 0
-20 -7 2 59 60 159 160 -432 0
-20 -7 2 59 60 -160 -431 0
-20 -7 2 59 60 -160 431 432 0
-20 -7 2 59 60 -160 -432 0
-20 -7 2 -60 -159 -431 0
-20 -7 2 -60 -159 431 432 0
-20 -7 2 -60 -159 -432 0
-20 -7 2 -60 159 160 -431 0
-20 -7 2 -60 159 160 431 432 0
-20 -7 2 -60 159 160 -432 0
-20 -7 2 -60 -160 431 432 0
-20 -7 2 -60 -160 -432 0
-20 -7 -2 -59 -159 431 432 0
-20 -7 -2 -59 -159 -432 0
-20 -7 -2 -59 159 160 -431 0
-20 -7 -2 -59 159 160 431 432 0
-20 -7 -2 -59 159 160 -432 0
-20 -7 -2 -59 -160 -431 0
-20 -7 -2 -59 -160 431 432 0
-20 -7 -2 -59 -160 -432 0
-20 -7 -2 59 60 -159 -431 0
-20 -7 -2 59 60 -159 431 432 0
-20 -7 -2 59 60 -159 -432 0
-20 -7 -2 59 60 159 160 -431 0
-20 -7 -2 59 60 159 160 -432 0
-20 -7 -2 59 60 -160 -431 0
-20 -7 -2 59 60 -160 431 432 0
-20 -7 -2 59 60 -160 -432 0
-20 -7 -2 -60 -159 -431 0
-20 -7 -2 -60 -159 431 432 0
-20 -7 -2 -60 -159 -432 0
-20 -7 -2 -60 159 160 -431 0
-20 -7 -2 -60 159 160 431 432 0
-20 -7 -2 -60 159 160 -432 0
-20 -7 -2 -60 -160 -431 0
-20 -7 -2 -60 -160 431 432 0
21 8 2 -61 -161 487 488 0
21 8 2 -61 -161 -488 0
21 8 2 -61 161 162 -487 0
21 8 2 -61 161 162 487 488 0
21 8 2 -61 161 162 -488 0
21 8 2 -61 -162 -487 0
21 8 2 -61 -162 487 488 0
21 8 2 -61 -162 -488 0
21 8 2 61 62 -161 -487 0
21 8 2 61 62 -161 487 488 0
21 8 2 61 62 -161 -488 0
21 8 2 61 62 161 162 -487 0
21 8 2 61 62 161 162 -488 0
21 8 2 61 62 -162 -487 0
21 8 2 61 62 -162 487 488 0
21 8 2 61 62 -162 -488 0
21 8 2 -62 -161 -487 0
21 8 2 -62 -161 487 488 0
21 8 2 -62 -161 -488 0
21 8 2 -62 161 162 -487 0
21 8 2 -62 161 162 487 488 0
21 8 2 -62 161 162 -488 0
21 8 2 -62 -162 -487 0
21 8 2 -62 -162 487 488 0
21 8 -2 -61 -161 -487 0
21 8 -2 -61 -161 487 488 0
21 8 -2 -61 161 162 -487 0
21 8 -2 -61 161 162 487 488 0
21 8 -2 -61 161 162 -488 0
21 8 -2 -61 -162 -487 0
21 8 -2 -61 -162 487 488 0
21 8 -2 -61 -162 -488 0
21 8 -2 61 62 -161 -487 0
21 8 -2 61 62 -161 487 488 0
21 8 -2 61 62 -161 -488 0
21 8 -2 61 62 161 162 -487 0
21 8 -2 61 62 161 162 -488 0
21 8 -2 61 62 -162 -487 0
21 8 -2 61 62 -162 487 488 0
21 8 -2 61 62 -162 -488 0
21 8 -2 -62 -161 -487 0
21 8 -2 -62 -161 487 488 0
21 8 -2 -62 -161 -488 0
21 8 -2 -62 161 162 -487 0
21 8 -2 -62 161 162 487 488 0
21 8 -2 -62 161 162 -488 0
21 8 -2 -62 -162 487 488 0
21 8 -2 -62 -162 -488 0
21 -8 2 -61 -161 -487 0
21 -8 2 -61 -161 487 488 0
21 -8 2 -61 -161 -488 0
21 -8 2 -61 161 162 -487 0
21 -8 2 -61 161 162 487 488 0
21 -8 2 -61 161 162 -488 0
21 -8 2 -61 -162 487 488 0
21 -8 2 -61 -162 -488 0
21 -8 2 61 62 -161 -487 0
21 -8 2 61 62 -161 487 488 0
21 -8 2 61 62 -161 -488 0
21 -8 2 61 62 161 162 -487 0
21 -8 2 61 62 161 162 -488 0
21 -8 2 61 62 -162 -487 0
21 -8 2 61 62 -162 487 488 0
21 -8 2 61 62 -162 -488 0
21 -8 2 -62 -161 -487 0
21 -8 2 -62 -161 487 488 0
21 -8 2 -62 161 162 -487 0
21 -8 2 -62 161 162 487 488 0
21 -8 2 -62 161 162 -488 0
21 -8 2 -62 -162 -487 0
21 -8 2 -62 -162 487 488 0
21 -8 2 -62 -162 -488 0
21 -8 -2 -61 -161 -487 0
21 -8 -2 -61 -161 487 488 0
21 -8 -2 -61 -161 -488 0
21 -8 -2 -61 161 162 -487 0
21 -8 -2 -61 161 162 487 488 0
21 -8 -2 -61 161 162 -488 0
21 -8 -2 -61 -162 -487 0
21 -8 -2 -61 -162 487 488 0
21 -8 -2 61 62 -161 -487 0
21 -8 -2 61 62 -161 487 488 0
21 -8 -2 61 62 -161 -488 0
21 -8 -2 61 62 161 162 -487 0
21 -8 -2 61 62 161 162 -488 0
21 -8 -2 61 62 -162 -487 0
21 -8 -2 61 62 -162 487 488 0
21 -8 -2 61 62 -162 -488 0
21 -8 -2 -62 -161 487 488 0
21 -8 -2 -62 -161 -488 0
21 -8 -2 -62 161 162 -487 0
21 -8 -2 -62 161 162 487 488 0
21 -8 -2 -62 161 162 -488 0
21 -8 -2 -62 -162 -487 0
21 -8 -2 -62 -162 487 488 0
21 -8 -2 -62 -162 -488 0
-21 8 2 -61 -161 -487 0
-21 8 2 -61 -161 487 488 0
-21 8 2 -61 -161 -488 0
-21 8 2 -61 161 162 -487 0
-21 8 2 -61 161 162 487 488 0
-21 8 2 -61 161 162 -488 0
-21 8 2 -61 -162 -487 0
-21 8 2 -61 -162 487 488 0
-21 8 2 61 62 -161 -487 0
-21 8 2 61 62 -161 487 488 0
-21 8 2 61 62 -161 -488 0
-21 8 2 61 62 161 162 -487 0
-21 8 2 61 62 161 162 -488 0
-21 8 2 61 62 -162 -487 0
-21 8 2 61 62 -162 487 488 0
-21 8 2 61 62 -162 -488 0
-21 8 2 -62 -161 487 488 0
-21 8 2 -62 -161 -488 0
-21 8 2 -62 161 162 -487 0
-21 8 2 -62 161 162 487 488 0
-21 8 2 -62 161 162 -488 0
-21 8 2 -62 -162 -487 0
-21 8 2 -62 -162 487 488 0
-21 8 2 -62 -162 -488 0
-21 8 -2 -61 -161 -487 0
-21 8 -2 -61 -161 487 488 0
-21 8 -2 -61 -161 -488 0
-21 8 -2 -61 161 162 -487 0
-21 8 -2 -61 161 162 487 488 0
-21 8 -2 -61 161 162 -488 0
-21 8 -2 -61 -162 487 488 0
-21 8 -2 -61 -162 -488 0
-21 8 -2 61 62 -161 -487 0
-21 8 -2 61 62 -161 487 488 0
-21 8 -2 61 62 -161 -488 0
-21 8 -2 61 62 161 162 -487 0
-21 8 -2 61 62 161 162 -488 0
-21 8 -2 61 62 -162 -487 0
-21 8 -2 61 62 -162 487 488 0
-21 8 -2 61 62 -162 -488 0
-21 8 -2 -62 -161 -487 0
-21 8 -2 -62 -161 487 488 0
-21 8 -2 -62 161 162 -487 0
-21 8 -2 -62 161 162 487 488 0
-21 8 -2 -62 161 162 -488 0
-21 8 -2 -62 -162 -487 0
-21 8 -2 -62 -162 487 488 0
-21 8 -2 -62 -162 -488 0
-21 -8 2 -61 -161 -487 0
-21 -8 2 -61 -161 487 488 0
-21 -8 2 -61 161 162 -487 0
-21 -8 2 -61 161 162 487 488 0
-21 -8 2 -61 161 162 -488 0
-21 -8 2 -61 -162 -487 0
-21 -8 2 -61 -162 487 488 0
-21 -8 2 -61 -162 -488 0
-21 -8 2 61 62 -161 -487 0
-21 -8 2 61 62 -161 487 488 0
-21 -8 2 61 62 -161 -488 0
-21 -8 2 61 62 161 162 -487 0
-21 -8 2 61 62 161 162 -488 0
-21 -8 2 61 62 -162 -487 0
-21 -8 2 61 62 -162 487 488 0
-21 -8 2 61 62 -162 -488 0
-21 -8 2 -62 -161 -487 0
-21 -8 2 -62 -161 487 488 0
-21 -8 2 -62 -161 -488 0
-21 -8 2 -62 161 162 -487 0
-21 -8 2 -62 161 162 487 488 0
-21 -8 2 -62 161 162 -488 0
-21 -8 2 -62 -162 487 488 0
-21 -8 2 -62 -162 -488 0
-21 -8 -2 -61 -161 487 488 0
-21 -8 -2 -61 -161 -488 0
-21 -8 -2 -61 161 162 -487 0
-21 -8 -2 -61 161 162 487 488 0
-21 -8 -2 -61 161 162 -488 0
-21 -8 -2 -61 -162 -487 0
-21 -8 -2 -61 -162 487 488 0
-21 -8 -2 -61 -162 -488 0
-21 -8 -2 61 62 -161 -487 0
-21 -8 -2 61 62 -161 487 488 0
-21 -8 -2 61 62 -161 -488 0
-21 -8 -2 61 62 161 162 -487 0
-21 -8 -2 61 62 161 162 -488 0
-21 -8 -2 61 62 -162 -487 0
-21 -8 -2 61 62 -162 487 488 0
-21 -8 -2 61 62 -162 -488 0
-21 -8 -2 -62 -161 -487 0
-21 -8 -2 -62 -161 487 488 0
-21 -8 -2 -62 -161 -488 0
-21 -8 -2 -62 161 162 -487 0
-21 -8 -2 -62 161 162 487 488 0
-21 -8 -2 -62 161 162 -488 0
-21 -8 -2 -62 -162 -487 0
-21 -8 -2 -62 -162 487 488 0
22 4 3 -63 -209 265 266 0
22 4 3 -63 -209 -266 0
22 4 3 -63 209 210 -265 0
22 4 3 -63 209 210 265 266 0
22 4 3 -63 209 210 -266 0
22 4 3 -63 -210 -265 0
22 4 3 -63 -210 265 266 0
22 4 3 -63 -210 -266 0
22 4 3 63 64 -209 -265 0
22 4 3 63 64 -209 265 266 0
22 4 3 63 64 -209 -266 0
22 4 3 63 64 209 210 -265 0
22 4 3 63 64 209 210 -266 0
22 4 3 63 64 -210 -265 0
22 4 3 63 64 -210 265 266 0
22 4 3 63 64 -210 -266 0
22 4 3 -64 -209 -265 0
22 4 3 -64 -209 265 266 0
22 4 3 -64 -209 -266 0
22 4 3 -64 209 210 -265 0
22 4 3 -64 209 210 265 266 0
22 4 3 -64 209 210 -266 0
22 4 3 -64 -210 -265 0
22 4 3 -64 -210 265 266 0
22 4 -3 -63 -209 -265 0
22 4 -3 -63 -209 265 266 0
22 4 -3 -63 209 210 -265 0
22 4 -3 -63 209 210 265 266 0
22 4 -3 -63 209 210 -266 0
22 4 -3 -63 -210 -265 0
22 4 -3 -63 -210 265 266 0
22 4 -3 -63 -210 -266 0
22 4 -3 63 64 -209 -265 0
22 4 -3 63 64 -209 265 266 0
22 4 -3 63 64 -209 -266 0
22 4 -3 63 64 209 210 -265 0
22 4 -3 63 64 209 210 -266 0
22 4 -3 63 64 -210 -265 0
22 4 -3 63 64 -210 265 266 0
22 4 -3 63 64 -210 -266 0
22 4 -3 -64 -209 -265 0
22 4 -3 -64 -209 265 266 0
22 4 -3 -64 -209 -266 0
22 4 -3 -64 209 210 -265 0
22 4 -3 -64 209 210 265 266 0
22 4 -3 -64 209 210 -266 0
22 4 -3 -64 -210 265 266 0
22 4 -3 -64 -210 -266 0
22 -4 3 -63 -209 -265 0
22 -4 3 -63 -209 265 266 0
22 -4 3 -63 -209 -266 0
22 -4 3 -63 209 210 -265 0
22 -4 3 -63 209 210 265 266 0
22 -4 3 -63 209 210 -266 0
22 -4 3 -63 -210 265 266 0
22 -4 3 -63 -210 -266 0
22 -4 3 63 64 -209 -265 0
22 -4 3 63 64 -209 265 266 0
22 -4 3 63 64 -209 -266 0
22 -4 3 63 64 209 210 -265 0
22 -4 3 63 64 209 210 -266 0
22 -4 3 63 64 -210 -265 0
22 -4 3 63 64 -210 265 266 0
22 -4 3 63 64 -210 -266 0
22 -4 3 -64 -209 -265 0
22 -4 3 -64 -209 265 266 0
22 -4 3 -64 209 210 -265 0
22 -4 3 -64 209 210 265 266 0
22 -4 3 -64 209 210 -266 0
22 -4 3 -64 -210 -265 0
22 -4 3 -64 -210 265 266 0
22 -4 3 -64 -210 -266 0
22 -4 -3 -63 -209 -265 0
22 -4 -3 -63 -209 265 266 0
22 -4 -3 -63 -209 -266 0
22 -4 -3 -63 209 210 -265 0
22 -4 -3 -63 209 210 265 266 0
22 -4 -3 -63 209 210 -266 0
22 -4 -3 -63 -210 -265 0
22 -4 -3 -63 -210 265 266 0
22 -4 -3 63 64 -209 -265 0
22 -4 -3 63 64 -209 265 266 0
22 -4 -3 63 64 -209 -266 0
22 -4 -3 63 64 209 210 -265 0
22 -4 -3 63 64 209 210 -266 0
22 -4 -3 63 64 -210 -265 0
22 -4 -3 63 64 -210 265 266 0
22 -4 -3 63 64 -210 -266 0
22 -4 -3 -64 -209 265 266 0
22 -4 -3 -64 -209 -266 0
22 -4 -3 -64 209 210 -265 0
22 -4 -3 -64 209 210 265 266 0
22 -4 -3 -64 209 210 -266 0
22 -4 -3 -64 -210 -265 0
22 -4 -3 -64 -210 265 266 0
22 -4 -3 -64 -210 -266 0
-22 4 3 -63 -209 -265 0
-22 4 3 -63 -209 265 266 0
-22 4 3 -63 -209 -266 0
-22 4 3 -63 209 210 -265 0
-22 4 3 -63 209 210 265 266 0
-22 4 3 -63 209 210 -266 0
-22 4 3 -63 -210 -265 0
-22 4 3 -63 -210 265 266 0
-22 4 3 63 64 -209 -265 0
-22 4 3 63 64 -209 265 266 0
-22 4 3 63 64 -209 -266 0
-22 4 3 63 64 209 210 -265 0
-22 4 3 63 64 209 210 -266 0
-22 4 3 63 64 -210 -265 0
-22 4 3 63 64 -210 265 266 0
-22 4 3 63 64 -210 -266 0
-22 4 3 -64 -209 265 266 0
-22 4 3 -64 -209 -266 0
-22 4 3 -64 209 210 -265 0
-22 4 3 -64 209 210 265 266 0
-22 4 3 -64 209 210 -266 0
-22 4 3 -64 -210 -265 0
-22 4 3 -64 -210 265 266 0
-22 4 3 -64 -210 -266 0
-22 4 -3 -63 -209 -265 0
-22 4 -3 -63 -209 265 266 0
-22 4 -3 -63 -209 -266 0
-22 4 -3 -63 209 210 -265 0
-22 4 -3 -63 209 210 265 266 0
-22 4 -3 -63 209 210 -266 0
-22 4 -3 -63 -210 265 266 0
-22 4 -3 -63 -210 -266 0
-22 4 -3 63 64 -209 -265 0
-22 4 -3 63 64 -209 265 266 0
-22 4 -3 63 64 -209 -266 0
-22 4 -3 63 64 209 210 -265 0
-22 4 -3 63 64 209 210 -266 0
-22 4 -3 63 64 -210 -265 0
-22 4 -3 63 64 -210 265 266 0
-22 4 -3 63 64 -210 -266 0
-22 4 -3 -64 -209 -265 0
-22 4 -3 -64 -209 265 266 0
-22 4 -3 -64 209 210 -265 0
-22 4 -3 -64 209 210 265 266 0
-22 4 -3 -64 209 210 -266 0
-22 4 -3 -64 -210 -265 0
-22 4 -3 -64 -210 265 266 0
-22 4 -3 -64 -210 -266 0
-22 -4 3 -63 -209 -265 0
-22 -4 3 -63 -209 265 266 0
-22 -4 3 -63 209 210 -265 0
-22 -4 3 -63 209 210 265 266 0
-22 -4 3 -63 209 210 -266 0
-22 -4 3 -63 -210 -265 0
-22 -4 3 -63 -210 265 266 0
-22 -4 3 -63 -210 -266 0
-22 -4 3 63 64 -209 -265 0
-22 -4 3 63 64 -209 265 266 0
-22 -4 3 63 64 -209 -266 0
-22 -4 3 63 64 209 210 -265 0
-22 -4 3 63 64 209 210 -266 0
-22 -4 3 63 64 -210 -265 0
-22 -4 3 63 64 -210 265 266 0
-22 -4 3 63 64 -210 -266 0
-22 -4 3 -64 -209 -265 0
-22 -4 3 -64 -209 265 266 0
-22 -4 3 -64 -209 -266 0
-22 -4 3 -64 209 210 -265 0
-22 -4 3 -64 209 210 265 266 0
-22 -4 3 -64 209 210 -266 0
-22 -4 3 -64 -210 265 266 0
-22 -4 3 -64 -210 -266 0
-22 -4 -3 -63 -209 265 266 0
-22 -4 -3 -63 -209 -266 0
-22 -4 -3 -63 209 210 -265 0
-22 -4 -3 -63 209 210 265 266 0
-22 -4 -3 -63 209 210 -266 0
-22 -4 -3 -63 -210 -265 0
-22 -4 -3 -63 -210 265 266 0
-22 -4 -3 -63 -210 -266 0
-22 -4 -3 63 64 -209 -265 0
-22 -4 -3 63 64 -209 265 266 0
-22 -4 -3 63 64 -209 -266 0
-22 -4 -3 63 64 209 210 -265 0
-22 -4 -3 63 64 209 210 -266 0
-22 -4 -3 63 64 -210 -265 0
-22 -4 -3 63 64 -210 265 266 0
-22 -4 -3 63 64 -210 -266 0
-22 -4 -3 -64 -209 -265 0
-22 -4 -3 -64 -209 265 266 0
-22 -4 -3 -64 -209 -266 0
-22 -4 -3 -64 209 210 -265 0
-22 -4 -3 -64 209 210 265 266 0
-22 -4 -3 -64 209 210 -266 0
-22 -4 -3 -64 -210 -265 0
-22 -4 -3 -64 -210 265 266 0
23 5 3 -65 -211 321 322 0
23 5 3 -65 -211 -322 0
23 5 3 -65 211 212 -321 0
23 5 3 -65 211 212 321 322 0
23 5 3 -65 211 212 -322 0
23 5 3 -65 -212 -321 0
23 5 3 -65 -212 321 322 0
23 5 3 -65 -212 -322 0
23 5 3 65 66 -211 -321 0
23 5 3 65 66 -211 321 322 0
23 5 3 65 66 -211 -322 0
23 5 3 65 66 211 212 -321 0
23 5 3 65 66 211 212 -322 0
23 5 3 65 66 -212 -321 0
23 5 3 65 66 -212 321 322 0
23 5 3 65 66 -212 -322 0
23 5 3 -66 -211 -321 0
23 5 3 -66 -211 321 322 0
23 5 3 -66 -211 -322 0
23 5 3 -66 211 212 -321 0
23 5 3 -66 211 212 321 322 0
23 5 3 -66 211 212 -322 0
23 5 3 -66 -212 -321 0
23 5 3 -66 -212 321 322 0
23 5 -3 -65 -211 -321 0
23 5 -3 -65 -211 321 322 0
23 5 -3 -65 211 212 -321 0
23 5 -3 -65 211 212 321 322 0
23 5 -3 -65 211 212 -322 0
23 5 -3 -65 -212 -321 0
23 5 -3 -65 -212 321 322 0
23 5 -3 -65 -212 -322 0
23 5 -3 65 66 -211 -321 0
23 5 -3 65 66 -211 321 322 0
23 5 -3 65 66 -211 -322 0
23 5 -3 65 66 211 212 -321 0
23 5 -3 65 66 211 212 -322 0
23 5 -3 65 66 -212 -321 0
23 5 -3 65 66 -212 321 322 0
23 5 -3 65 66 -212 -322 0
23 5 -3 -66 -211 -321 0
23 5 -3 -66 -211 321 322 0
23 5 -3 -66 -211 -322 0
23 5 -3 -66 211 212 -321 0
23 5 -3 -66 211 212 321 322 0
23 5 -3 -66 211 212 -322 0
23 5 -3 -66 -212 321 322 0
23 5 -3 -66 -212 -322 0
23 -5 3 -65 -211 -321 0
23 -5 3 -65 -211 321 322 0
23 -5 3 -65 -211 -322 0
23 -5 3 -65 211 212 -321 0
23 -5 3 -65 211 212 321 322 0
23 -5 3 -65 211 212 -322 0
23 -5 3 -65 -212 321 322 0
23 -5 3 -65 -212 -322 0
23 -5 3 65 66 -211 -321 0
23 -5 3 65 66 -211 321 322 0
23 -5 3 65 66 -211 -322 0
23 -5 3 65 66 211 212 -321 0
23 -5 3 65 66 211 212 -322 0
23 -5 3 65 66 -212 -321 0
23 -5 3 65 66 -212 321 322 0
23 -5 3 65 66 -212 -322 0
23 -5 3 -66 -211 -321 0
23 -5 3 -66 -211 321 322 0
23 -5 3 -66 211 212 -321 0
23 -5 3 -66 211 212 321 322 0
23 -5 3 -66 211 212 -322 0
23 -5 3 -66 -212 -321 0
23 -5 3 -66 -212 321 322 0
23 -5 3 -66 -212 -322 0
23 -5 -3 -65 -211 -321 0
23 -5 -3 -65 -211 321 322 0
23 -5 -3 -65 -211 -322 0
23 -5 -3 -65 211 212 -321 0
23 -5 -3 -65 211 212 321 322 0
23 -5 -3 -65 211 212 -322 0
23 -5 -3 -65 -212 -321 0
23 -5 -3 -65 -212 321 322 0
23 -5 -3 65 66 -211 -321 0
23 -5 -3 65 66 -211 321 322 0
23 -5 -3 65 66 -211 -322 0
23 -5 -3 65 66 211 212 -321 0
23 -5 -3 65 66 211 212 -322 0
23 -5 -3 65 66 -212 -321 0
23 -5 -3 65 66 -212 321 322 0
23 -5 -3 65 66 -212 -322 0
23 -5 -3 -66 -211 321 322 0
23 -5 -3 -66 -211 -322 0
23 -5 -3 -66 211 212 -321 0
23 -5 -3 -66 211 212 321 322 0
23 -5 -3 -66 211 212 -322 0
23 -5 -3 -66 -212 -321 0
23 -5 -3 -66 -212 321 322 0
23 -5 -3 -66 -212 -322 0
-23 5 3 -65 -211 -321 0
-23 5 3 -65 -211 321 322 0
-23 5 3 -65 -211 -322 0
-23 5 3 -65 211 212 -321 0
-23 5 3 -65 211 212 321 322 0
-23 5 3 -65 211 212 -322 0
-23 5 3 -65 -212 -321 0
-23 5 3 -65 -212 321 322 0
-23 5 3 65 66 -211 -321 0
-23 5 3 65 66 -211 321 322 0
-23 5 3 65 66 -211 -322 0
-23 5 3 65 66 211 212 -321 0
-23 5 3 65 66 211 212 -322 0
-23 5 3 65 66 -212 -321 0
-23 5 3 65 66 -212 321 322 0
-23 5 3 65 66 -212 -322 0
-23 5 3 -66 -211 321 322 0
-23 5 3 -66 -211 -322 0
-23 5 3 -66 211 212 -321 0
-23 5 3 -66 211 212 321 322 0
-23 5 3 -66 211 212 -322 0
-23 5 3 -66 -212 -321 0
-23 5 3 -66 -212 321 322 0
-23 5 3 -66 -212 -322 0
-23 5 -3 -65 -211 -321 0
-23 5 -3 -65 -211 321 322 0
-23 5 -3 -65 -211 -322 0
-23 5 -3 -65 211 212 -321 0
-23 5 -3 -65 211 212 321 322 0
-23 5 -3 -65 211 212 -322 0
-23 5 -3 -65 -212 321 322 0
-23 5 -3 -65 -212 -322 0
-23 5 -3 65 66 -211 -321 0
-23 5 -3 65 66 -211 321 322 0
-23 5 -3 65 66 -211 -322 0
-23 5 -3 65 66 211 212 -321 0
-23 5 -3 65 66 211 212 -322 0
-23 5 -3 65 66 -212 -321 0
-23 5 -3 65 66 -212 321 322 0
-23 5 -3 65 66 -212 -322 0
-23 5 -3 -66 -211 -321 0
-23 5 -3 -66 -211 321 322 0
-23 5 -3 -66 211 212 -321 0
-23 5 -3 -66 211 212 321 322 0
-23 5 -3 -66 211 212 -322 0
-23 5 -3 -66 -212 -321 0
-23 5 -3 -66 -212 321 322 0
-23 5 -3 -66 -212 -322 0
-23 -5 3 -65 -211 -321 0
-23 -5 3 -65 -211 321 322 0
-23 -5 3 -65 211 212 -321 0
-23 -5 3 -65 211 212 321 322 0
-23 -5 3 -65 211 212 -322 0
-23 -5 3 -65 -212 -321 0
-23 -5 3 -65 -212 321 322 0
-23 -5 3 -65 -212 -322 0
-23 -5 3 65 66 -211 -321 0
-23 -5 3 65 66 -211 321 322 0
-23 -5 3 65 66 -211 -322 0
-23 -5 3 65 66 211 212 -321 0
-23 -5 3 65 66 211 212 -322 0
-23 -5 3 65 66 -212 -321 0
-23 -5 3 65 66 -212 321 322 0
-23 -5 3 65 66 -212 -322 0
-23 -5 3 -66 -211 -321 0
-23 -5 3 -66 -211 321 322 0
-23 -5 3 -66 -211 -322 0
-23 -5 3 -66 211 212 -321 0
-23 -5 3 -66 211 212 321 322 0
-23 -5 3 -66 211 212 -322 0
-23 -5 3 -66 -212 321 322 0
-23 -5 3 -66 -212 -322 0
-23 -5 -3 -65 -211 321 322 0
-23 -5 -3 -65 -211 -322 0
-23 -5 -3 -65 211 212 -321 0
-23 -5 -3 -65 211 212 321 322 0
-23 -5 -3 -65 211 212 -322 0
-23 -5 -3 -65 -212 -321 0
-23 -5 -3 -65 -212 321 322 0
-23 -5 -3 -65 -212 -322 0
-23 -5 -3 65 66 -211 -321 0
-23 -5 -3 65 66 -211 321 322 0
-23 -5 -3 65 66 -211 -322 0
-23 -5 -3 65 66 211 212 -321 0
-23 -5 -3 65 66 211 212 -322 0
-23 -5 -3 65 66 -212 -321 0
-23 -5 -3 65 66 -212 321 322 0
-23 -5 -3 65 66 -212 -322 0
-23 -5 -3 -66 -211 -321 0
-23 -5 -3 -66 -211 321 322 0
-23 -5 -3 -66 -211 -322 0
-23 -5 -3 -66 211 212 -321 0
-23 -5 -3 -66 211 212 321 322 0
-23 -5 -3 -66 211 212 -322 0
-23 -5 -3 -66 -212 -321 0
-23 -5 -3 -66 -212 321 322 0
24 6 3 -67 -213 377 378 0
24 6 3 -67 -213 -378 0
24 6 3 -67 213 214 -377 0
24 6 3 -67 213 214 377 378 0
24 6 3 -67 213 214 -378 0
24 6 3 -67 -214 -377 0
24 6 3 -67 -214 377 378 0
24 6 3 -67 -214 -378 0
24 6 3 67 68 -213 -377 0
24 6 3 67 68 -213 377 378 0
24 6 3 67 68 -213 -378 0
24 6 3 67 68 213 214 -377 0
24 6 3 67 68 213 214 -378 0
24 6 3 67 68 -214 -377 0
24 6 3 67 68 -214 377 378 0
24 6 3 67 68 -214 -378 0
24 6 3 -68 -213 -377 0
24 6 3 -68 -213 377 378 0
24 6 3 -68 -213 -378 0
24 6 3 -68 213 214 -377 0
24 6 3 -68 213 214 377 378 0
24 6 3 -68 213 214 -378 0
24 6 3 -68 -214 -377 0
24 6 3 -68 -214 377 378 0
24 6 -3 -67 -213 -377 0
24 6 -3 -67 -213 377 378 0
24 6 -3 -67 213 214 -377 0
24 6 -3 -67 213 214 377 378 0
24 6 -3 -67 213 214 -378 0
24 6 -3 -67 -214 -377 0
24 6 -3 -67 -214 377 378 0
24 6 -3 -67 -214 -378 0
24 6 -3 67 68 -213 -377 0
24 6 -3 67 68 -213 377 378 0
24 6 -3 67 68 -213 -378 0
24 6 -3 67 68 213 214 -377 0
24 6 -3 67 68 213 214 -378 0
24 6 -3 67 68 -214 -377 0
24 6 -3 67 68 -214 377 378 0
24 6 -3 67 68 -214 -378 0
24 6 -3 -68 -213 -377 0
24 6 -3 -68 -213 377 378 0
24 6 -3 -68 -213 -378 0
24 6 -3 -68 213 214 -377 0
24 6 -3 -68 213 214 377 378 0
24 6 -3 -68 213 214 -378 0
24 6 -3 -68 -214 377 378 0
24 6 -3 -68 -214 -378 0
24 -6 3 -67 -213 -377 0
24 -6 3 -67 -213 377 378 0
24 -6 3 -67 -213 -378 0
24 -6 3 -67 213 214 -377 0
24 -6 3 -67 213 214 377 378 0
24 -6 3 -67 213 214 -378 0
24 -6 3 -67 -214 377 378 0
24 -6 3 -67 -214 -378 0
24 -6 3 67 68 -213 -377 0
24 -6 3 67 68 -213 377 378 0
24 -6 3 67 68 -213 -378 0
24 -6 3 67 68 213 214 -377 0
24 -6 3 67 68 213 214 -378 0
24 -6 3 67 68 -214 -377 0
24 -6 3 67 68 -214 377 378 0
24 -6 3 67 68 -214 -378 0
24 -6 3 -68 -213 -377 0
24 -6 3 -68 -213 377 378 0
24 -6 3 -68 213 214 -377 0
24 -6 3 -68 213 214 377 378 0
24 -6 3 -68 213 214 -378 0
24 -6 3 -68 -214 -377 0
24 -6 3 -68 -214 377 378 0
24 -6 3 -68 -214 -378 0
24 -6 -3 -67 -213 -377 0
24 -6 -3 -67 -213 377 378 0
24 -6 -3 -67 -213 -378 0
24 -6 -3 -67 213 214 -377 0
24 -6 -3 -67 213 214 377 378 0
24 -6 -3 -67 213 214 -378 0
24 -6 -3 -67 -214 -377 0
24 -6 -3 -67 -214 377 378 0
24 -6 -3 67 68 -213 -377 0
24 -6 -3 67 68 -213 377 378 0
24 -6 -3 67 68 -213 -378 0
24 -6 -3 67 68 213 214 -377 0
24 -6 -3 67 68 213 214 -378 0
24 -6 -3 67 68 -214 -377 0
24 -6 -3 67 68 -214 377 378 0
24 -6 -3 67 68 -214 -378 0
24 -6 -3 -68 -213 377 378 0
24 -6 -3 -68 -213 -378 0
24 -6 -3 -68 213 214 -377 0
24 -6 -3 -68 213 214 377 378 0
24 -6 -3 -68 213 214 -378 0
24 -6 -3 -68 -214 -377 0
24 -6 -3 -68 -214 377 378 0
24 -6 -3 -68 -214 -378 0
-24 6 3 -67 -213 -377 0
-24 6 3 -67 -213 377 378 0
-24 6 3 -67 -213 -378 0
-24 6 3 -67 213 214 -377 0
-24 6 3 -67 213 214 377 378 0
-24 6 3 -67 213 214 -378 0
-24 6 3 -67 -214 -377 0
-24 6 3 -67 -214 377 378 0
-24 6 3 67 68 -213 -377 0
-24 6 3 67 68 -213 377 378 0
-24 6 3 67 68 -213 -378 0
-24 6 3 67 68 213 214 -377 0
-24 6 3 67 68 213 214 -378 0
-24 6 3 67 68 -214 -377 0
-24 6 3 67 68 -214 377 378 0
-24 6 3 67 68 -214 -378 0
-24 6 3 -68 -213 377 378 0
-24 6 3 -68 -213 -378 0
-24 6 3 -68 213 214 -377 0
-24 6 3 -68 213 214 377 378 0
-24 6 3 -68 213 214 -378 0
-24 6 3 -68 -214 -377 0
-24 6 3 -68 -214 377 378 0
-24 6 3 -68 -214 -378 0
-24 6 -3 -67 -213 -377 0
-24 6 -3 -67 -213 377 378 0
-24 6 -3 -67 -213 -378 0
-24 6 -3 -67 213 214 -377 0
-24 6 -3 -67 213 214 377 378 0
-24 6 -3 -67 213 214 -378 0
-24 6 -3 -67 -214 377 378 0
-24 6 -3 -67 -214 -378 0
-24 6 -3 67 68 -213 -377 0
-24 6 -3 67 68 -213 377 378 0
-24 6 -3 67 68 -213 -378 0
-24 6 -3 67 68 213 214 -377 0
-24 6 -3 67 68 213 214 -378 0
-24 6 -3 67 68 -214 -377 0
-24 6 -3 67 68 -214 377 378 0
-24 6 -3 67 68 -214 -378 0
-24 6 -3 -68 -213 -377 0
-24 6 -3 -68 -213 377 378 0
-24 6 -3 -68 213 214 -377 0
-24 6 -3 -68 213 214 377 378 0
-24 6 -3 -68 213 214 -378 0
-24 6 -3 -68 -214 -377 0
-24 6 -3 -68 -214 377 378 0
-24 6 -3 -68 -214 -378 0
-24 -6 3 -67 -213 -377 0
-24 -6 3 -67 -213 377 378 0
-24 -6 3 -67 213 214 -377 0
-24 -6 3 -67 213 214 377 378 0
-24 -6 3 -67 213 214 -378 0
-24 -6 3 -67 -214 -377 0
-24 -6 3 -67 -214 377 378 0
-24 -6 3 -67 -214 -378 0
-24 -6 3 67 68 -213 -377 0
-24 -6 3 67 68 -213 377 378 0
-24 -6 3 67 68 -213 -378 0
-24 -6 3 67 68 213 214 -377 0
-24 -6 3 67 68 213 214 -378 0
-24 -6 3 67 68 -214 -377 0
-24 -6 3 67 68 -214 377 378 0
-24 -6 3 67 68 -214 -378 0
-24 -6 3 -68 -213 -377 0
-24 -6 3 -68 -213 377 378 0
-24 -6 3 -68 -213 -378 0
-24 -6 3 -68 213 214 -377 0
-24 -6 3 -68 213 214 377 378 0
-24 -6 3 -68 213 214 -378 0
-24 -6 3 -68 -214 377 378 0
-24 -6 3 -68 -214 -378 0
-24 -6 -3 -67 -213 377 378 0
-24 -6 -3 -67 -213 -378 0
-24 -6 -3 -67 213 214 -377 0
-24 -6 -3 -67 213 214 377 378 0
-24 -6 -3 -67 213 214 -378 0
-24 -6 -3 -67 -214 -377 0
-24 -6 -3 -67 -214 377 378 0
-24 -6 -3 -67 -214 -378 0
-24 -6 -3 67 68 -213 -377 0
-24 -6 -3 67 68 -213 377 378 0
-24 -6 -3 67 68 -213 -378 0
-24 -6 -3 67 68 213 214 -377 0
-24 -6 -3 67 68 213 214 -378 0
-24 -6 -3 67 68 -214 -377 0
-24 -6 -3 67 68 -214 377 378 0
-24 -6 -3 67 68 -214 -378 0
-24 -6 -3 -68 -213 -377 0
-24 -6 -3 -68 -213 377 378 0
-24 -6 -3 -68 -213 -378 0
-24 -6 -3 -68 213 214 -377 0
-24 -6 -3 -68 213 214 377 378 0
-24 -6 -3 -68 213 214 -378 0
-24 -6 -3 -68 -214 -377 0
-24 -6 -3 -68 -214 377 378 0
25 7 3 -69 -215 433 434 0
25 7 3 -69 -215 -434 0
25 7 3 -69 215 216 -433 0
25 7 3 -69 215 216 433 434 0
25 7 3 -69 215 216 -434 0
25 7 3 -69 -216 -433 0
25 7 3 -69 -216 433 434 0
25 7 3 -69 -216 -434 0
25 7 3 69 70 -215 -433 0
25 7 3 69 70 -215 433 434 0
25 7 3 69 70 -215 -434 0
25 7 3 69 70 215 216 -433 0
25 7 3 69 70 215 216 -434 0
25 7 3 69 70 -216 -433 0
25 7 3 69 70 -216 433 434 0
25 7 3 69 70 -216 -434 0
25 7 3 -70 -215 -433 0
25 7 3 -70 -215 433 434 0
25 7 3 -70 -215 -434 0
25 7 3 -70 215 216 -433 0
25 7 3 -70 215 216 433 434 0
25 7 3 -70 215 216 -434 0
25 7 3 -70 -216 -433 0
25 7 3 -70 -216 433 434 0
25 7 -3 -69 -215 -433 0
25 7 -3 -69 -215 433 434 0
25 7 -3 -69 215 216 -433 0
25 7 -3 -69 215 216 433 434 0
25 7 -3 -69 215 216 -434 0
25 7 -3 -69 -216 -433 0
25 7 -3 -69 -216 433 434 0
25 7 -3 -69 -216 -434 0
25 7 -3 69 70 -215 -433 0
25 7 -3 69 70 -215 433 434 0
25 7 -3 69 70 -215 -434 0
25 7 -3 69 70 215 216 -433 0
25 7 -3 69 70 215 216 -434 0
25 7 -3 69 70 -216 -433 0
25 7 -3 69 70 -216 433 434 0
25 7 -3 69 70 -216 -434 0
25 7 -3 -70 -215 -433 0
25 7 -3 -70 -215 433 434 0
25 7 -3 -70 -215 -434 0
25 7 -3 -70 215 216 -433 0
25 7 -3 -70 215 216 433 434 0
25 7 -3 -70 215 216 -434 0
25 7 -3 -70 -216 433 434 0
25 7 -3 -70 -216 -434 0
25 -7 3 -69 -215 -433 0
25 -7 3 -69 -215 433 434 0
25 -7 3 -69 -215 -434 0
25 -7 3 -69 215 216 -433 0
25 -7 3 -69 215 216 433 434 0
25 -7 3 -69 215 216 -434 0
25 -7 3 -69 -216 433 434 0
25 -7 3 -69 -216 -434 0
25 -7 3 69 70 -215 -433 0
25 -7 3 69 70 -215 433 434 0
25 -7 3 69 70 -215 -434 0
25 -7 3 69 70 215 216 -433 0
25 -7 3 69 70 215 216 -434 0
25 -7 3 69 70 -216 -433 0
25 -7 3 69 70 -216 433 434 0
25 -7 3 69 70 -216 -434 0
25 -7 3 -70 -215 -433 0
25 -7 3 -70 -215 433 434 0
25 -7 3 -70 215 216 -433 0
25 -7 3 -70 215 216 433 434 0
25 -7 3 -70 215 216 -434 0
25 -7 3 -70 -216 -433 0
25 -7 3 -70 -216 433 434 0
25 -7 3 -70 -216 -434 0
25 -7 -3 -69 -215 -433 0
25 -7 -3 -69 -215 433 434 0
25 -7 -3 -69 -215 -434 0
25 -7 -3 -69 215 216 -433 0
25 -7 -3 -69 215 216 433 434 0
25 -7 -3 -69 215 216 -434 0
25 -7 -3 -69 -216 -433 0
25 -7 -3 -69 -216 433 434 0
25 -7 -3 69 70 -215 -433 0
25 -7 -3 69 70 -215 433 434 0
25 -7 -3 69 70 -215 -434 0
25 -7 -3 69 70 215 216 -433 0
25 -7 -3 69 70 215 216 -434 0
25 -7 -3 69 70 -216 -433 0
25 -7 -3 69 70 -216 433 434 0
25 -7 -3 69 70 -216 -434 0
25 -7 -3 -70 -215 433 434 0
25 -7 -3 -70 -215 -434 0
25 -7 -3 -70 215 216 -433 0
25 -7 -3 -70 215 216 433 434 0
25 -7 -3 -70 215 216 -434 0
25 -7 -3 -70 -216 -433 0
25 -7 -3 -70 -216 433 434 0
25 -7 -3 -70 -216 -434 0
-25 7 3 -69 -215 -433 0
-25 7 3 -69 -215 433 434 0
-25 7 3 -69 -215 -434 0
-25 7 3 -69 215 216 -433 0
-25 7 3 -69 215 216 433 434 0
-25 7 3 -69 215 216 -434 0
-25 7 3 -69 -216 -433 0
-25 7 3 -69 -216 433 434 0
-25 7 3 69 70 -215 -433 0
-25 7 3 69 70 -215 433 434 0
-25 7 3 69 70 -215 -434 0
-25 7 3 69 70 215 216 -433 0
-25 7 3 69 70 215 216 -434 0
-25 7 3 69 70 -216 -433 0
-25 7 3 69 70 -216 433 434 0
-25 7 3 69 70 -216 -434 0
-25 7 3 -70 -215 433 434 0
-25 7 3 -70 -215 -434 0
-25 7 3 -70 215 216 -433 0
-25 7 3 -70 215 216 433 434 0
-25 7 3 -70 215 216 -434 0
-25 7 3 -70 -216 -433 0
-25 7 3 -70 -216 433 434 0
-25 7 3 -70 -216 -434 0
-25 7 -3 -69 -215 -433 0
-25 7 -3 -69 -215 433 434 0
-25 7 -3 -69 -215 -434 0
-25 7 -3 -69 215 216 -433 0
-25 7 -3 -69 215 216 433 434 0
-25 7 -3 -69 215 216 -434 0
-25 7 -3 -69 -216 433 434 0
-25 7 -3 -69 -216 -434 0
-25 7 -3 69 70 -215 -433 0
-25 7 -3 69 70 -215 433 434 0
-25 7 -3 69 70 -215 -434 0
-25 7 -3 69 70 215 216 -433 0
-25 7 -3 69 70 215 216 -434 0
-25 7 -3 69 70 -216 -433 0
-25 7 -3 69 70 -216 433 434 0
-25 7 -3 69 70 -216 -434 0
-25 7 -3 -70 -215 -433 0
-25 7 -3 -70 -215 433 434 0
-25 7 -3 -70 215 216 -433 0
-25 7 -3 -70 215 216 433 434 0
-25 7 -3 -70 215 216 -434 0
-25 7 -3 -70 -216 -433 0
-25 7 -3 -70 -216 433 434 0
-25 7 -3 -70 -216 -434 0
-25 -7 3 -69 -215 -433 0
-25 -7 3 -69 -215 433 434 0
-25 -7 3 -69 215 216 -433 0
-25 -7 3 -69 215 216 433 434 0
-25 -7 3 -69 215 216 -434 0
-25 -7 3 -69 -216 -433 0
-25 -7 3 -69 -216 433 434 0
-25 -7 3 -69 -216 -434 0
-25 -7 3 69 70 -215 -433 0
-25 -7 3 69 70 -215 433 434 0
-25 -7 3 69 70 -215 -434 0
-25 -7 3 69 70 215 216 -433 0
-25 -7 3 69 70 215 216 -434 0
-25 -7 3 69 70 -216 -433 0
-25 -7 3 69 70 -216 433 434 0
-25 -7 3 69 70 -216 -434 0
-25 -7 3 -70 -215 -433 0
-25 -7 3 -70 -215 433 434 0
-25 -7 3 -70 -215 -434 0
-25 -7 3 -70 215 216 -433 0
-25 -7 3 -70 215 216 433 434 0
-25 -7 3 -70 215 216 -434 0
-25 -7 3 -70 -216 433 434 0
-25 -7 3 -70 -216 -434 0
-25 -7 -3 -69 -215 433 434 0
-25 -7 -3 -69 -215 -434 0
-25 -7 -3 -69 215 216 -433 0
-25 -7 -3 -69 215 216 433 434 0
-25 -7 -3 -69 215 216 -434 0
-25 -7 -3 -69 -216 -433 0
-25 -7 -3 -69 -216 433 434 0
-25 -7 -3 -69 -216 -434 0
-25 -7 -3 69 70 -215 -433 0
-25 -7 -3 69 70 -215 433 434 0
-25 -7 -3 69 70 -215 -434 0
-25 -7 -3 69 70 215 216 -433 0
-25 -7 -3 69 70 215 216 -434 0
-25 -7 -3 69 70 -216 -433 0
-25 -7 -3 69 70 -216 433 434 0
-25 -7 -3 69 70 -216 -434 0
-25 -7 -3 -70 -215 -433 0
-25 -7 -3 -70 -215 433 434 0
-25 -7 -3 -70 -215 -434 0
-25 -7 -3 -70 215 216 -433 0
-25 -7 -3 -70 215 216 433 434 0
-25 -7 -3 -70 215 216 -434 0
-25 -7 -3 -70 -216 -433 0
-25 -7 -3 -70 -216 433 434 0
26 8 3 -71 -217 489 490 0
26 8 3 -71 -217 -490 0
26 8 3 -71 217 218 -489 0
26 8 3 -71 217 218 489 490 0
26 8 3 -71 217 218 -490 0
26 8 3 -71 -218 -489 0
26 8 3 -71 -218 489 490 0
26 8 3 -71 -218 -490 0
26 8 3 71 72 -217 -489 0
26 8 3 71 72 -217 489 490 0
26 8 3 71 72 -217 -490 0
26 8 3 71 72 217 218 -489 0
26 8 3 71 72 217 218 -490 0
26 8 3 71 72 -218 -489 0
26 8 3 71 72 -218 489 490 0
26 8 3 71 72 -218 -490 0
26 8 3 -72 -217 -489 0
26 8 3 -72 -217 489 490 0
26 8 3 -72 -217 -490 0
26 8 3 -72 217 218 -489 0
26 8 3 -72 217 218 489 490 0
26 8 3 -72 217 218 -490 0
26 8 3 -72 -218 -489 0
26 8 3 -72 -218 489 490 0
26 8 -3 -71 -217 -489 0
26 8 -3 -71 -217 489 490 0
26 8 -3 -71 217 218 -489 0
26 8 -3 -71 217 218 489 490 0
26 8 -3 -71 217 218 -490 0
26 8 -3 -71 -218 -489 0
26 8 -3 -71 -218 489 490 0
26 8 -3 -71 -218 -490 0
26 8 -3 71 72 -217 -489 0
26 8 -3 71 72 -217 489 490 0
26 8 -3 71 72 -217 -490 0
26 8 -3 71 72 217 218 -489 0
26 8 -3 71 72 217 218 -490 0
26 8 -3 71 72 -218 -489 0
26 8 -3 71 72 -218 489 490 0
26 8 -3 71 72 -218 -490 0
26 8 -3 -72 -217 -489 0
26 8 -3 -72 -217 489 490 0
26 8 -3 -72 -217 -490 0
26 8 -3 -72 217 218 -489 0
26 8 -3 -72 217 218 489 490 0
26 8 -3 -72 217 218 -490 0
26 8 -3 -72 -218 489 490 0
26 8 -3 -72 -218 -490 0
26 -8 3 -71 -217 -489 0
26 -8 3 -71 -217 489 490 0
26 -8 3 -71 -217 -490 0
26 -8 3 -71 217 218 -489 0
26 -8 3 -71 217 218 489 490 0
26 -8 3 -71 217 218 -490 0
26 -8 3 -71 -218 489 490 0
26 -8 3 -71 -218 -490 0
26 -8 3 71 72 -217 -489 0
26 -8 3 71 72 -217 489 490 0
26 -8 3 71 72 -217 -490 0
26 -8 3 71 72 217 218 -489 0
26 -8 3 71 72 217 218 -490 0
26 -8 3 71 72 -218 -489 0
26 -8 3 71 72 -218 489 490 0
26 -8 3 71 72 -218 -490 0
26 -8 3 -72 -217 -489 0
26 -8 3 -72 -217 489 490 0
26 -8 3 -72 217 218 -489 0
26 -8 3 -72 217 218 489 490 0
26 -8 3 -72 217 218 -490 0
26 -8 3 -72 -218 -489 0
26 -8 3 -72 -218 489 490 0
26 -8 3 -72 -218 -490 0
26 -8 -3 -71 -217 -489 0
26 -8 -3 -71 -217 489 490 0
26 -8 -3 -71 -217 -490 0
26 -8 -3 -71 217 218 -489 0
26 -8 -3 -71 217 218 489 490 0
26 -8 -3 -71 217 218 -490 0
26 -8 -3 -71 -218 -489 0
26 -8 -3 -71 -218 489 490 0
26 -8 -3 71 72 -217 -489 0
26 -8 -3 71 72 -217 489 490 0
26 -8 -3 71 72 -217 -490 0
26 -8 -3 71 72 217 218 -489 0
26 -8 -3 71 72 217 218 -490 0
26 -8 -3 71 72 -218 -489 0
26 -8 -3 71 72 -218 489 490 0
26 -8 -3 71 72 -218 -490 0
26 -8 -3 -72 -217 489 490 0
26 -8 -3 -72 -217 -490 0
26 -8 -3 -72 217 218 -489 0
26 -8 -3 -72 217 218 489 490 0
26 -8 -3 -72 217 218 -490 0
26 -8 -3 -72 -218 -489 0
26 -8 -3 -72 -218 489 490 0
26 -8 -3 -72 -218 -490 0
-26 8 3 -71 -217 -489 0
-26 8 3 -71 -217 489 490 0
-26 8 3 -71 -217 -490 0
-26 8 3 -71 217 218 -489 0
-26 8 3 -71 217 218 489 490 0
-26 8 3 -71 217 218 -490 0
-26 8 3 -71 -218 -489 0
-26 8 3 -71 -218 489 490 0
-26 8 3 71 72 -217 -489 0
-26 8 3 71 72 -217 489 490 0
-26 8 3 71 72 -217 -490 0
-26 8 3 71 72 217 218 -489 0
-26 8 3 71 72 217 218 -490 0
-26 8 3 71 72 -218 -489 0
-26 8 3 71 72 -218 489 490 0
-26 8 3 71 72 -218 -490 0
-26 8 3 -72 -217 489 490 0
-26 8 3 -72 -217 -490 0
-26 8 3 -72 217 218 -489 0
-26 8 3 -72 217 218 489 490 0
-26 8 3 -72 217 218 -490 0
-26 8 3 -72 -218 -489 0
-26 8 3 -72 -218 489 490 0
-26 8 3 -72 -218 -490 0
-26 8 -3 -71 -217 -489 0
-26 8 -3 -71 -217 489 490 0
-26 8 -3 -71 -217 -490 0
-26 8 -3 -71 217 218 -489 0
-26 8 -3 -71 217 218 489 490 0
-26 8 -3 -71 217 218 -490 0
-26 8 -3 -71 -218 489 490 0
-26 8 -3 -71 -218 -490 0
-26 8 -3 71 72 -217 -489 0
-26 8 -3 71 72 -217 489 490 0
-26 8 -3 71 72 -217 -490 0
-26 8 -3 71 72 217 218 -489 0
-26 8 -3 71 72 217 218 -490 0
-26 8 -3 71 72 -218 -489 0
-26 8 -3 71 72 -218 489 490 0
-26 8 -3 71 72 -218 -490 0
-26 8 -3 -72 -217 -489 0
-26 8 -3 -72 -217 489 490 0
-26 8 -3 -72 217 218 -489 0
-26 8 -3 -72 217 218 489 490 0
-26 8 -3 -72 217 218 -490 0
-26 8 -3 -72 -218 -489 0
-26 8 -3 -72 -218 489 490 0
-26 8 -3 -72 -218 -490 0
-26 -8 3 -71 -217 -489 0
-26 -8 3 -71 -217 489 490 0
-26 -8 3 -71 217 218 -489 0
-26 -8 3 -71 217 218 489 490 0
-26 -8 3 -71 217 218 -490 0
-26 -8 3 -71 -218 -489 0
-26 -8 3 -71 -218 489 490 0
-26 -8 3 -71 -218 -490 0
-26 -8 3 71 72 -217 -489 0
-26 -8 3 71 72 -217 489 490 0
-26 -8 3 71 72 -217 -490 0
-26 -8 3 71 72 217 218 -489 0
-26 -8 3 71 72 217 218 -490 0
-26 -8 3 71 72 -218 -489 0
-26 -8 3 71 72 -218 489 490 0
-26 -8 3 71 72 -218 -490 0
-26 -8 3 -72 -217 -489 0
-26 -8 3 -72 -217 489 490 0
-26 -8 3 -72 -217 -490 0
-26 -8 3 -72 217 218 -489 0
-26 -8 3 -72 217 218 489 490 0
-26 -8 3 -72 217 218 -490 0
-26 -8 3 -72 -218 489 490 0
-26 -8 3 -72 -218 -490 0
-26 -8 -3 -71 -217 489 490 0
-26 -8 -3 -71 -217 -490 0
-26 -8 -3 -71 217 218 -489 0
-26 -8 -3 -71 217 218 489 490 0
-26 -8 -3 -71 217 218 -490 0
-26 -8 -3 -71 -218 -489 0
-26 -8 -3 -71 -218 489 490 0
-26 -8 -3 -71 -218 -490 0
-26 -8 -3 71 72 -217 -489 0
-26 -8 -3 71 72 -217 489 490 0
-26 -8 -3 71 72 -217 -490 0
-26 -8 -3 71 72 217 218 -489 0
-26 -8 -3 71 72 217 218 -490 0
-26 -8 -3 71 72 -218 -489 0
-26 -8 -3 71 72 -218 489 490 0
-26 -8 -3 71 72 -218 -490 0
-26 -8 -3 -72 -217 -489 0
-26 -8 -3 -72 -217 489 490 0
-26 -8 -3 -72 -217 -490 0
-26 -8 -3 -72 217 218 -489 0
-26 -8 -3 -72 217 218 489 490 0
-26 -8 -3 -72 217 218 -490 0
-26 -8 -3 -72 -218 -489 0
-26 -8 -3 -72 -218 489 490 0
27 5 4 -73 -267 323 324 0
27 5 4 -73 -267 -324 0
27 5 4 -73 267 268 -323 0
27 5 4 -73 267 268 323 324 0
27 5 4 -73 267 268 -324 0
27 5 4 -73 -268 -323 0
27 5 4 -73 -268 323 324 0
27 5 4 -73 -268 -324 0
27 5 4 73 74 -267 -323 0
27 5 4 73 74 -267 323 324 0
27 5 4 73 74 -267 -324 0
27 5 4 73 74 267 268 -323 0
27 5 4 73 74 267 268 -324 0
27 5 4 73 74 -268 -323 0
27 5 4 73 74 -268 323 324 0
27 5 4 73 74 -268 -324 0
27 5 4 -74 -267 -323 0
27 5 4 -74 -267 323 324 0
27 5 4 -74 -267 -324 0
27 5 4 -74 267 268 -323 0
27 5 4 -74 267 268 323 324 0
27 5 4 -74 267 268 -324 0
27 5 4 -74 -268 -323 0
27 5 4 -74 -268 323 324 0
27 5 -4 -73 -267 -323 0
27 5 -4 -73 -267 323 324 0
27 5 -4 -73 267 268 -323 0
27 5 -4 -73 267 268 323 324 0
27 5 -4 -73 267 268 -324 0
27 5 -4 -73 -268 -323 0
27 5 -4 -73 -268 323 324 0
27 5 -4 -73 -268 -324 0
27 5 -4 73 74 -267 -323 0
27 5 -4 73 74 -267 323 324 0
27 5 -4 73 74 -267 -324 0
27 5 -4 73 74 267 268 -323 0
27 5 -4 73 74 267 268 -324 0
27 5 -4 73 74 -268 -323 0
27 5 -4 73 74 -268 323 324 0
27 5 -4 73 74 -268 -324 0
27 5 -4 -74 -267 -323 0
27 5 -4 -74 -267 323 324 0
27 5 -4 -74 -267 -324 0
27 5 -4 -74 267 268 -323 0
27 5 -4 -74 267 268 323 324 0
27 5 -4 -74 267 268 -324 0
27 5 -4 -74 -268 323 324 0
27 5 -4 -74 -268 -324 0
27 -5 4 -73 -267 -323 0
27 -5 4 -73 -267 323 324 0
27 -5 4 -73 -267 -324 0
27 -5 4 -73 267 268 -323 0
27 -5 4 -73 267 268 323 324 0
27 -5 4 -73 267 268 -324 0
27 -5 4 -73 -268 323 324 0
27 -5 4 -73 -268 -324 0
27 -5 4 73 74 -267 -323 0
27 -5 4 73 74 -267 323 324 0
27 -5 4 73 74 -267 -324 0
27 -5 4 73 74 267 268 -323 0
27 -5 4 73 74 267 268 -324 0
27 -5 4 73 74 -268 -323 0
27 -5 4 73 74 -268 323 324 0
27 -5 4 73 74 -268 -324 0
27 -5 4 -74 -267 -323 0
27 -5 4 -74 -267 323 324 0
27 -5 4 -74 267 268 -323 0
27 -5 4 -74 267 268 323 324 0
27 -5 4 -74 267 268 -324 0
27 -5 4 -74 -268 -323 0
27 -5 4 -74 -268 323 324 0
27 -5 4 -74 -268 -324 0
27 -5 -4 -73 -267 -323 0
27 -5 -4 -73 -267 323 324 0
27 -5 -4 -73 -267 -324 0
27 -5 -4 -73 267 268 -323 0
27 -5 -4 -73 267 268 323 324 0
27 -5 -4 -73 267 268 -324 0
27 -5 -4 -73 -268 -323 0
27 -5 -4 -73 -268 323 324 0
27 -5 -4 73 74 -267 -323 0
27 -5 -4 73 74 -267 323 324 0
27 -5 -4 73 74 -267 -324 0
27 -5 -4 73 74 267 268 -323 0
27 -5 -4 73 74 267 268 -324 0
27 -5 -4 73 74 -268 -323 0
27 -5 -4 73 74 -268 323 324 0
27 -5 -4 73 74 -268 -324 0
27 -5 -4 -74 -267 323 324 0
27 -5 -4 -74 -267 -324 0
27 -5 -4 -74 267 268 -323 0
27 -5 -4 -74 267 268 323 324 0
27 -5 -4 -74 267 268 -324 0
27 -5 -4 -74 -268 -323 0
27 -5 -4 -74 -268 323 324 0
27 -5 -4 -74 -268 -324 0
-27 5 4 -73 -267 -323 0
-27 5 4 -73 -267 323 324 0
-27 5 4 -73 -267 -324 0
-27 5 4 -73 267 268 -323 0
-27 5 4 -73 267 268 323 324 0
-27 5 4 -73 267 268 -324 0
-27 5 4 -73 -268 -323 0
-27 5 4 -73 -268 323 324 0
-27 5 4 73 74 -267 -323 0
-27 5 4 73 74 -267 323 324 0
-27 5 4 73 74 -267 -324 0
-27 5 4 73 74 267 268 -323 0
-27 5 4 73 74 267 268 -324 0
-27 5 4 73 74 -268 -323 0
-27 5 4 73 74 -268 323 324 0
-27 5 4 73 74 -268 -324 0
-27 5 4 -74 -267 323 324 0
-27 5 4 -74 -267 -324 0
-27 5 4 -74 267 268 -323 0
-27 5 4 -74 267 268 323 324 0
-27 5 4 -74 267 268 -324 0
-27 5 4 -74 -268 -323 0
-27 5 4 -74 -268 323 324 0
-27 5 4 -74 -268 -324 0
-27 5 -4 -73 -267 -323 0
-27 5 -4 -73 -267 323 324 0
-27 5 -4 -73 -267 -324 0
-27 5 -4 -73 267 268 -323 0
-27 5 -4 -73 267 268 323 324 0
-27 5 -4 -73 267 268 -324 0
-27 5 -4 -73 -268 323 324 0
-27 5 -4 -73 -268 -324 0
-27 5 -4 73 74 -267 -323 0
-27 5 -4 73 74 -267 323 324 0
-27 5 -4 73 74 -267 -324 0
-27 5 -4 73 74 267 268 -323 0
-27 5 -4 73 74 267 268 -324 0
-27 5 -4 73 74 -268 -323 0
-27 5 -4 73 74 -268 323 324 0
-27 5 -4 73 74 -268 -324 0
-27 5 -4 -74 -267 -323 0
-27 5 -4 -74 -267 323 324 0
-27 5 -4 -74 267 268 -323 0
-27 5 -4 -74 267 268 323 324 0
-27 5 -4 -74 267 268 -324 0
-27 5 -4 -74 -268 -323 0
-27 5 -4 -74 -268 323 324 0
-27 5 -4 -74 -268 -324 0
-27 -5 4 -73 -267 -323 0
-27 -5 4 -73 -267 323 324 0
-27 -5 4 -73 267 268 -323 0
-27 -5 4 -73 267 268 323 324 0
-27 -5 4 -73 267 268 -324 0
-27 -5 4 -73 -268 -323 0
-27 -5 4 -73 -268 323 324 0
-27 -5 4 -73 -268 -324 0
-27 -5 4 73 74 -267 -323 0
-27 -5 4 73 74 -267 323 324 0
-27 -5 4 73 74 -267 -324 0
-27 -5 4 73 74 267 268 -323 0
-27 -5 4 73 74 267 268 -324 0
-27 -5 4 73 74 -268 -323 0
-27 -5 4 73 74 -268 323 324 0
-27 -5 4 73 74 -268 -324 0
-27 -5 4 -74 -267 -323 0
-27 -5 4 -74 -267 323 324 0
-27 -5 4 -74 -267 -324 0
-27 -5 4 -74 267 268 -323 0
-27 -5 4 -74 267 268 323 324 0
-27 -5 4 -74 267 268 -324 0
-27 -5 4 -74 -268 323 324 0
-27 -5 4 -74 -268 -324 0
-27 -5 -4 -73 -267 323 324 0
-27 -5 -4 -73 -267 -324 0
-27 -5 -4 -73 267 268 -323 0
-27 -5 -4 -73 267 268 323 324 0
-27 -5 -4 -73 267 268 -324 0
-27 -5 -4 -73 -268 -323 0
-27 -5 -4 -73 -268 323 324 0
-27 -5 -4 -73 -268 -324 0
-27 -5 -4 73 74 -267 -323 0
-27 -5 -4 73 74 -267 323 324 0
-27 -5 -4 73 74 -267 -324 0
-27 -5 -4 73 74 267 268 -323 0
-27 -5 -4 73 74 267 268 -324 0
-27 -5 -4 73 74 -268 -323 0
-27 -5 -4 73 74 -268 323 324 0
-27 -5 -4 73 74 -268 -324 0
-27 -5 -4 -74 -267 -323 0
-27 -5 -4 -74 -267 323 324 0
-27 -5 -4 -74 -267 -324 0
-27 -5 -4 -74 267 268 -323 0
-27 -5 -4 -74 267 268 323 324 0
-27 -5 -4 -74 267 268 -324 0
-27 -5 -4 -74 -268 -323 0
-27 -5 -4 -74 -268 323 324 0
28 6 4 -75 -269 379 380 0
28 6 4 -75 -269 -380 0
28 6 4 -75 269 270 -379 0
28 6 4 -75 269 270 379 380 0
28 6 4 -75 269 270 -380 0
28 6 4 -75 -270 -379 0
28 6 4 -75 -270 379 380 0
28 6 4 -75 -270 -380 0
28 6 4 75 76 -269 -379 0
28 6 4 75 76 -269 379 380 0
28 6 4 75 76 -269 -380 0
28 6 4 75 76 269 270 -379 0
28 6 4 75 76 269 270 -380 0
28 6 4 75 76 -270 -379 0
28 6 4 75 76 -270 379 380 0
28 6 4 75 76 -270 -380 0
28 6 4 -76 -269 -379 0
28 6 4 -76 -269 379 380 0
28 6 4 -76 -269 -380 0
28 6 4 -76 269 270 -379 0
28 6 4 -76 269 270 379 380 0
28 6 4 -76 269 270 -380 0
28 6 4 -76 -270 -379 0
28 6 4 -76 -270 379 380 0
28 6 -4 -75 -269 -379 0
28 6 -4 -75 -269 379 380 0
28 6 -4 -75 269 270 -379 0
28 6 -4 -75 269 270 379 380 0
28 6 -4 -75 269 270 -380 0
28 6 -4 -75 -270 -379 0
28 6 -4 -75 -270 379 380 0
28 6 -4 -75 -270 -380 0
28 6 -4 75 76 -269 -379 0
28 6 -4 75 76 -269 379 380 0
28 6 -4 75 76 -269 -380 0
28 6 -4 75 76 269 270 -379 0
28 6 -4 75 76 269 270 -380 0
28 6 -4 75 76 -270 -379 0
28 6 -4 75 76 -270 379 380 0
28 6 -4 75 76 -270 -380 0
28 6 -4 -76 -269 -379 0
28 6 -4 -76 -269 379 380 0
28 6 -4 -76 -269 -380 0
28 6 -4 -76 269 270 -379 0
28 6 -4 -76 269 270 379 380 0
28 6 -4 -76 269 270 -380 0
28 6 -4 -76 -270 379 380 0
28 6 -4 -76 -270 -380 0
28 -6 4 -75 -269 -379 0
28 -6 4 -75 -269 379 380 0
28 -6 4 -75 -269 -380 0
28 -6 4 -75 269 270 -379 0
28 -6 4 -75 269 270 379 380 0
28 -6 4 -75 269 270 -380 0
28 -6 4 -75 -270 379 380 0
28 -6 4 -75 -270 -380 0
28 -6 4 75 76 -269 -379 0
28 -6 4 75 76 -269 379 380 0
28 -6 4 75 76 -269 -380 0
28 -6 4 75 76 269 270 -379 0
28 -6 4 75 76 269 270 -380 0
28 -6 4 75 76 -270 -379 0
28 -6 4 75 76 -270 379 380 0
28 -6 4 75 76 -270 -380 0
28 -6 4 -76 -269 -379 0
28 -6 4 -76 -269 379 380 0
28 -6 4 -76 269 270 -379 0
28 -6 4 -76 269 270 379 380 0
28 -6 4 -76 269 270 -380 0
28 -6 4 -76 -270 -379 0
28 -6 4 -76 -270 379 380 0
28 -6 4 -76 -270 -380 0
28 -6 -4 -75 -269 -379 0
28 -6 -4 -75 -269 379 380 0
28 -6 -4 -75 -269 -380 0
28 -6 -4 -75 269 270 -379 0
28 -6 -4 -75 269 270 379 380 0
28 -6 -4 -75 269 270 -380 0
28 -6 -4 -75 -270 -379 0
28 -6 -4 -75 -270 379 380 0
28 -6 -4 75 76 -269 -379 0
28 -6 -4 75 76 -269 379 380 0
28 -6 -4 75 76 -269 -380 0
28 -6 -4 75 76 269 270 -379 0
28 -6 -4 75 76 269 270 -380 0
28 -6 -4 75 76 -270 -379 0
28 -6 -4 75 76 -270 379 380 0
28 -6 -4 75 76 -270 -380 0
28 -6 -4 -76 -269 379 380 0
28 -6 -4 -76 -269 -380 0
28 -6 -4 -76 269 270 -379 0
28 -6 -4 -76 269 270 379 380 0
28 -6 -4 -76 269 270 -380 0
28 -6 -4 -76 -270 -379 0
28 -6 -4 -76 -270 379 380 0
28 -6 -4 -76 -270 -380 0
-28 6 4 -75 -269 -379 0
-28 6 4 -75 -269 379 380 0
-28 6 4 -75 -269 -380 0
-28 6 4 -75 269 270 -379 0
-28 6 4 -75 269 270 379 380 0
-28 6 4 -75 269 270 -380 0
-28 6 4 -75 -270 -379 0
-28 6 4 -75 -270 379 380 0
-28 6 4 75 76 -269 -379 0
-28 6 4 75 76 -269 379 380 0
-28 6 4 75 76 -269 -380 0
-28 6 4 75 76 269 270 -379 0
-28 6 4 75 76 269 270 -380 0
-28 6 4 75 76 -270 -379 0
-28 6 4 75 76 -270 379 380 0
-28 6 4 75 76 -270 -380 0
-28 6 4 -76 -269 379 380 0
-28 6 4 -76 -269 -380 0
-28 6 4 -76 269 270 -379 0
-28 6 4 -76 269 270 379 380 0
-28 6 4 -76 269 270 -380 0
-28 6 4 -76 -270 -379 0
-28 6 4 -76 -270 379 380 0
-28 6 4 -76 -270 -380 0
-28 6 -4 -75 -269 -379 0
-28 6 -4 -75 -269 379 380 0
-28 6 -4 -75 -269 -380 0
-28 6 -4 -75 269 270 -379 0
-28 6 -4 -75 269 270 379 380 0
-28 6 -4 -75 269 270 -380 0
-28 6 -4 -75 -270 379 380 0
-28 6 -4 -75 -270 -380 0
-28 6 -4 75 76 -269 -379 0
-28 6 -4 75 76 -269 379 380 0
-28 6 -4 75 76 -269 -380 0
-28 6 -4 75 76 269 270 -379 0
-28 6 -4 75 76 269 270 -380 0
-28 6 -4 75 76 -270 -379 0
-28 6 -4 75 76 -270 379 380 0
-28 6 -4 75 76 -270 -380 0
-28 6 -4 -76 -269 -379 0
-28 6 -4 -76 -269 379 380 0
-28 6 -4 -76 269 270 -379 0
-28 6 -4 -76 269 270 379 380 0
-28 6 -4 -76 269 270 -380 0
-28 6 -4 -76 -270 -379 0
-28 6 -4 -76 -270 379 380 0
-28 6 -4 -76 -270 -380 0
-28 -6 4 -75 -269 -379 0
-28 -6 4 -75 -269 379 380 0
-28 -6 4 -75 269 270 -379 0
-28 -6 4 -75 269 270 379 380 0
-28 -6 4 -75 269 270 -380 0
-28 -6 4 -75 -270 -379 0
-28 -6 4 -75 -270 379 380 0
-28 -6 4 -75 -270 -380 0
-28 -6 4 75 76 -269 -379 0
-28 -6 4 75 76 -269 379 380 0
-28 -6 4 75 76 -269 -380 0
-28 -6 4 75 76 269 270 -379 0
-28 -6 4 75 76 269 270 -380 0
-28 -6 4 75 76 -270 -379 0
-28 -6 4 75 76 -270 379 380 0
-28 -6 4 75 76 -270 -380 0
-28 -6 4 -76 -269 -379 0
-28 -6 4 -76 -269 379 380 0
-28 -6 4 -76 -269 -380 0
-28 -6 4 -76 269 270 -379 0
-28 -6 4 -76 269 270 379 380 0
-28 -6 4 -76 269 270 -380 0
-28 -6 4 -76 -270 379 380 0
-28 -6 4 -76 -270 -380 0
-28 -6 -4 -75 -269 379 380 0
-28 -6 -4 -75 -269 -380 0
-28 -6 -4 -75 269 270 -379 0
-28 -6 -4 -75 269 270 379 380 0
-28 -6 -4 -75 269 270 -380 0
-28 -6 -4 -75 -270 -379 0
-28 -6 -4 -75 -270 379 380 0
-28 -6 -4 -75 -270 -380 0
-28 -6 -4 75 76 -269 -379 0
-28 -6 -4 75 76 -269 379 380 0
-28 -6 -4 75 76 -269 -380 0
-28 -6 -4 75 76 269 270 -379 0
-28 -6 -4 75 76 269 270 -380 0
-28 -6 -4 75 76 -270 -379 0
-28 -6 -4 75 76 -270 379 380 0
-28 -6 -4 75 76 -270 -380 0
-28 -6 -4 -76 -269 -379 0
-28 -6 -4 -76 -269 379 380 0
-28 -6 -4 -76 -269 -380 0
-28 -6 -4 -76 269 270 -379 0
-28 -6 -4 -76 269 270 379 380 0
-28 -6 -4 -76 269 270 -380 0
-28 -6 -4 -76 -270 -379 0
-28 -6 -4 -76 -270 379 380 0
29 7 4 -77 -271 435 436 0
29 7 4 -77 -271 -436 0
29 7 4 -77 271 272 -435 0
29 7 4 -77 271 272 435 436 0
29 7 4 -77 271 272 -436 0
29 7 4 -77 -272 -435 0
29 7 4 -77 -272 435 436 0
29 7 4 -77 -272 -436 0
29 7 4 77 78 -271 -435 0
29 7 4 77 78 -271 435 436 0
29 7 4 77 78 -271 -436 0
29 7 4 77 78 271 272 -435 0
29 7 4 77 78 271 272 -436 0
29 7 4 77 78 -272 -435 0
29 7 4 77 78 -272 435 436 0
29 7 4 77 78 -272 -436 0
29 7 4 -78 -271 -435 0
29 7 4 -78 -271 435 436 0
29 7 4 -78 -271 -436 0
29 7 4 -78 271 272 -435 0
29 7 4 -78 271 272 435 436 0
29 7 4 -78 271 272 -436 0
29 7 4 -78 -272 -435 0
29 7 4 -78 -272 435 436 0
29 7 -4 -77 -271 -435 0
29 7 -4 -77 -271 435 436 0
29 7 -4 -77 271 272 -435 0
29 7 -4 -77 271 272 435 436 0
29 7 -4 -77 271 272 -436 0
29 7 -4 -77 -272 -435 0
29 7 -4 -77 -272 435 436 0
29 7 -4 -77 -272 -436 0
29 7 -4 77 78 -271 -435 0
29 7 -4 77 78 -271 435 436 0
29 7 -4 77 78 -271 -436 0
29 7 -4 77 78 271 272 -435 0
29 7 -4 77 78 271 272 -436 0
29 7 -4 77 78 -272 -435 0
29 7 -4 77 78 -272 435 436 0
29 7 -4 77 78 -272 -436 0
29 7 -4 -78 -271 -435 0
29 7 -4 -78 -271 435 436 0
29 7 -4 -78 -271 -436 0
29 7 -4 -78 271 272 -435 0
29 7 -4 -78 271 272 435 436 0
29 7 -4 -78 271 272 -436 0
29 7 -4 -78 -272 435 436 0
29 7 -4 -78 -272 -436 0
29 -7 4 -77 -271 -435 0
29 -7 4 -77 -271 435 436 0
29 -7 4 -77 -271 -436 0
29 -7 4 -77 271 272 -435 0
29 -7 4 -77 271 272 435 436 0
29 -7 4 -77 271 272 -436 0
29 -7 4 -77 -272 435 436 0
29 -7 4 -77 -272 -436 0
29 -7 4 77 78 -271 -435 0
29 -7 4 77 78 -271 435 436 0
29 -7 4 77 78 -271 -436 0
29 -7 4 77 78 271 272 -435 0
29 -7 4 77 78 271 272 -436 0
29 -7 4 77 78 -272 -435 0
29 -7 4 77 78 -272 435 436 0
29 -7 4 77 78 -272 -436 0
29 -7 4 -78 -271 -435 0
29 -7 4 -78 -271 435 436 0
29 -7 4 -78 271 272 -435 0
29 -7 4 -78 271 272 435 436 0
29 -7 4 -78 271 272 -436 0
29 -7 4 -78 -272 -435 0
29 -7 4 -78 -272 435 436 0
29 -7 4 -78 -272 -436 0
29 -7 -4 -77 -271 -435 0
29 -7 -4 -77 -271 435 436 0
29 -7 -4 -77 -271 -436 0
29 -7 -4 -77 271 272 -435 0
29 -7 -4 -77 271 272 435 436 0
29 -7 -4 -77 271 272 -436 0
29 -7 -4 -77 -272 -435 0
29 -7 -4 -77 -272 435 436 0
29 -7 -4 77 78 -271 -435 0
29 -7 -4 77 78 -271 435 436 0
29 -7 -4 77 78 -271 -436 0
29 -7 -4 77 78 271 272 -435 0
29 -7 -4 77 78 271 272 -436 0
29 -7 -4 77 78 -272 -435 0
29 -7 -4 77 78 -272 435 436 0
29 -7 -4 77 78 -272 -436 0
29 -7 -4 -78 -271 435 436 0
29 -7 -4 -78 -271 -436 0
29 -7 -4 -78 271 272 -435 0
29 -7 -4 -78 271 272 435 436 0
29 -7 -4 -78 271 272 -436 0
29 -7 -4 -78 -272 -435 0
29 -7 -4 -78 -272 435 436 0
29 -7 -4 -78 -272 -436 0
-29 7 4 -77 -271 -435 0
-29 7 4 -77 -271 435 436 0
-29 7 4 -77 -271 -436 0
-29 7 4 -77 271 272 -435 0
-29 7 4 -77 271 272 435 436 0
-29 7 4 -77 271 272 -436 0
-29 7 4 -77 -272 -435 0
-29 7 4 -77 -272 435 436 0
-29 7 4 77 78 -271 -435 0
-29 7 4 77 78 -271 435 436 0
-29 7 4 77 78 -271 -436 0
-29 7 4 77 78 271 272 -435 0
-29 7 4 77 78 271 272 -436 0
-29 7 4 77 78 -272 -435 0
-29 7 4 77 78 -272 435 436 0
-29 7 4 77 78 -272 -436 0
-29 7 4 -78 -271 435 436 0
-29 7 4 -78 -271 -436 0
-29 7 4 -78 271 272 -435 0
-29 7 4 -78 271 272 435 436 0
-29 7 4 -78 271 272 -436 0
-29 7 4 -78 -272 -435 0
-29 7 4 -78 -272 435 436 0
-29 7 4 -78 -272 -436 0
-29 7 -4 -77 -271 -435 0
-29 7 -4 -77 -271 435 436 0
-29 7 -4 -77 -271 -436 0
-29 7 -4 -77 271 272 -435 0
-29 7 -4 -77 271 272 435 436 0
-29 7 -4 -77 271 272 -436 0
-29 7 -4 -77 -272 435 436 0
-29 7 -4 -77 -272 -436 0
-29 7 -4 77 78 -271 -435 0
-29 7 -4 77 78 -271 435 436 0
-29 7 -4 77 78 -271 -436 0
-29 7 -4 77 78 271 272 -435 0
-29 7 -4 77 78 271 272 -436 0
-29 7 -4 77 78 -272 -435 0
-29 7 -4 77 78 -272 435 436 0
-29 7 -4 77 78 -272 -436 0
-29 7 -4 -78 -271 -435 0
-29 7 -4 -78 -271 435 436 0
-29 7 -4 -78 271 272 -435 0
-29 7 -4 -78 271 272 435 436 0
-29 7 -4 -78 271 272 -436 0
-29 7 -4 -78 -272 -435 0
-29 7 -4 -78 -272 435 436 0
-29 7 -4 -78 -272 -436 0
-29 -7 4 -77 -271 -435 0
-29 -7 4 -77 -271 435 436 0
-29 -7 4 -77 271 272 -435 0
-29 -7 4 -77 271 272 435 436 0
-29 -7 4 -77 271 272 -436 0
-29 -7 4 -77 -272 -435 0
-29 -7 4 -77 -272 435 436 0
-29 -7 4 -77 -272 -436 0
-29 -7 4 77 78 -271 -435 0
-29 -7 4 77 78 -271 435 436 0
-29 -7 4 77 78 -271 -436 0
-29 -7 4 77 78 271 272 -435 0
-29 -7 4 77 78 271 272 -436 0
-29 -7 4 77 78 -272 -435 0
-29 -7 4 77 78 -272 435 436 0
-29 -7 4 77 78 -272 -436 0
-29 -7 4 -78 -271 -435 0
-29 -7 4 -78 -271 435 436 0
-29 -7 4 -78 -271 -436 0
-29 -7 4 -78 271 272 -435 0
-29 -7 4 -78 271 272 435 436 0
-29 -7 4 -78 271 272 -436 0
-29 -7 4 -78 -272 435 436 0
-29 -7 4 -78 -272 -436 0
-29 -7 -4 -77 -271 435 436 0
-29 -7 -4 -77 -271 -436 0
-29 -7 -4 -77 271 272 -435 0
-29 -7 -4 -77 271 272 435 436 0
-29 -7 -4 -77 271 272 -436 0
-29 -7 -4 -77 -272 -435 0
-29 -7 -4 -77 -272 435 436 0
-29 -7 -4 -77 -272 -436 0
-29 -7 -4 77 78 -271 -435 0
-29 -7 -4 77 78 -271 435 436 0
-29 -7 -4 77 78 -271 -436 0
-29 -7 -4 77 78 271 272 -435 0
-29 -7 -4 77 78 271 272 -436 0
-29 -7 -4 77 78 -272 -435 0
-29 -7 -4 77 78 -272 435 436 0
-29 -7 -4 77 78 -272 -436 0
-29 -7 -4 -78 -271 -435 0
-29 -7 -4 -78 -271 435 436 0
-29 -7 -4 -78 -271 -436 0
-29 -7 -4 -78 271 272 -435 0
-29 -7 -4 -78 271 272 435 436 0
-29 -7 -4 -78 271 272 -436 0
-29 -7 -4 -78 -272 -435 0
-29 -7 -4 -78 -272 435 436 0
30 8 4 -79 -273 491 492 0
30 8 4 -79 -273 -492 0
30 8 4 -79 273 274 -491 0
30 8 4 -79 273 274 491 492 0
30 8 4 -79 273 274 -492 0
30 8 4 -79 -274 -491 0
30 8 4 -79 -274 491 492 0
30 8 4 -79 -274 -492 0
30 8 4 79 80 -273 -491 0
30 8 4 79 80 -273 491 492 0
30 8 4 79 80 -273 -492 0
30 8 4 79 80 273 274 -491 0
30 8 4 79 80 273 274 -492 0
30 8 4 79 80 -274 -491 0
30 8 4 79 80 -274 491 492 0
30 8 4 79 80 -274 -492 0
30 8 4 -80 -273 -491 0
30 8 4 -80 -273 491 492 0
30 8 4 -80 -273 -492 0
30 8 4 -80 273 274 -491 0
30 8 4 -80 273 274 491 492 0
30 8 4 -80 273 274 -492 0
30 8 4 -80 -274 -491 0
30 8 4 -80 -274 491 492 0
30 8 -4 -79 -273 -491 0
30 8 -4 -79 -273 491 492 0
30 8 -4 -79 273 274 -491 0
30 8 -4 -79 273 274 491 492 0
30 8 -4 -79 273 274 -492 0
30 8 -4 -79 -274 -491 0
30 8 -4 -79 -274 491 492 0
30 8 -4 -79 -274 -492 0
30 8 -4 79 80 -273 -491 0
30 8 -4 79 80 -273 491 492 0
30 8 -4 79 80 -273 -492 0
30 8 -4 79 80 273 274 -491 0
30 8 -4 79 80 273 274 -492 0
30 8 -4 79 80 -274 -491 0
30 8 -4 79 80 -274 491 492 0
30 8 -4 79 80 -274 -492 0
30 8 -4 -80 -273 -491 0
30 8 -4 -80 -273 491 492 0
30 8 -4 -80 -273 -492 0
30 8 -4 -80 273 274 -491 0
30 8 -4 -80 273 274 491 492 0
30 8 -4 -80 273 274 -492 0
30 8 -4 -80 -274 491 492 0
30 8 -4 -80 -274 -492 0
30 -8 4 -79 -273 -491 0
30 -8 4 -79 -273 491 492 0
30 -8 4 -79 -273 -492 0
30 -8 4 -79 273 274 -491 0
30 -8 4 -79 273 274 491 492 0
30 -8 4 -79 273 274 -492 0
30 -8 4 -79 -274 491 492 0
30 -8 4 -79 -274 -492 0
30 -8 4 79 80 -273 -491 0
30 -8 4 79 80 -273 491 492 0
30 -8 4 79 80 -273 -492 0
30 -8 4 79 80 273 274 -491 0
30 -8 4 79 80 273 274 -492 0
30 -8 4 79 80 -274 -491 0
30 -8 4 79 80 -274 491 492 0
30 -8 4 79 80 -274 -492 0
30 -8 4 -80 -273 -491 0
30 -8 4 -80 -273 491 492 0
30 -8 4 -80 273 274 -491 0
30 -8 4 -80 273 274 491 492 0
30 -8 4 -80 273 274 -492 0
30 -8 4 -80 -274 -491 0
30 -8 4 -80 -274 491 492 0
30 -8 4 -80 -274 -492 0
30 -8 -4 -79 -273 -491 0
30 -8 -4 -79 -273 491 492 0
30 -8 -4 -79 -273 -492 0
30 -8 -4 -79 273 274 -491 0
30 -8 -4 -79 273 274 491 492 0
30 -8 -4 -79 273 274 -492 0
30 -8 -4 -79 -274 -491 0
30 -8 -4 -79 -274 491 492 0
30 -8 -4 79 80 -273 -491 0
30 -8 -4 79 80 -273 491 492 0
30 -8 -4 79 80 -273 -492 0
30 -8 -4 79 80 273 274 -491 0
30 -8 -4 79 80 273 274 -492 0
30 -8 -4 79 80 -274 -491 0
30 -8 -4 79 80 -274 491 492 0
30 -8 -4 79 80 -274 -492 0
30 -8 -4 -80 -273 491 492 0
30 -8 -4 -80 -273 -492 0
30 -8 -4 -80 273 274 -491 0
30 -8 -4 -80 273 274 491 492 0
30 -8 -4 -80 273 274 -492 0
30 -8 -4 -80 -274 -491 0
30 -8 -4 -80 -274 491 492 0
30 -8 -4 -80 -274 -492 0
-30 8 4 -79 -273 -491 0
-30 8 4 -79 -273 491 492 0
-30 8 4 -79 -273 -492 0
-30 8 4 -79 273 274 -491 0
-30 8 4 -79 273 274 491 492 0
-30 8 4 -79 273 274 -492 0
-30 8 4 -79 -274 -491 0
-30 8 4 -79 -274 491 492 0
-30 8 4 79 80 -273 -491 0
-30 8 4 79 80 -273 491 492 0
-30 8 4 79 80 -273 -492 0
-30 8 4 79 80 273 274 -491 0
-30 8 4 79 80 273 274 -492 0
-30 8 4 79 80 -274 -491 0
-30 8 4 79 80 -274 491 492 0
-30 8 4 79 80 -274 -492 0
-30 8 4 -80 -273 491 492 0
-30 8 4 -80 -273 -492 0
-30 8 4 -80 273 274 -491 0
-30 8 4 -80 273 274 491 492 0
-30 8 4 -80 273 274 -492 0
-30 8 4 -80 -274 -491 0
-30 8 4 -80 -274 491 492 0
-30 8 4 -80 -274 -492 0
-30 8 -4 -79 -273 -491 0
-30 8 -4 -79 -273 491 492 0
-30 8 -4 -79 -273 -492 0
-30 8 -4 -79 273 274 -491 0
-30 8 -4 -79 273 274 491 492 0
-30 8 -4 -79 273 274 -492 0
-30 8 -4 -79 -274 491 492 0
-30 8 -4 -79 -274 -492 0
-30 8 -4 79 80 -273 -491 0
-30 8 -4 79 80 -273 491 492 0
-30 8 -4 79 80 -273 -492 0
-30 8 -4 79 80 273 274 -491 0
-30 8 -4 79 80 273 274 -492 0
-30 8 -4 79 80 -274 -491 0
-30 8 -4 79 80 -274 491 492 0
-30 8 -4 79 80 -274 -492 0
-30 8 -4 -80 -273 -491 0
-30 8 -4 -80 -273 491 492 0
-30 8 -4 -80 273 274 -491 0
-30 8 -4 -80 273 274 491 492 0
-30 8 -4 -80 273 274 -492 0
-30 8 -4 -80 -274 -491 0
-30 8 -4 -80 -274 491 492 0
-30 8 -4 -80 -274 -492 0
-30 -8 4 -79 -273 -491 0
-30 -8 4 -79 -273 491 492 0
-30 -8 4 -79 273 274 -491 0
-30 -8 4 -79 273 274 491 492 0
-30 -8 4 -79 273 274 -492 0
-30 -8 4 -79 -274 -491 0
-30 -8 4 -79 -274 491 492 0
-30 -8 4 -79 -274 -492 0
-30 -8 4 79 80 -273 -491 0
-30 -8 4 79 80 -273 491 492 0
-30 -8 4 79 80 -273 -492 0
-30 -8 4 79 80 273 274 -491 0
-30 -8 4 79 80 273 274 -492 0
-30 -8 4 79 80 -274 -491 0
-30 -8 4 79 80 -274 491 492 0
-30 -8 4 79 80 -274 -492 0
-30 -8 4 -80 -273 -491 0
-30 -8 4 -80 -273 491 492 0
-30 -8 4 -80 -273 -492 0
-30 -8 4 -80 273 274 -491 0
-30 -8 4 -80 273 274 491 492 0
-30 -8 4 -80 273 274 -492 0
-30 -8 4 -80 -274 491 492 0
-30 -8 4 -80 -274 -492 0
-30 -8 -4 -79 -273 491 492 0
-30 -8 -4 -79 -273 -492 0
-30 -8 -4 -79 273 274 -491 0
-30 -8 -4 -79 273 274 491 492 0
-30 -8 -4 -79 273 274 -492 0
-30 -8 -4 -79 -274 -491 0
-30 -8 -4 -79 -274 491 492 0
-30 -8 -4 -79 -274 -492 0
-30 -8 -4 79 80 -273 -491 0
-30 -8 -4 79 80 -273 491 492 0
-30 -8 -4 79 80 -273 -492 0
-30 -8 -4 79 80 273 274 -491 0
-30 -8 -4 79 80 273 274 -492 0
-30 -8 -4 79 80 -274 -491 0
-30 -8 -4 79 80 -274 491 492 0
-30 -8 -4 79 80 -274 -492 0
-30 -8 -4 -80 -273 -491 0
-30 -8 -4 -80 -273 491 492 0
-30 -8 -4 -80 -273 -492 0
-30 -8 -4 -80 273 274 -491 0
-30 -8 -4 -80 273 274 491 492 0
-30 -8 -4 -80 273 274 -492 0
-30 -8 -4 -80 -274 -491 0
-30 -8 -4 -80 -274 491 492 0
31 6 5 -81 -325 381 382 0
31 6 5 -81 -325 -382 0
31 6 5 -81 325 326 -381 0
31 6 5 -81 325 326 381 382 0
31 6 5 -81 325 326 -382 0
31 6 5 -81 -326 -381 0
31 6 5 -81 -326 381 382 0
31 6 5 -81 -326 -382 0
31 6 5 81 82 -325 -381 0
31 6 5 81 82 -325 381 382 0
31 6 5 81 82 -325 -382 0
31 6 5 81 82 325 326 -381 0
31 6 5 81 82 325 326 -382 0
31 6 5 81 82 -326 -381 0
31 6 5 81 82 -326 381 382 0
31 6 5 81 82 -326 -382 0
31 6 5 -82 -325 -381 0
31 6 5 -82 -325 381 382 0
31 6 5 -82 -325 -382 0
31 6 5 -82 325 326 -381 0
31 6 5 -82 325 326 381 382 0
31 6 5 -82 325 326 -382 0
31 6 5 -82 -326 -381 0
31 6 5 -82 -326 381 382 0
31 6 -5 -81 -325 -381 0
31 6 -5 -81 -325 381 382 0
31 6 -5 -81 325 326 -381 0
31 6 -5 -81 325 326 381 382 0
31 6 -5 -81 325 326 -382 0
31 6 -5 -81 -326 -381 0
31 6 -5 -81 -326 381 382 0
31 6 -5 -81 -326 -382 0
31 6 -5 81 82 -325 -381 0
31 6 -5 81 82 -325 381 382 0
31 6 -5 81 82 -325 -382 0
31 6 -5 81 82 325 326 -381 0
31 6 -5 81 82 325 326 -382 0
31 6 -5 81 82 -326 -381 0
31 6 -5 81 82 -326 381 382 0
31 6 -5 81 82 -326 -382 0
31 6 -5 -82 -325 -381 0
31 6 -5 -82 -325 381 382 0
31 6 -5 -82 -325 -382 0
31 6 -5 -82 325 326 -381 0
31 6 -5 -82 325 326 381 382 0
31 6 -5 -82 325 326 -382 0
31 6 -5 -82 -326 381 382 0
31 6 -5 -82 -326 -382 0
31 -6 5 -81 -325 -381 0
31 -6 5 -81 -325 381 382 0
31 -6 5 -81 -325 -382 0
31 -6 5 -81 325 326 -381 0
31 -6 5 -81 325 326 381 382 0
31 -6 5 -81 325 326 -382 0
31 -6 5 -81 -326 381 382 0
31 -6 5 -81 -326 -382 0
31 -6 5 81 82 -325 -381 0
31 -6 5 81 82 -325 381 382 0
31 -6 5 81 82 -325 -382 0
31 -6 5 81 82 325 326 -381 0
31 -6 5 81 82 325 326 -382 0
31 -6 5 81 82 -326 -381 0
31 -6 5 81 82 -326 381 382 0
31 -6 5 81 82 -326 -382 0
31 -6 5 -82 -325 -381 0
31 -6 5 -82 -325 381 382 0
31 -6 5 -82 325 326 -381 0
31 -6 5 -82 325 326 381 382 0
31 -6 5 -82 325 326 -382 0
31 -6 5 -82 -326 -381 0
31 -6 5 -82 -326 381 382 0
31 -6 5 -82 -326 -382 0
31 -6 -5 -81 -325 -381 0
31 -6 -5 -81 -325 381 382 0
31 -6 -5 -81 -325 -382 0
31 -6 -5 -81 325 326 -381 0
31 -6 -5 -81 325 326 381 382 0
31 -6 -5 -81 325 326 -382 0
31 -6 -5 -81 -326 -381 0
31 -6 -5 -81 -326 381 382 0
31 -6 -5 81 82 -325 -381 0
31 -6 -5 81 82 -325 381 382 0
31 -6 -5 81 82 -325 -382 0
31 -6 -5 81 82 325 326 -381 0
31 -6 -5 81 82 325 326 -382 0
31 -6 -5 81 82 -326 -381 0
31 -6 -5 81 82 -326 381 382 0
31 -6 -5 81 82 -326 -382 0
31 -6 -5 -82 -325 381 382 0
31 -6 -5 -82 -325 -382 0
31 -6 -5 -82 325 326 -381 0
31 -6 -5 -82 325 326 381 382 0
31 -6 -5 -82 325 326 -382 0
31 -6 -5 -82 -326 -381 0
31 -6 -5 -82 -326 381 382 0
31 -6 -5 -82 -326 -382 0
-31 6 5 -81 -325 -381 0
-31 6 5 -81 -325 381 382 0
-31 6 5 -81 -325 -382 0
-31 6 5 -81 325 326 -381 0
-31 6 5 -81 325 326 381 382 0
-31 6 5 -81 325 326 -382 0
-31 6 5 -81 -326 -381 0
-31 6 5 -81 -326 381 382 0
-31 6 5 81 82 -325 -381 0
-31 6 5 81 82 -325 381 382 0
-31 6 5 81 82 -325 -382 0
-31 6 5 81 82 325 326 -381 0
-31 6 5 81 82 325 326 -382 0
-31 6 5 81 82 -326 -381 0
-31 6 5 81 82 -326 381 382 0
-31 6 5 81 82 -326 -382 0
-31 6 5 -82 -325 381 382 0
-31 6 5 -82 -325 -382 0
-31 6 5 -82 325 326 -381 0
-31 6 5 -82 325 326 381 382 0
-31 6 5 -82 325 326 -382 0
-31 6 5 -82 -326 -381 0
-31 6 5 -82 -326 381 382 0
-31 6 5 -82 -326 -382 0
-31 6 -5 -81 -325 -381 0
-31 6 -5 -81 -325 381 382 0
-31 6 -5 -81 -325 -382 0
-31 6 -5 -81 325 326 -381 0
-31 6 -5 -81 325 326 381 382 0
-31 6 -5 -81 325 326 -382 0
-31 6 -5 -81 -326 381 382 0
-31 6 -5 -81 -326 -382 0
-31 6 -5 81 82 -325 -381 0
-31 6 -5 81 82 -325 381 382 0
-31 6 -5 81 82 -325 -382 0
-31 6 -5 81 82 325 326 -381 0
-31 6 -5 81 82 325 326 -382 0
-31 6 -5 81 82 -326 -381 0
-31 6 -5 81 82 -326 381 382 0
-31 6 -5 81 82 -326 -382 0
-31 6 -5 -82 -325 -381 0
-31 6 -5 -82 -325 381 382 0
-31 6 -5 -82 325 326 -381 0
-31 6 -5 -82 325 326 381 382 0
-31 6 -5 -82 325 326 -382 0
-31 6 -5 -82 -326 -381 0
-31 6 -5 -82 -326 381 382 0
-31 6 -5 -82 -326 -382 0
-31 -6 5 -81 -325 -381 0
-31 -6 5 -81 -325 381 382 0
-31 -6 5 -81 325 326 -381 0
-31 -6 5 -81 325 326 381 382 0
-31 -6 5 -81 325 326 -382 0
-31 -6 5 -81 -326 -381 0
-31 -6 5 -81 -326 381 382 0
-31 -6 5 -81 -326 -382 0
-31 -6 5 81 82 -325 -381 0
-31 -6 5 81 82 -325 381 382 0
-31 -6 5 81 82 -325 -382 0
-31 -6 5 81 82 325 326 -381 0
-31 -6 5 81 82 325 326 -382 0
-31 -6 5 81 82 -326 -381 0
-31 -6 5 81 82 -326 381 382 0
-31 -6 5 81 82 -326 -382 0
-31 -6 5 -82 -325 -381 0
-31 -6 5 -82 -325 381 382 0
-31 -6 5 -82 -325 -382 0
-31 -6 5 -82 325 326 -381 0
-31 -6 5 -82 325 326 381 382 0
-31 -6 5 -82 325 326 -382 0
-31 -6 5 -82 -326 381 382 0
-31 -6 5 -82 -326 -382 0
-31 -6 -5 -81 -325 381 382 0
-31 -6 -5 -81 -325 -382 0
-31 -6 -5 -81 325 326 -381 0
-31 -6 -5 -81 325 326 381 382 0
-31 -6 -5 -81 325 326 -382 0
-31 -6 -5 -81 -326 -381 0
-31 -6 -5 -81 -326 381 382 0
-31 -6 -5 -81 -326 -382 0
-31 -6 -5 81 82 -325 -381 0
-31 -6 -5 81 82 -325 381 382 0
-31 -6 -5 81 82 -325 -382 0
-31 -6 -5 81 82 325 326 -381 0
-31 -6 -5 81 82 325 326 -382 0
-31 -6 -5 81 82 -326 -381 0
-31 -6 -5 81 82 -326 381 382 0
-31 -6 -5 81 82 -326 -382 0
-31 -6 -5 -82 -325 -381 0
-31 -6 -5 -82 -325 381 382 0
-31 -6 -5 -82 -325 -382 0
-31 -6 -5 -82 325 326 -381 0
-31 -6 -5 -82 325 326 381 382 0
-31 -6 -5 -82 325 326 -382 0
-31 -6 -5 -82 -326 -381 0
-31 -6 -5 -82 -326 381 382 0
32 7 5 -83 -327 437 438 0
32 7 5 -83 -327 -438 0
32 7 5 -83 327 328 -437 0
32 7 5 -83 327 328 437 438 0
32 7 5 -83 327 328 -438 0
32 7 5 -83 -328 -437 0
32 7 5 -83 -328 437 438 0
32 7 5 -83 -328 -438 0
32 7 5 83 84 -327 -437 0
32 7 5 83 84 -327 437 438 0
32 7 5 83 84 -327 -438 0
32 7 5 83 84 327 328 -437 0
32 7 5 83 84 327 328 -438 0
32 7 5 83 84 -328 -437 0
32 7 5 83 84 -328 437 438 0
32 7 5 83 84 -328 -438 0
32 7 5 -84 -327 -437 0
32 7 5 -84 -327 437 438 0
32 7 5 -84 -327 -438 0
32 7 5 -84 327 328 -437 0
32 7 5 -84 327 328 437 438 0
32 7 5 -84 327 328 -438 0
32 7 5 -84 -328 -437 0
32 7 5 -84 -328 437 438 0
32 7 -5 -83 -327 -437 0
32 7 -5 -83 -327 437 438 0
32 7 -5 -83 327 328 -437 0
32 7 -5 -83 327 328 437 438 0
32 7 -5 -83 327 328 -438 0
32 7 -5 -83 -328 -437 0
32 7 -5 -83 -328 437 438 0
32 7 -5 -83 -328 -438 0
32 7 -5 83 84 -327 -437 0
32 7 -5 83 84 -327 437 438 0
32 7 -5 83 84 -327 -438 0
32 7 -5 83 84 327 328 -437 0
32 7 -5 83 84 327 328 -438 0
32 7 -5 83 84 -328 -437 0
32 7 -5 83 84 -328 437 438 0
32 7 -5 83 84 -328 -438 0
32 7 -5 -84 -327 -437 0
32 7 -5 -84 -327 437 438 0
32 7 -5 -84 -327 -438 0
32 7 -5 -84 327 328 -437 0
32 7 -5 -84 327 328 437 438 0
32 7 -5 -84 327 328 -438 0
32 7 -5 -84 -328 437 438 0
32 7 -5 -84 -328 -438 0
32 -7 5 -83 -327 -437 0
32 -7 5 -83 -327 437 438 0
32 -7 5 -83 -327 -438 0
32 -7 5 -83 327 328 -437 0
32 -7 5 -83 327 328 437 438 0
32 -7 5 -83 327 328 -438 0
32 -7 5 -83 -328 437 438 0
32 -7 5 -83 -328 -438 0
32 -7 5 83 84 -327 -437 0
32 -7 5 83 84 -327 437 438 0
32 -7 5 83 84 -327 -438 0
32 -7 5 83 84 327 328 -437 0
32 -7 5 83 84 327 328 -438 0
32 -7 5 83 84 -328 -437 0
32 -7 5 83 84 -328 437 438 0
32 -7 5 83 84 -328 -438 0
32 -7 5 -84 -327 -437 0
32 -7 5 -84 -327 437 438 0
32 -7 5 -84 327 328 -437 0
32 -7 5 -84 327 328 437 438 0
32 -7 5 -84 327 328 -438 0
32 -7 5 -84 -328 -437 0
32 -7 5 -84 -328 437 438 0
32 -7 5 -84 -328 -438 0
32 -7 -5 -83 -327 -437 0
32 -7 -5 -83 -327 437 438 0
32 -7 -5 -83 -327 -438 0
32 -7 -5 -83 327 328 -437 0
32 -7 -5 -83 327 328 437 438 0
32 -7 -5 -83 327 328 -438 0
32 -7 -5 -83 -328 -437 0
32 -7 -5 -83 -328 437 438 0
32 -7 -5 83 84 -327 -437 0
32 -7 -5 83 84 -327 437 438 0
32 -7 -5 83 84 -327 -438 0
32 -7 -5 83 84 327 328 -437 0
32 -7 -5 83 84 327 328 -438 0
32 -7 -5 83 84 -328 -437 0
32 -7 -5 83 84 -328 437 438 0
32 -7 -5 83 84 -328 -438 0
32 -7 -5 -84 -327 437 438 0
32 -7 -5 -84 -327 -438 0
32 -7 -5 -84 327 328 -437 0
32 -7 -5 -84 327 328 437 438 0
32 -7 -5 -84 327 328 -438 0
32 -7 -5 -84 -328 -437 0
32 -7 -5 -84 -328 437 438 0
32 -7 -5 -84 -328 -438 0
-32 7 5 -83 -327 -437 0
-32 7 5 -83 -327 437 438 0
-32 7 5 -83 -327 -438 0
-32 7 5 -83 327 328 -437 0
-32 7 5 -83 327 328 437 438 0
-32 7 5 -83 327 328 -438 0
-32 7 5 -83 -328 -437 0
-32 7 5 -83 -328 437 438 0
-32 7 5 83 84 -327 -437 0
-32 7 5 83 84 -327 437 438 0
-32 7 5 83 84 -327 -438 0
-32 7 5 83 84 327 328 -437 0
-32 7 5 83 84 327 328 -438 0
-32 7 5 83 84 -328 -437 0
-32 7 5 83 84 -328 437 438 0
-32 7 5 83 84 -328 -438 0
-32 7 5 -84 -327 437 438 0
-32 7 5 -84 -327 -438 0
-32 7 5 -84 327 328 -437 0
-32 7 5 -84 327 328 437 438 0
-32 7 5 -84 327 328 -438 0
-32 7 5 -84 -328 -437 0
-32 7 5 -84 -328 437 438 0
-32 7 5 -84 -328 -438 0
-32 7 -5 -83 -327 -437 0
-32 7 -5 -83 -327 437 438 0
-32 7 -5 -83 -327 -438 0
-32 7 -5 -83 327 328 -437 0
-32 7 -5 -83 327 328 437 438 0
-32 7 -5 -83 327 328 -438 0
-32 7 -5 -83 -328 437 438 0
-32 7 -5 -83 -328 -438 0
-32 7 -5 83 84 -327 -437 0
-32 7 -5 83 84 -327 437 438 0
-32 7 -5 83 84 -327 -438 0
-32 7 -5 83 84 327 328 -437 0
-32 7 -5 83 84 327 328 -438 0
-32 7 -5 83 84 -328 -437 0
-32 7 -5 83 84 -328 437 438 0
-32 7 -5 83 84 -328 -438 0
-32 7 -5 -84 -327 -437 0
-32 7 -5 -84 -327 437 438 0
-32 7 -5 -84 327 328 -437 0
-32 7 -5 -84 327 328 437 438 0
-32 7 -5 -84 327 328 -438 0
-32 7 -5 -84 -328 -437 0
-32 7 -5 -84 -328 437 438 0
-32 7 -5 -84 -328 -438 0
-32 -7 5 -83 -327 -437 0
-32 -7 5 -83 -327 437 438 0
-32 -7 5 -83 327 328 -437 0
-32 -7 5 -83 327 328 437 438 0
-32 -7 5 -83 327 328 -438 0
-32 -7 5 -83 -328 -437 0
-32 -7 5 -83 -328 437 438 0
-32 -7 5 -83 -328 -438 0
-32 -7 5 83 84 -327 -437 0
-32 -7 5 83 84 -327 437 438 0
-32 -7 5 83 84 -327 -438 0
-32 -7 5 83 84 327 328 -437 0
-32 -7 5 83 84 327 328 -438 0
-32 -7 5 83 84 -328 -437 0
-32 -7 5 83 84 -328 437 438 0
-32 -7 5 83 84 -328 -438 0
-32 -7 5 -84 -327 -437 0
-32 -7 5 -84 -327 437 438 0
-32 -7 5 -84 -327 -438 0
-32 -7 5 -84 327 328 -437 0
-32 -7 5 -84 327 328 437 438 0
-32 -7 5 -84 327 328 -438 0
-32 -7 5 -84 -328 437 438 0
-32 -7 5 -84 -328 -438 0
-32 -7 -5 -83 -327 437 438 0
-32 -7 -5 -83 -327 -438 0
-32 -7 -5 -83 327 328 -437 0
-32 -7 -5 -83 327 328 437 438 0
-32 -7 -5 -83 327 328 -438 0
-32 -7 -5 -83 -328 -437 0
-32 -7 -5 -83 -328 437 438 0
-32 -7 -5 -83 -328 -438 0
-32 -7 -5 83 84 -327 -437 0
-32 -7 -5 83 84 -327 437 438 0
-32 -7 -5 83 84 -327 -438 0
-32 -7 -5 83 84 327 328 -437 0
-32 -7 -5 83 84 327 328 -438 0
-32 -7 -5 83 84 -328 -437 0
-32 -7 -5 83 84 -328 437 438 0
-32 -7 -5 83 84 -328 -438 0
-32 -7 -5 -84 -327 -437 0
-32 -7 -5 -84 -327 437 438 0
-32 -7 -5 -84 -327 -438 0
-32 -7 -5 -84 327 328 -437 0
-32 -7 -5 -84 327 328 437 438 0
-32 -7 -5 -84 327 328 -438 0
-32 -7 -5 -84 -328 -437 0
-32 -7 -5 -84 -328 437 438 0
33 8 5 -85 -329 493 494 0
33 8 5 -85 -329 -494 0
33 8 5 -85 329 330 -493 0
33 8 5 -85 329 330 493 494 0
33 8 5 -85 329 330 -494 0
33 8 5 -85 -330 -493 0
33 8 5 -85 -330 493 494 0
33 8 5 -85 -330 -494 0
33 8 5 85 86 -329 -493 0
33 8 5 85 86 -329 493 494 0
33 8 5 85 86 -329 -494 0
33 8 5 85 86 329 330 -493 0
33 8 5 85 86 329 330 -494 0
33 8 5 85 86 -330 -493 0
33 8 5 85 86 -330 493 494 0
33 8 5 85 86 -330 -494 0
33 8 5 -86 -329 -493 0
33 8 5 -86 -329 493 494 0
33 8 5 -86 -329 -494 0
33 8 5 -86 329 330 -493 0
33 8 5 -86 329 330 493 494 0
33 8 5 -86 329 330 -494 0
33 8 5 -86 -330 -493 0
33 8 5 -86 -330 493 494 0
33 8 -5 -85 -329 -493 0
33 8 -5 -85 -329 493 494 0
33 8 -5 -85 329 330 -493 0
33 8 -5 -85 329 330 493 494 0
33 8 -5 -85 329 330 -494 0
33 8 -5 -85 -330 -493 0
33 8 -5 -85 -330 493 494 0
33 8 -5 -85 -330 -494 0
33 8 -5 85 86 -329 -493 0
33 8 -5 85 86 -329 493 494 0
33 8 -5 85 86 -329 -494 0
33 8 -5 85 86 329 330 -493 0
33 8 -5 85 86 329 330 -494 0
33 8 -5 85 86 -330 -493 0
33 8 -5 85 86 -330 493 494 0
33 8 -5 85 86 -330 -494 0
33 8 -5 -86 -329 -493 0
33 8 -5 -86 -329 493 494 0
33 8 -5 -86 -329 -494 0
33 8 -5 -86 329 330 -493 0
33 8 -5 -86 329 330 493 494 0
33 8 -5 -86 329 330 -494 0
33 8 -5 -86 -330 493 494 0
33 8 -5 -86 -330 -494 0
33 -8 5 -85 -329 -493 0
33 -8 5 -85 -329 493 494 0
33 -8 5 -85 -329 -494 0
33 -8 5 -85 329 330 -493 0
33 -8 5 -85 329 330 493 494 0
33 -8 5 -85 329 330 -494 0
33 -8 5 -85 -330 493 494 0
33 -8 5 -85 -330 -494 0
33 -8 5 85 86 -329 -493 0
33 -8 5 85 86 -329 493 494 0
33 -8 5 85 86 -329 -494 0
33 -8 5 85 86 329 330 -493 0
33 -8 5 85 86 329 330 -494 0
33 -8 5 85 86 -330 -493 0
33 -8 5 85 86 -330 493 494 0
33 -8 5 85 86 -330 -494 0
33 -8 5 -86 -329 -493 0
33 -8 5 -86 -329 493 494 0
33 -8 5 -86 329 330 -493 0
33 -8 5 -86 329 330 493 494 0
33 -8 5 -86 329 330 -494 0
33 -8 5 -86 -330 -493 0
33 -8 5 -86 -330 493 494 0
33 -8 5 -86 -330 -494 0
33 -8 -5 -85 -329 -493 0
33 -8 -5 -85 -329 493 494 0
33 -8 -5 -85 -329 -494 0
33 -8 -5 -85 329 330 -493 0
33 -8 -5 -85 329 330 493 494 0
33 -8 -5 -85 329 330 -494 0
33 -8 -5 -85 -330 -493 0
33 -8 -5 -85 -330 493 494 0
33 -8 -5 85 86 -329 -493 0
33 -8 -5 85 86 -329 493 494 0
33 -8 -5 85 86 -329 -494 0
33 -8 -5 85 86 329 330 -493 0
33 -8 -5 85 86 329 330 -494 0
33 -8 -5 85 86 -330 -493 0
33 -8 -5 85 86 -330 493 494 0
33 -8 -5 85 86 -330 -494 0
33 -8 -5 -86 -329 493 494 0
33 -8 -5 -86 -329 -494 0
33 -8 -5 -86 329 330 -493 0
33 -8 -5 -86 329 330 493 494 0
33 -8 -5 -86 329 330 -494 0
33 -8 -5 -86 -330 -493 0
33 -8 -5 -86 -330 493 494 0
33 -8 -5 -86 -330 -494 0
-33 8 5 -85 -329 -493 0
-33 8 5 -85 -329 493 494 0
-33 8 5 -85 -329 -494 0
-33 8 5 -85 329 330 -493 0
-33 8 5 -85 329 330 493 494 0
-33 8 5 -85 329 330 -494 0
-33 8 5 -85 -330 -493 0
-33 8 5 -85 -330 493 494 0
-33 8 5 85 86 -329 -493 0
-33 8 5 85 86 -329 493 494 0
-33 8 5 85 86 -329 -494 0
-33 8 5 85 86 329 330 -493 0
-33 8 5 85 86 329 330 -494 0
-33 8 5 85 86 -330 -493 0
-33 8 5 85 86 -330 493 494 0
-33 8 5 85 86 -330 -494 0
-33 8 5 -86 -329 493 494 0
-33 8 5 -86 -329 -494 0
-33 8 5 -86 329 330 -493 0
-33 8 5 -86 329 330 493 494 0
-33 8 5 -86 329 330 -494 0
-33 8 5 -86 -330 -493 0
-33 8 5 -86 -330 493 494 0
-33 8 5 -86 -330 -494 0
-33 8 -5 -85 -329 -493 0
-33 8 -5 -85 -329 493 494 0
-33 8 -5 -85 -329 -494 0
-33 8 -5 -85 329 330 -493 0
-33 8 -5 -85 329 330 493 494 0
-33 8 -5 -85 329 330 -494 0
-33 8 -5 -85 -330 493 494 0
-33 8 -5 -85 -330 -494 0
-33 8 -5 85 86 -329 -493 0
-33 8 -5 85 86 -329 493 494 0
-33 8 -5 85 86 -329 -494 0
-33 8 -5 85 86 329 330 -493 0
-33 8 -5 85 86 329 330 -494 0
-33 8 -5 85 86 -330 -493 0
-33 8 -5 85 86 -330 493 494 0
-33 8 -5 85 86 -330 -494 0
-33 8 -5 -86 -329 -493 0
-33 8 -5 -86 -329 493 494 0
-33 8 -5 -86 329 330 -493 0
-33 8 -5 -86 329 330 493 494 0
-33 8 -5 -86 329 330 -494 0
-33 8 -5 -86 -330 -493 0
-33 8 -5 -86 -330 493 494 0
-33 8 -5 -86 -330 -494 0
-33 -8 5 -85 -329 -493 0
-33 -8 5 -85 -329 493 494 0
-33 -8 5 -85 329 330 -493 0
-33 -8 5 -85 329 330 493 494 0
-33 -8 5 -85 329 330 -494 0
-33 -8 5 -85 -330 -493 0
-33 -8 5 -85 -330 493 494 0
-33 -8 5 -85 -330 -494 0
-33 -8 5 85 86 -329 -493 0
-33 -8 5 85 86 -329 493 494 0
-33 -8 5 85 86 -329 -494 0
-33 -8 5 85 86 329 330 -493 0
-33 -8 5 85 86 329 330 -494 0
-33 -8 5 85 86 -330 -493 0
-33 -8 5 85 86 -330 493 494 0
-33 -8 5 85 86 -330 -494 0
-33 -8 5 -86 -329 -493 0
-33 -8 5 -86 -329 493 494 0
-33 -8 5 -86 -329 -494 0
-33 -8 5 -86 329 330 -493 0
-33 -8 5 -86 329 330 493 494 0
-33 -8 5 -86 329 330 -494 0
-33 -8 5 -86 -330 493 494 0
-33 -8 5 -86 -330 -494 0
-33 -8 -5 -85 -329 493 494 0
-33 -8 -5 -85 -329 -494 0
-33 -8 -5 -85 329 330 -493 0
-33 -8 -5 -85 329 330 493 494 0
-33 -8 -5 -85 329 330 -494 0
-33 -8 -5 -85 -330 -493 0
-33 -8 -5 -85 -330 493 494 0
-33 -8 -5 -85 -330 -494 0
-33 -8 -5 85 86 -329 -493 0
-33 -8 -5 85 86 -329 493 494 0
-33 -8 -5 85 86 -329 -494 0
-33 -8 -5 85 86 329 330 -493 0
-33 -8 -5 85 86 329 330 -494 0
-33 -8 -5 85 86 -330 -493 0
-33 -8 -5 85 86 -330 493 494 0
-33 -8 -5 85 86 -330 -494 0
-33 -8 -5 -86 -329 -493 0
-33 -8 -5 -86 -329 493 494 0
-33 -8 -5 -86 -329 -494 0
-33 -8 -5 -86 329 330 -493 0
-33 -8 -5 -86 329 330 493 494 0
-33 -8 -5 -86 329 330 -494 0
-33 -8 -5 -86 -330 -493 0
-33 -8 -5 -86 -330 493 494 0
34 7 6 -87 -383 439 440 0
34 7 6 -87 -383 -440 0
34 7 6 -87 383 384 -439 0
34 7 6 -87 383 384 439 440 0
34 7 6 -87 383 384 -440 0
34 7 6 -87 -384 -439 0
34 7 6 -87 -384 439 440 0
34 7 6 -87 -384 -440 0
34 7 6 87 88 -383 -439 0
34 7 6 87 88 -383 439 440 0
34 7 6 87 88 -383 -440 0
34 7 6 87 88 383 384 -439 0
34 7 6 87 88 383 384 -440 0
34 7 6 87 88 -384 -439 0
34 7 6 87 88 -384 439 440 0
34 7 6 87 88 -384 -440 0
34 7 6 -88 -383 -439 0
34 7 6 -88 -383 439 440 0
34 7 6 -88 -383 -440 0
34 7 6 -88 383 384 -439 0
34 7 6 -88 383 384 439 440 0
34 7 6 -88 383 384 -440 0
34 7 6 -88 -384 -439 0
34 7 6 -88 -384 439 440 0
34 7 -6 -87 -383 -439 0
34 7 -6 -87 -383 439 440 0
34 7 -6 -87 383 384 -439 0
34 7 -6 -87 383 384 439 440 0
34 7 -6 -87 383 384 -440 0
34 7 -6 -87 -384 -439 0
34 7 -6 -87 -384 439 440 0
34 7 -6 -87 -384 -440 0
34 7 -6 87 88 -383 -439 0
34 7 -6 87 88 -383 439 440 0
34 7 -6 87 88 -383 -440 0
34 7 -6 87 88 383 384 -439 0
34 7 -6 87 88 383 384 -440 0
34 7 -6 87 88 -384 -439 0
34 7 -6 87 88 -384 439 440 0
34 7 -6 87 88 -384 -440 0
34 7 -6 -88 -383 -439 0
34 7 -6 -88 -383 439 440 0
34 7 -6 -88 -383 -440 0
34 7 -6 -88 383 384 -439 0
34 7 -6 -88 383 384 439 440 0
34 7 -6 -88 383 384 -440 0
34 7 -6 -88 -384 439 440 0
34 7 -6 -88 -384 -440 0
34 -7 6 -87 -383 -439 0
34 -7 6 -87 -383 439 440 0
34 -7 6 -87 -383 -440 0
34 -7 6 -87 383 384 -439 0
34 -7 6 -87 383 384 439 440 0
34 -7 6 -87 383 384 -440 0
34 -7 6 -87 -384 439 440 0
34 -7 6 -87 -384 -440 0
34 -7 6 87 88 -383 -439 0
34 -7 6 87 88 -383 439 440 0
34 -7 6 87 88 -383 -440 0
34 -7 6 87 88 383 384 -439 0
34 -7 6 87 88 383 384 -440 0
34 -7 6 87 88 -384 -439 0
34 -7 6 87 88 -384 439 440 0
34 -7 6 87 88 -384 -440 0
34 -7 6 -88 -383 -439 0
34 -7 6 -88 -383 439 440 0
34 -7 6 -88 383 384 -439 0
34 -7 6 -88 383 384 439 440 0
34 -7 6 -88 383 384 -440 0
34 -7 6 -88 -384 -439 0
34 -7 6 -88 -384 439 440 0
34 -7 6 -88 -384 -440 0
34 -7 -6 -87 -383 -439 0
34 -7 -6 -87 -383 439 440 0
34 -7 -6 -87 -383 -440 0
34 -7 -6 -87 383 384 -439 0
34 -7 -6 -87 383 384 439 440 0
34 -7 -6 -87 383 384 -440 0
34 -7 -6 -87 -384 -439 0
34 -7 -6 -87 -384 439 440 0
34 -7 -6 87 88 -383 -439 0
34 -7 -6 87 88 -383 439 440 0
34 -7 -6 87 88 -383 -440 0
34 -7 -6 87 88 383 384 -439 0
34 -7 -6 87 88 383 384 -440 0
34 -7 -6 87 88 -384 -439 0
34 -7 -6 87 88 -384 439 440 0
34 -7 -6 87 88 -384 -440 0
34 -7 -6 -88 -383 439 440 0
34 -7 -6 -88 -383 -440 0
34 -7 -6 -88 383 384 -439 0
34 -7 -6 -88 383 384 439 440 0
34 -7 -6 -88 383 384 -440 0
34 -7 -6 -88 -384 -439 0
34 -7 -6 -88 -384 439 440 0
34 -7 -6 -88 -384 -440 0
-34 7 6 -87 -383 -439 0
-34 7 6 -87 -383 439 440 0
-34 7 6 -87 -383 -440 0
-34 7 6 -87 383 384 -439 0
-34 7 6 -87 383 384 439 440 0
-34 7 6 -87 383 384 -440 0
-34 7 6 -87 -384 -439 0
-34 7 6 -87 -384 439 440 0
-34 7 6 87 88 -383 -439 0
-34 7 6 87 88 -383 439 440 0
-34 7 6 87 88 -383 -440 0
-34 7 6 87 88 383 384 -439 0
-34 7 6 87 88 383 384 -440 0
-34 7 6 87 88 -384 -439 0
-34 7 6 87 88 -384 439 440 0
-34 7 6 87 88 -384 -440 0
-34 7 6 -88 -383 439 440 0
-34 7 6 -88 -383 -440 0
-34 7 6 -88 383 384 -439 0
-34 7 6 -88 383 384 439 440 0
-34 7 6 -88 383 384 -440 0
-34 7 6 -88 -384 -439 0
-34 7 6 -88 -384 439 440 0
-34 7 6 -88 -384 -440 0
-34 7 -6 -87 -383 -439 0
-34 7 -6 -87 -383 439 440 0
-34 7 -6 -87 -383 -440 0
-34 7 -6 -87 383 384 -439 0
-34 7 -6 -87 383 384 439 440 0
-34 7 -6 -87 383 384 -440 0
-34 7 -6 -87 -384 439 440 0
-34 7 -6 -87 -384 -440 0
-34 7 -6 87 88 -383 -439 0
-34 7 -6 87 88 -383 439 440 0
-34 7 -6 87 88 -383 -440 0
-34 7 -6 87 88 383 384 -439 0
-34 7 -6 87 88 383 384 -440 0
-34 7 -6 87 88 -384 -439 0
-34 7 -6 87 88 -384 439 440 0
-34 7 -6 87 88 -384 -440 0
-34 7 -6 -88 -383 -439 0
-34 7 -6 -88 -383 439 440 0
-34 7 -6 -88 383 384 -439 0
-34 7 -6 -88 383 384 439 440 0
-34 7 -6 -88 383 384 -440 0
-34 7 -6 -88 -384 -439 0
-34 7 -6 -88 -384 439 440 0
-34 7 -6 -88 -384 -440 0
-34 -7 6 -87 -383 -439 0
-34 -7 6 -87 -383 439 440 0
-34 -7 6 -87 383 384 -439 0
-34 -7 6 -87 383 384 439 440 0
-34 -7 6 -87 383 384 -440 0
-34 -7 6 -87 -384 -439 0
-34 -7 6 -87 -384 439 440 0
-34 -7 6 -87 -384 -440 0
-34 -7 6 87 88 -383 -439 0
-34 -7 6 87 88 -383 439 440 0
-34 -7 6 87 88 -383 -440 0
-34 -7 6 87 88 383 384 -439 0
-34 -7 6 87 88 383 384 -440 0
-34 -7 6 87 88 -384 -439 0
-34 -7 6 87 88 -384 439 440 0
-34 -7 6 87 88 -384 -440 0
-34 -7 6 -88 -383 -439 0
-34 -7 6 -88 -383 439 440 0
-34 -7 6 -88 -383 -440 0
-34 -7 6 -88 383 384 -439 0
-34 -7 6 -88 383 384 439 440 0
-34 -7 6 -88 383 384 -440 0
-34 -7 6 -88 -384 439 440 0
-34 -7 6 -88 -384 -440 0
-34 -7 -6 -87 -383 439 440 0
-34 -7 -6 -87 -383 -440 0
-34 -7 -6 -87 383 384 -439 0
-34 -7 -6 -87 383 384 439 440 0
-34 -7 -6 -87 383 384 -440 0
-34 -7 -6 -87 -384 -439 0
-34 -7 -6 -87 -384 439 440 0
-34 -7 -6 -87 -384 -440 0
-34 -7 -6 87 88 -383 -439 0
-34 -7 -6 87 88 -383 439 440 0
-34 -7 -6 87 88 -383 -440 0
-34 -7 -6 87 88 383 384 -439 0
-34 -7 -6 87 88 383 384 -440 0
-34 -7 -6 87 88 -384 -439 0
-34 -7 -6 87 88 -384 439 440 0
-34 -7 -6 87 88 -384 -440 0
-34 -7 -6 -88 -383 -439 0
-34 -7 -6 -88 -383 439 440 0
-34 -7 -6 -88 -383 -440 0
-34 -7 -6 -88 383 384 -439 0
-34 -7 -6 -88 383 384 439 440 0
-34 -7 -6 -88 383 384 -440 0
-34 -7 -6 -88 -384 -439 0
-34 -7 -6 -88 -384 439 440 0
35 8 6 -89 -385 495 496 0
35 8 6 -89 -385 -496 0
35 8 6 -89 385 386 -495 0
35 8 6 -89 385 386 495 496 0
35 8 6 -89 385 386 -496 0
35 8 6 -89 -386 -495 0
35 8 6 -89 -386 495 496 0
35 8 6 -89 -386 -496 0
35 8 6 89 90 -385 -495 0
35 8 6 89 90 -385 495 496 0
35 8 6 89 90 -385 -496 0
35 8 6 89 90 385 386 -495 0
35 8 6 89 90 385 386 -496 0
35 8 6 89 90 -386 -495 0
35 8 6 89 90 -386 495 496 0
35 8 6 89 90 -386 -496 0
35 8 6 -90 -385 -495 0
35 8 6 -90 -385 495 496 0
35 8 6 -90 -385 -496 0
35 8 6 -90 385 386 -495 0
35 8 6 -90 385 386 495 496 0
35 8 6 -90 385 386 -496 0
35 8 6 -90 -386 -495 0
35 8 6 -90 -386 495 496 0
35 8 -6 -89 -385 -495 0
35 8 -6 -89 -385 495 496 0
35 8 -6 -89 385 386 -495 0
35 8 -6 -89 385 386 495 496 0
35 8 -6 -89 385 386 -496 0
35 8 -6 -89 -386 -495 0
35 8 -6 -89 -386 495 496 0
35 8 -6 -89 -386 -496 0
35 8 -6 89 90 -385 -495 0
35 8 -6 89 90 -385 495 496 0
35 8 -6 89 90 -385 -496 0
35 8 -6 89 90 385 386 -495 0
35 8 -6 89 90 385 386 -496 0
35 8 -6 89 90 -386 -495 0
35 8 -6 89 90 -386 495 496 0
35 8 -6 89 90 -386 -496 0
35 8 -6 -90 -385 -495 0
35 8 -6 -90 -385 495 496 0
35 8 -6 -90 -385 -496 0
35 8 -6 -90 385 386 -495 0
35 8 -6 -90 385 386 495 496 0
35 8 -6 -90 385 386 -496 0
35 8 -6 -90 -386 495 496 0
35 8 -6 -90 -386 -496 0
35 -8 6 -89 -385 -495 0
35 -8 6 -89 -385 495 496 0
35 -8 6 -89 -385 -496 0
35 -8 6 -89 385 386 -495 0
35 -8 6 -89 385 386 495 496 0
35 -8 6 -89 385 386 -496 0
35 -8 6 -89 -386 495 496 0
35 -8 6 -89 -386 -496 0
35 -8 6 89 90 -385 -495 0
35 -8 6 89 90 -385 495 496 0
35 -8 6 89 90 -385 -496 0
35 -8 6 89 90 385 386 -495 0
35 -8 6 89 90 385 386 -496 0
35 -8 6 89 90 -386 -495 0
35 -8 6 89 90 -386 495 496 0
35 -8 6 89 90 -386 -496 0
35 -8 6 -90 -385 -495 0
35 -8 6 -90 -385 495 496 0
35 -8 6 -90 385 386 -495 0
35 -8 6 -90 385 386 495 496 0
35 -8 6 -90 385 386 -496 0
35 -8 6 -90 -386 -495 0
35 -8 6 -90 -386 495 496 0
35 -8 6 -90 -386 -496 0
35 -8 -6 -89 -385 -495 0
35 -8 -6 -89 -385 495 496 0
35 -8 -6 -89 -385 -496 0
35 -8 -6 -89 385 386 -495 0
35 -8 -6 -89 385 386 495 496 0
35 -8 -6 -89 385 386 -496 0
35 -8 -6 -89 -386 -495 0
35 -8 -6 -89 -386 495 496 0
35 -8 -6 89 90 -385 -495 0
35 -8 -6 89 90 -385 495 496 0
35 -8 -6 89 90 -385 -496 0
35 -8 -6 89 90 385 386 -495 0
35 -8 -6 89 90 385 386 -496 0
35 -8 -6 89 90 -386 -495 0
35 -8 -6 89 90 -386 495 496 0
35 -8 -6 89 90 -386 -496 0
35 -8 -6 -90 -385 495 496 0
35 -8 -6 -90 -385 -496 0
35 -8 -6 -90 385 386 -495 0
35 -8 -6 -90 385 386 495 496 0
35 -8 -6 -90 385 386 -496 0
35 -8 -6 -90 -386 -495 0
35 -8 -6 -90 -386 495 496 0
35 -8 -6 -90 -386 -496 0
-35 8 6 -89 -385 -495 0
-35 8 6 -89 -385 495 496 0
-35 8 6 -89 -385 -496 0
-35 8 6 -89 385 386 -495 0
-35 8 6 -89 385 386 495 496 0
-35 8 6 -89 385 386 -496 0
-35 8 6 -89 -386 -495 0
-35 8 6 -89 -386 495 496 0
-35 8 6 89 90 -385 -495 0
-35 8 6 89 90 -385 495 496 0
-35 8 6 89 90 -385 -496 0
-35 8 6 89 90 385 386 -495 0
-35 8 6 89 90 385 386 -496 0
-35 8 6 89 90 -386 -495 0
-35 8 6 89 90 -386 495 496 0
-35 8 6 89 90 -386 -496 0
-35 8 6 -90 -385 495 496 0
-35 8 6 -90 -385 -496 0
-35 8 6 -90 385 386 -495 0
-35 8 6 -90 385 386 495 496 0
-35 8 6 -90 385 386 -496 0
-35 8 6 -90 -386 -495 0
-35 8 6 -90 -386 495 496 0
-35 8 6 -90 -386 -496 0
-35 8 -6 -89 -385 -495 0
-35 8 -6 -89 -385 495 496 0
-35 8 -6 -89 -385 -496 0
-35 8 -6 -89 385 386 -495 0
-35 8 -6 -89 385 386 495 496 0
-35 8 -6 -89 385 386 -496 0
-35 8 -6 -89 -386 495 496 0
-35 8 -6 -89 -386 -496 0
-35 8 -6 89 90 -385 -495 0
-35 8 -6 89 90 -385 495 496 0
-35 8 -6 89 90 -385 -496 0
-35 8 -6 89 90 385 386 -495 0
-35 8 -6 89 90 385 386 -496 0
-35 8 -6 89 90 -386 -495 0
-35 8 -6 89 90 -386 495 496 0
-35 8 -6 89 90 -386 -496 0
-35 8 -6 -90 -385 -495 0
-35 8 -6 -90 -385 495 496 0
-35 8 -6 -90 385 386 -495 0
-35 8 -6 -90 385 386 495 496 0
-35 8 -6 -90 385 386 -496 0
-35 8 -6 -90 -386 -495 0
-35 8 -6 -90 -386 495 496 0
-35 8 -6 -90 -386 -496 0
-35 -8 6 -89 -385 -495 0
-35 -8 6 -89 -385 495 496 0
-35 -8 6 -89 385 386 -495 0
-35 -8 6 -89 385 386 495 496 0
-35 -8 6 -89 385 386 -496 0
-35 -8 6 -89 -386 -495 0
-35 -8 6 -89 -386 495 496 0
-35 -8 6 -89 -386 -496 0
-35 -8 6 89 90 -385 -495 0
-35 -8 6 89 90 -385 495 496 0
-35 -8 6 89 90 -385 -496 0
-35 -8 6 89 90 385 386 -495 0
-35 -8 6 89 90 385 386 -496 0
-35 -8 6 89 90 -386 -495 0
-35 -8 6 89 90 -386 495 496 0
-35 -8 6 89 90 -386 -496 0
-35 -8 6 -90 -385 -495 0
-35 -8 6 -90 -385 495 496 0
-35 -8 6 -90 -385 -496 0
-35 -8 6 -90 385 386 -495 0
-35 -8 6 -90 385 386 495 496 0
-35 -8 6 -90 385 386 -496 0
-35 -8 6 -90 -386 495 496 0
-35 -8 6 -90 -386 -496 0
-35 -8 -6 -89 -385 495 496 0
-35 -8 -6 -89 -385 -496 0
-35 -8 -6 -89 385 386 -495 0
-35 -8 -6 -89 385 386 495 496 0
-35 -8 -6 -89 385 386 -496 0
-35 -8 -6 -89 -386 -495 0
-35 -8 -6 -89 -386 495 496 0
-35 -8 -6 -89 -386 -496 0
-35 -8 -6 89 90 -385 -495 0
-35 -8 -6 89 90 -385 495 496 0
-35 -8 -6 89 90 -385 -496 0
-35 -8 -6 89 90 385 386 -495 0
-35 -8 -6 89 90 385 386 -496 0
-35 -8 -6 89 90 -386 -495 0
-35 -8 -6 89 90 -386 495 496 0
-35 -8 -6 89 90 -386 -496 0
-35 -8 -6 -90 -385 -495 0
-35 -8 -6 -90 -385 495 496 0
-35 -8 -6 -90 -385 -496 0
-35 -8 -6 -90 385 386 -495 0
-35 -8 -6 -90 385 386 495 496 0
-35 -8 -6 -90 385 386 -496 0
-35 -8 -6 -90 -386 -495 0
-35 -8 -6 -90 -386 495 496 0
36 8 7 -91 -441 497 498 0
36 8 7 -91 -441 -498 0
36 8 7 -91 441 442 -497 0
36 8 7 -91 441 442 497 498 0
36 8 7 -91 441 442 -498 0
36 8 7 -91 -442 -497 0
36 8 7 -91 -442 497 498 0
36 8 7 -91 -442 -498 0
36 8 7 91 92 -441 -497 0
36 8 7 91 92 -441 497 498 0
36 8 7 91 92 -441 -498 0
36 8 7 91 92 441 442 -497 0
36 8 7 91 92 441 442 -498 0
36 8 7 91 92 -442 -497 0
36 8 7 91 92 -442 497 498 0
36 8 7 91 92 -442 -498 0
36 8 7 -92 -441 -497 0
36 8 7 -92 -441 497 498 0
36 8 7 -92 -441 -498 0
36 8 7 -92 441 442 -497 0
36 8 7 -92 441 442 497 498 0
36 8 7 -92 441 442 -498 0
36 8 7 -92 -442 -497 0
36 8 7 -92 -442 497 498 0
36 8 -7 -91 -441 -497 0
36 8 -7 -91 -441 497 498 0
36 8 -7 -91 441 442 -497 0
36 8 -7 -91 441 442 497 498 0
36 8 -7 -91 441 442 -498 0
36 8 -7 -91 -442 -497 0
36 8 -7 -91 -442 497 498 0
36 8 -7 -91 -442 -498 0
36 8 -7 91 92 -441 -497 0
36 8 -7 91 92 -441 497 498 0
36 8 -7 91 92 -441 -498 0
36 8 -7 91 92 441 442 -497 0
36 8 -7 91 92 441 442 -498 0
36 8 -7 91 92 -442 -497 0
36 8 -7 91 92 -442 497 498 0
36 8 -7 91 92 -442 -498 0
36 8 -7 -92 -441 -497 0
36 8 -7 -92 -441 497 498 0
36 8 -7 -92 -441 -498 0
36 8 -7 -92 441 442 -497 0
36 8 -7 -92 441 442 497 498 0
36 8 -7 -92 441 442 -498 0
36 8 -7 -92 -442 497 498 0
36 8 -7 -92 -442 -498 0
36 -8 7 -91 -441 -497 0
36 -8 7 -91 -441 497 498 0
36 -8 7 -91 -441 -498 0
36 -8 7 -91 441 442 -497 0
36 -8 7 -91 441 442 497 498 0
36 -8 7 -91 441 442 -498 0
36 -8 7 -91 -442 497 498 0
36 -8 7 -91 -442 -498 0
36 -8 7 91 92 -441 -497 0
36 -8 7 91 92 -441 497 498 0
36 -8 7 91 92 -441 -498 0
36 -8 7 91 92 441 442 -497 0
36 -8 7 91 92 441 442 -498 0
36 -8 7 91 92 -442 -497 0
36 -8 7 91 92 -442 497 498 0
36 -8 7 91 92 -442 -498 0
36 -8 7 -92 -441 -497 0
36 -8 7 -92 -441 497 498 0
36 -8 7 -92 441 442 -497 0
36 -8 7 -92 441 442 497 498 0
36 -8 7 -92 441 442 -498 0
36 -8 7 -92 -442 -497 0
36 -8 7 -92 -442 497 498 0
36 -8 7 -92 -442 -498 0
36 -8 -7 -91 -441 -497 0
36 -8 -7 -91 -441 497 498 0
36 -8 -7 -91 -441 -498 0
36 -8 -7 -91 441 442 -497 0
36 -8 -7 -91 441 442 497 498 0
36 -8 -7 -91 441 442 -498 0
36 -8 -7 -91 -442 -497 0
36 -8 -7 -91 -442 497 498 0
36 -8 -7 91 92 -441 -497 0
36 -8 -7 91 92 -441 497 498 0
36 -8 -7 91 92 -441 -498 0
36 -8 -7 91 92 441 442 -497 0
36 -8 -7 91 92 441 442 -498 0
36 -8 -7 91 92 -442 -497 0
36 -8 -7 91 92 -442 497 498 0
36 -8 -7 91 92 -442 -498 0
36 -8 -7 -92 -441 497 498 0
36 -8 -7 -92 -441 -498 0
36 -8 -7 -92 441 442 -497 0
36 -8 -7 -92 441 442 497 498 0
36 -8 -7 -92 441 442 -498 0
36 -8 -7 -92 -442 -497 0
36 -8 -7 -92 -442 497 498 0
36 -8 -7 -92 -442 -498 0
-36 8 7 -91 -441 -497 0
-36 8 7 -91 -441 497 498 0
-36 8 7 -91 -441 -498 0
-36 8 7 -91 441 442 -497 0
-36 8 7 -91 441 442 497 498 0
-36 8 7 -91 441 442 -498 0
-36 8 7 -91 -442 -497 0
-36 8 7 -91 -442 497 498 0
-36 8 7 91 92 -441 -497 0
-36 8 7 91 92 -441 497 498 0
-36 8 7 91 92 -441 -498 0
-36 8 7 91 92 441 442 -497 0
-36 8 7 91 92 441 442 -498 0
-36 8 7 91 92 -442 -497 0
-36 8 7 91 92 -442 497 498 0
-36 8 7 91 92 -442 -498 0
-36 8 7 -92 -441 497 498 0
-36 8 7 -92 -441 -498 0
-36 8 7 -92 441 442 -497 0
-36 8 7 -92 441 442 497 498 0
-36 8 7 -92 441 442 -498 0
-36 8 7 -92 -442 -497 0
-36 8 7 -92 -442 497 498 0
-36 8 7 -92 -442 -498 0
-36 8 -7 -91 -441 -497 0
-36 8 -7 -91 -441 497 498 0
-36 8 -7 -91 -441 -498 0
-36 8 -7 -91 441 442 -497 0
-36 8 -7 -91 441 442 497 498 0
-36 8 -7 -91 441 442 -498 0
-36 8 -7 -91 -442 497 498 0
-36 8 -7 -91 -442 -498 0
-36 8 -7 91 92 -441 -497 0
-36 8 -7 91 92 -441 497 498 0
-36 8 -7 91 92 -441 -498 0
-36 8 -7 91 92 441 442 -497 0
-36 8 -7 91 92 441 442 -498 0
-36 8 -7 91 92 -442 -497 0
-36 8 -7 91 92 -442 497 498 0
-36 8 -7 91 92 -442 -498 0
-36 8 -7 -92 -441 -497 0
-36 8 -7 -92 -441 497 498 0
-36 8 -7 -92 441 442 -497 0
-36 8 -7 -92 441 442 497 498 0
-36 8 -7 -92 441 442 -498 0
-36 8 -7 -92 -442 -497 0
-36 8 -7 -92 -442 497 498 0
-36 8 -7 -92 -442 -498 0
-36 -8 7 -91 -441 -497 0
-36 -8 7 -91 -441 497 498 0
-36 -8 7 -91 441 442 -497 0
-36 -8 7 -91 441 442 497 498 0
-36 -8 7 -91 441 442 -498 0
-36 -8 7 -91 -442 -497 0
-36 -8 7 -91 -442 497 498 0
-36 -8 7 -91 -442 -498 0
-36 -8 7 91 92 -441 -497 0
-36 -8 7 91 92 -441 497 498 0
-36 -8 7 91 92 -441 -498 0
-36 -8 7 91 92 441 442 -497 0
-36 -8 7 91 92 441 442 -498 0
-36 -8 7 91 92 -442 -497 0
-36 -8 7 91 92 -442 497 498 0
-36 -8 7 91 92 -442 -498 0
-36 -8 7 -92 -441 -497 0
-36 -8 7 -92 -441 497 498 0
-36 -8 7 -92 -441 -498 0
-36 -8 7 -92 441 442 -497 0
-36 -8 7 -92 441 442 497 498 0
-36 -8 7 -92 441 442 -498 0
-36 -8 7 -92 -442 497 498 0
-36 -8 7 -92 -442 -498 0
-36 -8 -7 -91 -441 497 498 0
-36 -8 -7 -91 -441 -498 0
-36 -8 -7 -91 441 442 -497 0
-36 -8 -7 -91 441 442 497 498 0
-36 -8 -7 -91 441 442 -498 0
-36 -8 -7 -91 -442 -497 0
-36 -8 -7 -91 -442 497 498 0
-36 -8 -7 -91 -442 -498 0
-36 -8 -7 91 92 -441 -497 0
-36 -8 -7 91 92 -441 497 498 0
-36 -8 -7 91 92 -441 -498 0
-36 -8 -7 91 92 441 442 -497 0
-36 -8 -7 91 92 441 442 -498 0
-36 -8 -7 91 92 -442 -497 0
-36 -8 -7 91 92 -442 497 498 0
-36 -8 -7 91 92 -442 -498 0
-36 -8 -7 -92 -441 -497 0
-36 -8 -7 -92 -441 497 498 0
-36 -8 -7 -92 -441 -498 0
-36 -8 -7 -92 441 442 -497 0
-36 -8 -7 -92 441 442 497 498 0
-36 -8 -7 -92 441 442 -498 0
-36 -8 -7 -92 -442 -497 0
-36 -8 -7 -92 -442 497 498 0
16 10 9 -107 -163 219 220 0
16 10 9 -107 -163 -220 0
16 10 9 -107 163 164 -219 0
16 10 9 -107 163 164 219 220 0
16 10 9 -107 163 164 -220 0
16 10 9 -107 -164 -219 0
16 10 9 -107 -164 219 220 0
16 10 9 -107 -164 -220 0
16 10 9 107 108 -163 -219 0
16 10 9 107 108 -163 219 220 0
16 10 9 107 108 -163 -220 0
16 10 9 107 108 163 164 -219 0
16 10 9 107 108 163 164 -220 0
16 10 9 107 108 -164 -219 0
16 10 9 107 108 -164 219 220 0
16 10 9 107 108 -164 -220 0
16 10 9 -108 -163 -219 0
16 10 9 -108 -163 219 220 0
16 10 9 -108 -163 -220 0
16 10 9 -108 163 164 -219 0
16 10 9 -108 163 164 219 220 0
16 10 9 -108 163 164 -220 0
16 10 9 -108 -164 -219 0
16 10 9 -108 -164 219 220 0
16 10 -9 -107 -163 -219 0
16 10 -9 -107 -163 219 220 0
16 10 -9 -107 163 164 -219 0
16 10 -9 -107 163 164 219 220 0
16 10 -9 -107 163 164 -220 0
16 10 -9 -107 -164 -219 0
16 10 -9 -107 -164 219 220 0
16 10 -9 -107 -164 -220 0
16 10 -9 107 108 -163 -219 0
16 10 -9 107 108 -163 219 220 0
16 10 -9 107 108 -163 -220 0
16 10 -9 107 108 163 164 -219 0
16 10 -9 107 108 163 164 -220 0
16 10 -9 107 108 -164 -219 0
16 10 -9 107 108 -164 219 220 0
16 10 -9 107 108 -164 -220 0
16 10 -9 -108 -163 -219 0
16 10 -9 -108 -163 219 220 0
16 10 -9 -108 -163 -220 0
16 10 -9 -108 163 164 -219 0
16 10 -9 -108 163 164 219 220 0
16 10 -9 -108 163 164 -220 0
16 10 -9 -108 -164 219 220 0
16 10 -9 -108 -164 -220 0
16 -10 9 -107 -163 -219 0
16 -10 9 -107 -163 219 220 0
16 -10 9 -107 -163 -220 0
16 -10 9 -107 163 164 -219 0
16 -10 9 -107 163 164 219 220 0
16 -10 9 -107 163 164 -220 0
16 -10 9 -107 -164 219 220 0
16 -10 9 -107 -164 -220 0
16 -10 9 107 108 -163 -219 0
16 -10 9 107 108 -163 219 220 0
16 -10 9 107 108 -163 -220 0
16 -10 9 107 108 163 164 -219 0
16 -10 9 107 108 163 164 -220 0
16 -10 9 107 108 -164 -219 0
16 -10 9 107 108 -164 219 220 0
16 -10 9 107 108 -164 -220 0
16 -10 9 -108 -163 -219 0
16 -10 9 -108 -163 219 220 0
16 -10 9 -108 163 164 -219 0
16 -10 9 -108 163 164 219 220 0
16 -10 9 -108 163 164 -220 0
16 -10 9 -108 -164 -219 0
16 -10 9 -108 -164 219 220 0
16 -10 9 -108 -164 -220 0
16 -10 -9 -107 -163 -219 0
16 -10 -9 -107 -163 219 220 0
16 -10 -9 -107 -163 -220 0
16 -10 -9 -107 163 164 -219 0
16 -10 -9 -107 163 164 219 220 0
16 -10 -9 -107 163 164 -220 0
16 -10 -9 -107 -164 -219 0
16 -10 -9 -107 -164 219 220 0
16 -10 -9 107 108 -163 -219 0
16 -10 -9 107 108 -163 219 220 0
16 -10 -9 107 108 -163 -220 0
16 -10 -9 107 108 163 164 -219 0
16 -10 -9 107 108 163 164 -220 0
16 -10 -9 107 108 -164 -219 0
16 -10 -9 107 108 -164 219 220 0
16 -10 -9 107 108 -164 -220 0
16 -10 -9 -108 -163 219 220 0
16 -10 -9 -108 -163 -220 0
16 -10 -9 -108 163 164 -219 0
16 -10 -9 -108 163 164 219 220 0
16 -10 -9 -108 163 164 -220 0
16 -10 -9 -108 -164 -219 0
16 -10 -9 -108 -164 219 220 0
16 -10 -9 -108 -164 -220 0
-16 10 9 -107 -163 -219 0
-16 10 9 -107 -163 219 220 0
-16 10 9 -107 -163 -220 0
-16 10 9 -107 163 164 -219 0
-16 10 9 -107 163 164 219 220 0
-16 10 9 -107 163 164 -220 0
-16 10 9 -107 -164 -219 0
-16 10 9 -107 -164 219 220 0
-16 10 9 107 108 -163 -219 0
-16 10 9 107 108 -163 219 220 0
-16 10 9 107 108 -163 -220 0
-16 10 9 107 108 163 164 -219 0
-16 10 9 107 108 163 164 -220 0
-16 10 9 107 108 -164 -219 0
-16 10 9 107 108 -164 219 220 0
-16 10 9 107 108 -164 -220 0
-16 10 9 -108 -163 219 220 0
-16 10 9 -108 -163 -220 0
-16 10 9 -108 163 164 -219 0
-16 10 9 -108 163 164 219 220 0
-16 10 9 -108 163 164 -220 0
-16 10 9 -108 -164 -219 0
-16 10 9 -108 -164 219 220 0
-16 10 9 -108 -164 -220 0
-16 10 -9 -107 -163 -219 0
-16 10 -9 -107 -163 219 220 0
-16 10 -9 -107 -163 -220 0
-16 10 -9 -107 163 164 -219 0
-16 10 -9 -107 163 164 219 220 0
-16 10 -9 -107 163 164 -220 0
-16 10 -9 -107 -164 219 220 0
-16 10 -9 -107 -164 -220 0
-16 10 -9 107 108 -163 -219 0
-16 10 -9 107 108 -163 219 220 0
-16 10 -9 107 108 -163 -220 0
-16 10 -9 107 108 163 164 -219 0
-16 10 -9 107 108 163 164 -220 0
-16 10 -9 107 108 -164 -219 0
-16 10 -9 107 108 -164 219 220 0
-16 10 -9 107 108 -164 -220 0
-16 10 -9 -108 -163 -219 0
-16 10 -9 -108 -163 219 220 0
-16 10 -9 -108 163 164 -219 0
-16 10 -9 -108 163 164 219 220 0
-16 10 -9 -108 163 164 -220 0
-16 10 -9 -108 -164 -219 0
-16 10 -9 -108 -164 219 220 0
-16 10 -9 -108 -164 -220 0
-16 -10 9 -107 -163 -219 0
-16 -10 9 -107 -163 219 220 0
-16 -10 9 -107 163 164 -219 0
-16 -10 9 -107 163 164 219 220 0
-16 -10 9 -107 163 164 -220 0
-16 -10 9 -107 -164 -219 0
-16 -10 9 -107 -164 219 220 0
-16 -10 9 -107 -164 -220 0
-16 -10 9 107 108 -163 -219 0
-16 -10 9 107 108 -163 219 220 0
-16 -10 9 107 108 -163 -220 0
-16 -10 9 107 108 163 164 -219 0
-16 -10 9 107 108 163 164 -220 0
-16 -10 9 107 108 -164 -219 0
-16 -10 9 107 108 -164 219 220 0
-16 -10 9 107 108 -164 -220 0
-16 -10 9 -108 -163 -219 0
-16 -10 9 -108 -163 219 220 0
-16 -10 9 -108 -163 -220 0
-16 -10 9 -108 163 164 -219 0
-16 -10 9 -108 163 164 219 220 0
-16 -10 9 -108 163 164 -220 0
-16 -10 9 -108 -164 219 220 0
-16 -10 9 -108 -164 -220 0
-16 -10 -9 -107 -163 219 220 0
-16 -10 -9 -107 -163 -220 0
-16 -10 -9 -107 163 164 -219 0
-16 -10 -9 -107 163 164 219 220 0
-16 -10 -9 -107 163 164 -220 0
-16 -10 -9 -107 -164 -219 0
-16 -10 -9 -107 -164 219 220 0
-16 -10 -9 -107 -164 -220 0
-16 -10 -9 107 108 -163 -219 0
-16 -10 -9 107 108 -163 219 220 0
-16 -10 -9 107 108 -163 -220 0
-16 -10 -9 107 108 163 164 -219 0
-16 -10 -9 107 108 163 164 -220 0
-16 -10 -9 107 108 -164 -219 0
-16 -10 -9 107 108 -164 219 220 0
-16 -10 -9 107 108 -164 -220 0
-16 -10 -9 -108 -163 -219 0
-16 -10 -9 -108 -163 219 220 0
-16 -10 -9 -108 -163 -220 0
-16 -10 -9 -108 163 164 -219 0
-16 -10 -9 -108 163 164 219 220 0
-16 -10 -9 -108 163 164 -220 0
-16 -10 -9 -108 -164 -219 0
-16 -10 -9 -108 -164 219 220 0
17 11 9 -109 -165 275 276 0
17 11 9 -109 -165 -276 0
17 11 9 -109 165 166 -275 0
17 11 9 -109 165 166 275 276 0
17 11 9 -109 165 166 -276 0
17 11 9 -109 -166 -275 0
17 11 9 -109 -166 275 276 0
17 11 9 -109 -166 -276 0
17 11 9 109 110 -165 -275 0
17 11 9 109 110 -165 275 276 0
17 11 9 109 110 -165 -276 0
17 11 9 109 110 165 166 -275 0
17 11 9 109 110 165 166 -276 0
17 11 9 109 110 -166 -275 0
17 11 9 109 110 -166 275 276 0
17 11 9 109 110 -166 -276 0
17 11 9 -110 -165 -275 0
17 11 9 -110 -165 275 276 0
17 11 9 -110 -165 -276 0
17 11 9 -110 165 166 -275 0
17 11 9 -110 165 166 275 276 0
17 11 9 -110 165 166 -276 0
17 11 9 -110 -166 -275 0
17 11 9 -110 -166 275 276 0
17 11 -9 -109 -165 -275 0
17 11 -9 -109 -165 275 276 0
17 11 -9 -109 165 166 -275 0
17 11 -9 -109 165 166 275 276 0
17 11 -9 -109 165 166 -276 0
17 11 -9 -109 -166 -275 0
17 11 -9 -109 -166 275 276 0
17 11 -9 -109 -166 -276 0
17 11 -9 109 110 -165 -275 0
17 11 -9 109 110 -165 275 276 0
17 11 -9 109 110 -165 -276 0
17 11 -9 109 110 165 166 -275 0
17 11 -9 109 110 165 166 -276 0
17 11 -9 109 110 -166 -275 0
17 11 -9 109 110 -166 275 276 0
17 11 -9 109 110 -166 -276 0
17 11 -9 -110 -165 -275 0
17 11 -9 -110 -165 275 276 0
17 11 -9 -110 -165 -276 0
17 11 -9 -110 165 166 -275 0
17 11 -9 -110 165 166 275 276 0
17 11 -9 -110 165 166 -276 0
17 11 -9 -110 -166 275 276 0
17 11 -9 -110 -166 -276 0
17 -11 9 -109 -165 -275 0
17 -11 9 -109 -165 275 276 0
17 -11 9 -109 -165 -276 0
17 -11 9 -109 165 166 -275 0
17 -11 9 -109 165 166 275 276 0
17 -11 9 -109 165 166 -276 0
17 -11 9 -109 -166 275 276 0
17 -11 9 -109 -166 -276 0
17 -11 9 109 110 -165 -275 0
17 -11 9 109 110 -165 275 276 0
17 -11 9 109 110 -165 -276 0
17 -11 9 109 110 165 166 -275 0
17 -11 9 109 110 165 166 -276 0
17 -11 9 109 110 -166 -275 0
17 -11 9 109 110 -166 275 276 0
17 -11 9 109 110 -166 -276 0
17 -11 9 -110 -165 -275 0
17 -11 9 -110 -165 275 276 0
17 -11 9 -110 165 166 -275 0
17 -11 9 -110 165 166 275 276 0
17 -11 9 -110 165 166 -276 0
17 -11 9 -110 -166 -275 0
17 -11 9 -110 -166 275 276 0
17 -11 9 -110 -166 -276 0
17 -11 -9 -109 -165 -275 0
17 -11 -9 -109 -165 275 276 0
17 -11 -9 -109 -165 -276 0
17 -11 -9 -109 165 166 -275 0
17 -11 -9 -109 165 166 275 276 0
17 -11 -9 -109 165 166 -276 0
17 -11 -9 -109 -166 -275 0
17 -11 -9 -109 -166 275 276 0
17 -11 -9 109 110 -165 -275 0
17 -11 -9 109 110 -165 275 276 0
17 -11 -9 109 110 -165 -276 0
17 -11 -9 109 110 165 166 -275 0
17 -11 -9 109 110 165 166 -276 0
17 -11 -9 109 110 -166 -275 0
17 -11 -9 109 110 -166 275 276 0
17 -11 -9 109 110 -166 -276 0
17 -11 -9 -110 -165 275 276 0
17 -11 -9 -110 -165 -276 0
17 -11 -9 -110 165 166 -275 0
17 -11 -9 -110 165 166 275 276 0
17 -11 -9 -110 165 166 -276 0
17 -11 -9 -110 -166 -275 0
17 -11 -9 -110 -166 275 276 0
17 -11 -9 -110 -166 -276 0
-17 11 9 -109 -165 -275 0
-17 11 9 -109 -165 275 276 0
-17 11 9 -109 -165 -276 0
-17 11 9 -109 165 166 -275 0
-17 11 9 -109 165 166 275 276 0
-17 11 9 -109 165 166 -276 0
-17 11 9 -109 -166 -275 0
-17 11 9 -109 -166 275 276 0
-17 11 9 109 110 -165 -275 0
-17 11 9 109 110 -165 275 276 0
-17 11 9 109 110 -165 -276 0
-17 11 9 109 110 165 166 -275 0
-17 11 9 109 110 165 166 -276 0
-17 11 9 109 110 -166 -275 0
-17 11 9 109 110 -166 275 276 0
-17 11 9 109 110 -166 -276 0
-17 11 9 -110 -165 275 276 0
-17 11 9 -110 -165 -276 0
-17 11 9 -110 165 166 -275 0
-17 11 9 -110 165 166 275 276 0
-17 11 9 -110 165 166 -276 0
-17 11 9 -110 -166 -275 0
-17 11 9 -110 -166 275 276 0
-17 11 9 -110 -166 -276 0
-17 11 -9 -109 -165 -275 0
-17 11 -9 -109 -165 275 276 0
-17 11 -9 -109 -165 -276 0
-17 11 -9 -109 165 166 -275 0
-17 11 -9 -109 165 166 275 276 0
-17 11 -9 -109 165 166 -276 0
-17 11 -9 -109 -166 275 276 0
-17 11 -9 -109 -166 -276 0
-17 11 -9 109 110 -165 -275 0
-17 11 -9 109 110 -165 275 276 0
-17 11 -9 109 110 -165 -276 0
-17 11 -9 109 110 165 166 -275 0
-17 11 -9 109 110 165 166 -276 0
-17 11 -9 109 110 -166 -275 0
-17 11 -9 109 110 -166 275 276 0
-17 11 -9 109 110 -166 -276 0
-17 11 -9 -110 -165 -275 0
-17 11 -9 -110 -165 275 276 0
-17 11 -9 -110 165 166 -275 0
-17 11 -9 -110 165 166 275 276 0
-17 11 -9 -110 165 166 -276 0
-17 11 -9 -110 -166 -275 0
-17 11 -9 -110 -166 275 276 0
-17 11 -9 -110 -166 -276 0
-17 -11 9 -109 -165 -275 0
-17 -11 9 -109 -165 275 276 0
-17 -11 9 -109 165 166 -275 0
-17 -11 9 -109 165 166 275 276 0
-17 -11 9 -109 165 166 -276 0
-17 -11 9 -109 -166 -275 0
-17 -11 9 -109 -166 275 276 0
-17 -11 9 -109 -166 -276 0
-17 -11 9 109 110 -165 -275 0
-17 -11 9 109 110 -165 275 276 0
-17 -11 9 109 110 -165 -276 0
-17 -11 9 109 110 165 166 -275 0
-17 -11 9 109 110 165 166 -276 0
-17 -11 9 109 110 -166 -275 0
-17 -11 9 109 110 -166 275 276 0
-17 -11 9 109 110 -166 -276 0
-17 -11 9 -110 -165 -275 0
-17 -11 9 -110 -165 275 276 0
-17 -11 9 -110 -165 -276 0
-17 -11 9 -110 165 166 -275 0
-17 -11 9 -110 165 166 275 276 0
-17 -11 9 -110 165 166 -276 0
-17 -11 9 -110 -166 275 276 0
-17 -11 9 -110 -166 -276 0
-17 -11 -9 -109 -165 275 276 0
-17 -11 -9 -109 -165 -276 0
-17 -11 -9 -109 165 166 -275 0
-17 -11 -9 -109 165 166 275 276 0
-17 -11 -9 -109 165 166 -276 0
-17 -11 -9 -109 -166 -275 0
-17 -11 -9 -109 -166 275 276 0
-17 -11 -9 -109 -166 -276 0
-17 -11 -9 109 110 -165 -275 0
-17 -11 -9 109 110 -165 275 276 0
-17 -11 -9 109 110 -165 -276 0
-17 -11 -9 109 110 165 166 -275 0
-17 -11 -9 109 110 165 166 -276 0
-17 -11 -9 109 110 -166 -275 0
-17 -11 -9 109 110 -166 275 276 0
-17 -11 -9 109 110 -166 -276 0
-17 -11 -9 -110 -165 -275 0
-17 -11 -9 -110 -165 275 276 0
-17 -11 -9 -110 -165 -276 0
-17 -11 -9 -110 165 166 -275 0
-17 -11 -9 -110 165 166 275 276 0
-17 -11 -9 -110 165 166 -276 0
-17 -11 -9 -110 -166 -275 0
-17 -11 -9 -110 -166 275 276 0
18 12 9 -111 -167 331 332 0
18 12 9 -111 -167 -332 0
18 12 9 -111 167 168 -331 0
18 12 9 -111 167 168 331 332 0
18 12 9 -111 167 168 -332 0
18 12 9 -111 -168 -331 0
18 12 9 -111 -168 331 332 0
18 12 9 -111 -168 -332 0
18 12 9 111 112 -167 -331 0
18 12 9 111 112 -167 331 332 0
18 12 9 111 112 -167 -332 0
18 12 9 111 112 167 168 -331 0
18 12 9 111 112 167 168 -332 0
18 12 9 111 112 -168 -331 0
18 12 9 111 112 -168 331 332 0
18 12 9 111 112 -168 -332 0
18 12 9 -112 -167 -331 0
18 12 9 -112 -167 331 332 0
18 12 9 -112 -167 -332 0
18 12 9 -112 167 168 -331 0
18 12 9 -112 167 168 331 332 0
18 12 9 -112 167 168 -332 0
18 12 9 -112 -168 -331 0
18 12 9 -112 -168 331 332 0
18 12 -9 -111 -167 -331 0
18 12 -9 -111 -167 331 332 0
18 12 -9 -111 167 168 -331 0
18 12 -9 -111 167 168 331 332 0
18 12 -9 -111 167 168 -332 0
18 12 -9 -111 -168 -331 0
18 12 -9 -111 -168 331 332 0
18 12 -9 -111 -168 -332 0
18 12 -9 111 112 -167 -331 0
18 12 -9 111 112 -167 331 332 0
18 12 -9 111 112 -167 -332 0
18 12 -9 111 112 167 168 -331 0
18 12 -9 111 112 167 168 -332 0
18 12 -9 111 112 -168 -331 0
18 12 -9 111 112 -168 331 332 0
18 12 -9 111 112 -168 -332 0
18 12 -9 -112 -167 -331 0
18 12 -9 -112 -167 331 332 0
18 12 -9 -112 -167 -332 0
18 12 -9 -112 167 168 -331 0
18 12 -9 -112 167 168 331 332 0
18 12 -9 -112 167 168 -332 0
18 12 -9 -112 -168 331 332 0
18 12 -9 -112 -168 -332 0
18 -12 9 -111 -167 -331 0
18 -12 9 -111 -167 331 332 0
18 -12 9 -111 -167 -332 0
18 -12 9 -111 167 168 -331 0
18 -12 9 -111 167 168 331 332 0
18 -12 9 -111 167 168 -332 0
18 -12 9 -111 -168 331 332 0
18 -12 9 -111 -168 -332 0
18 -12 9 111 112 -167 -331 0
18 -12 9 111 112 -167 331 332 0
18 -12 9 111 112 -167 -332 0
18 -12 9 111 112 167 168 -331 0
18 -12 9 111 112 167 168 -332 0
18 -12 9 111 112 -168 -331 0
18 -12 9 111 112 -168 331 332 0
18 -12 9 111 112 -168 -332 0
18 -12 9 -112 -167 -331 0
18 -12 9 -112 -167 331 332 0
18 -12 9 -112 167 168 -331 0
18 -12 9 -112 167 168 331 332 0
18 -12 9 -112 167 168 -332 0
18 -12 9 -112 -168 -331 0
18 -12 9 -112 -168 331 332 0
18 -12 9 -112 -168 -332 0
18 -12 -9 -111 -167 -331 0
18 -12 -9 -111 -167 331 332 0
18 -12 -9 -111 -167 -332 0
18 -12 -9 -111 167 168 -331 0
18 -12 -9 -111 167 168 331 332 0
18 -12 -9 -111 167 168 -332 0
18 -12 -9 -111 -168 -331 0
18 -12 -9 -111 -168 331 332 0
18 -12 -9 111 112 -167 -331 0
18 -12 -9 111 112 -167 331 332 0
18 -12 -9 111 112 -167 -332 0
18 -12 -9 111 112 167 168 -331 0
18 -12 -9 111 112 167 168 -332 0
18 -12 -9 111 112 -168 -331 0
18 -12 -9 111 112 -168 331 332 0
18 -12 -9 111 112 -168 -332 0
18 -12 -9 -112 -167 331 332 0
18 -12 -9 -112 -167 -332 0
18 -12 -9 -112 167 168 -331 0
18 -12 -9 -112 167 168 331 332 0
18 -12 -9 -112 167 168 -332 0
18 -12 -9 -112 -168 -331 0
18 -12 -9 -112 -168 331 332 0
18 -12 -9 -112 -168 -332 0
-18 12 9 -111 -167 -331 0
-18 12 9 -111 -167 331 332 0
-18 12 9 -111 -167 -332 0
-18 12 9 -111 167 168 -331 0
-18 12 9 -111 167 168 331 332 0
-18 12 9 -111 167 168 -332 0
-18 12 9 -111 -168 -331 0
-18 12 9 -111 -168 331 332 0
-18 12 9 111 112 -167 -331 0
-18 12 9 111 112 -167 331 332 0
-18 12 9 111 112 -167 -332 0
-18 12 9 111 112 167 168 -331 0
-18 12 9 111 112 167 168 -332 0
-18 12 9 111 112 -168 -331 0
-18 12 9 111 112 -168 331 332 0
-18 12 9 111 112 -168 -332 0
-18 12 9 -112 -167 331 332 0
-18 12 9 -112 -167 -332 0
-18 12 9 -112 167 168 -331 0
-18 12 9 -112 167 168 331 332 0
-18 12 9 -112 167 168 -332 0
-18 12 9 -112 -168 -331 0
-18 12 9 -112 -168 331 332 0
-18 12 9 -112 -168 -332 0
-18 12 -9 -111 -167 -331 0
-18 12 -9 -111 -167 331 332 0
-18 12 -9 -111 -167 -332 0
-18 12 -9 -111 167 168 -331 0
-18 12 -9 -111 167 168 331 332 0
-18 12 -9 -111 167 168 -332 0
-18 12 -9 -111 -168 331 332 0
-18 12 -9 -111 -168 -332 0
-18 12 -9 111 112 -167 -331 0
-18 12 -9 111 112 -167 331 332 0
-18 12 -9 111 112 -167 -332 0
-18 12 -9 111 112 167 168 -331 0
-18 12 -9 111 112 167 168 -332 0
-18 12 -9 111 112 -168 -331 0
-18 12 -9 111 112 -168 331 332 0
-18 12 -9 111 112 -168 -332 0
-18 12 -9 -112 -167 -331 0
-18 12 -9 -112 -167 331 332 0
-18 12 -9 -112 167 168 -331 0
-18 12 -9 -112 167 168 331 332 0
-18 12 -9 -112 167 168 -332 0
-18 12 -9 -112 -168 -331 0
-18 12 -9 -112 -168 331 332 0
-18 12 -9 -112 -168 -332 0
-18 -12 9 -111 -167 -331 0
-18 -12 9 -111 -167 331 332 0
-18 -12 9 -111 167 168 -331 0
-18 -12 9 -111 167 168 331 332 0
-18 -12 9 -111 167 168 -332 0
-18 -12 9 -111 -168 -331 0
-18 -12 9 -111 -168 331 332 0
-18 -12 9 -111 -168 -332 0
-18 -12 9 111 112 -167 -331 0
-18 -12 9 111 112 -167 331 332 0
-18 -12 9 111 112 -167 -332 0
-18 -12 9 111 112 167 168 -331 0
-18 -12 9 111 112 167 168 -332 0
-18 -12 9 111 112 -168 -331 0
-18 -12 9 111 112 -168 331 332 0
-18 -12 9 111 112 -168 -332 0
-18 -12 9 -112 -167 -331 0
-18 -12 9 -112 -167 331 332 0
-18 -12 9 -112 -167 -332 0
-18 -12 9 -112 167 168 -331 0
-18 -12 9 -112 167 168 331 332 0
-18 -12 9 -112 167 168 -332 0
-18 -12 9 -112 -168 331 332 0
-18 -12 9 -112 -168 -332 0
-18 -12 -9 -111 -167 331 332 0
-18 -12 -9 -111 -167 -332 0
-18 -12 -9 -111 167 168 -331 0
-18 -12 -9 -111 167 168 331 332 0
-18 -12 -9 -111 167 168 -332 0
-18 -12 -9 -111 -168 -331 0
-18 -12 -9 -111 -168 331 332 0
-18 -12 -9 -111 -168 -332 0
-18 -12 -9 111 112 -167 -331 0
-18 -12 -9 111 112 -167 331 332 0
-18 -12 -9 111 112 -167 -332 0
-18 -12 -9 111 112 167 168 -331 0
-18 -12 -9 111 112 167 168 -332 0
-18 -12 -9 111 112 -168 -331 0
-18 -12 -9 111 112 -168 331 332 0
-18 -12 -9 111 112 -168 -332 0
-18 -12 -9 -112 -167 -331 0
-18 -12 -9 -112 -167 331 332 0
-18 -12 -9 -112 -167 -332 0
-18 -12 -9 -112 167 168 -331 0
-18 -12 -9 -112 167 168 331 332 0
-18 -12 -9 -112 167 168 -332 0
-18 -12 -9 -112 -168 -331 0
-18 -12 -9 -112 -168 331 332 0
19 13 9 -113 -169 387 388 0
19 13 9 -113 -169 -388 0
19 13 9 -113 169 170 -387 0
19 13 9 -113 169 170 387 388 0
19 13 9 -113 169 170 -388 0
19 13 9 -113 -170 -387 0
19 13 9 -113 -170 387 388 0
19 13 9 -113 -170 -388 0
19 13 9 113 114 -169 -387 0
19 13 9 113 114 -169 387 388 0
19 13 9 113 114 -169 -388 0
19 13 9 113 114 169 170 -387 0
19 13 9 113 114 169 170 -388 0
19 13 9 113 114 -170 -387 0
19 13 9 113 114 -170 387 388 0
19 13 9 113 114 -170 -388 0
19 13 9 -114 -169 -387 0
19 13 9 -114 -169 387 388 0
19 13 9 -114 -169 -388 0
19 13 9 -114 169 170 -387 0
19 13 9 -114 169 170 387 388 0
19 13 9 -114 169 170 -388 0
19 13 9 -114 -170 -387 0
19 13 9 -114 -170 387 388 0
19 13 -9 -113 -169 -387 0
19 13 -9 -113 -169 387 388 0
19 13 -9 -113 169 170 -387 0
19 13 -9 -113 169 170 387 388 0
19 13 -9 -113 169 170 -388 0
19 13 -9 -113 -170 -387 0
19 13 -9 -113 -170 387 388 0
19 13 -9 -113 -170 -388 0
19 13 -9 113 114 -169 -387 0
19 13 -9 113 114 -169 387 388 0
19 13 -9 113 114 -169 -388 0
19 13 -9 113 114 169 170 -387 0
19 13 -9 113 114 169 170 -388 0
19 13 -9 113 114 -170 -387 0
19 13 -9 113 114 -170 387 388 0
19 13 -9 113 114 -170 -388 0
19 13 -9 -114 -169 -387 0
19 13 -9 -114 -169 387 388 0
19 13 -9 -114 -169 -388 0
19 13 -9 -114 169 170 -387 0
19 13 -9 -114 169 170 387 388 0
19 13 -9 -114 169 170 -388 0
19 13 -9 -114 -170 387 388 0
19 13 -9 -114 -170 -388 0
19 -13 9 -113 -169 -387 0
19 -13 9 -113 -169 387 388 0
19 -13 9 -113 -169 -388 0
19 -13 9 -113 169 170 -387 0
19 -13 9 -113 169 170 387 388 0
19 -13 9 -113 169 170 -388 0
19 -13 9 -113 -170 387 388 0
19 -13 9 -113 -170 -388 0
19 -13 9 113 114 -169 -387 0
19 -13 9 113 114 -169 387 388 0
19 -13 9 113 114 -169 -388 0
19 -13 9 113 114 169 170 -387 0
19 -13 9 113 114 169 170 -388 0
19 -13 9 113 114 -170 -387 0
19 -13 9 113 114 -170 387 388 0
19 -13 9 113 114 -170 -388 0
19 -13 9 -114 -169 -387 0
19 -13 9 -114 -169 387 388 0
19 -13 9 -114 169 170 -387 0
19 -13 9 -114 169 170 387 388 0
19 -13 9 -114 169 170 -388 0
19 -13 9 -114 -170 -387 0
19 -13 9 -114 -170 387 388 0
19 -13 9 -114 -170 -388 0
19 -13 -9 -113 -169 -387 0
19 -13 -9 -113 -169 387 388 0
19 -13 -9 -113 -169 -388 0
19 -13 -9 -113 169 170 -387 0
19 -13 -9 -113 169 170 387 388 0
19 -13 -9 -113 169 170 -388 0
19 -13 -9 -113 -170 -387 0
19 -13 -9 -113 -170 387 388 0
19 -13 -9 113 114 -169 -387 0
19 -13 -9 113 114 -169 387 388 0
19 -13 -9 113 114 -169 -388 0
19 -13 -9 113 114 169 170 -387 0
19 -13 -9 113 114 169 170 -388 0
19 -13 -9 113 114 -170 -387 0
19 -13 -9 113 114 -170 387 388 0
19 -13 -9 113 114 -170 -388 0
19 -13 -9 -114 -169 387 388 0
19 -13 -9 -114 -169 -388 0
19 -13 -9 -114 169 170 -387 0
19 -13 -9 -114 169 170 387 388 0
19 -13 -9 -114 169 170 -388 0
19 -13 -9 -114 -170 -387 0
19 -13 -9 -114 -170 387 388 0
19 -13 -9 -114 -170 -388 0
-19 13 9 -113 -169 -387 0
-19 13 9 -113 -169 387 388 0
-19 13 9 -113 -169 -388 0
-19 13 9 -113 169 170 -387 0
-19 13 9 -113 169 170 387 388 0
-19 13 9 -113 169 170 -388 0
-19 13 9 -113 -170 -387 0
-19 13 9 -113 -170 387 388 0
-19 13 9 113 114 -169 -387 0
-19 13 9 113 114 -169 387 388 0
-19 13 9 113 114 -169 -388 0
-19 13 9 113 114 169 170 -387 0
-19 13 9 113 114 169 170 -388 0
-19 13 9 113 114 -170 -387 0
-19 13 9 113 114 -170 387 388 0
-19 13 9 113 114 -170 -388 0
-19 13 9 -114 -169 387 388 0
-19 13 9 -114 -169 -388 0
-19 13 9 -114 169 170 -387 0
-19 13 9 -114 169 170 387 388 0
-19 13 9 -114 169 170 -388 0
-19 13 9 -114 -170 -387 0
-19 13 9 -114 -170 387 388 0
-19 13 9 -114 -170 -388 0
-19 13 -9 -113 -169 -387 0
-19 13 -9 -113 -169 387 388 0
-19 13 -9 -113 -169 -388 0
-19 13 -9 -113 169 170 -387 0
-19 13 -9 -113 169 170 387 388 0
-19 13 -9 -113 169 170 -388 0
-19 13 -9 -113 -170 387 388 0
-19 13 -9 -113 -170 -388 0
-19 13 -9 113 114 -169 -387 0
-19 13 -9 113 114 -169 387 388 0
-19 13 -9 113 114 -169 -388 0
-19 13 -9 113 114 169 170 -387 0
-19 13 -9 113 114 169 170 -388 0
-19 13 -9 113 114 -170 -387 0
-19 13 -9 113 114 -170 387 388 0
-19 13 -9 113 114 -170 -388 0
-19 13 -9 -114 -169 -387 0
-19 13 -9 -114 -169 387 388 0
-19 13 -9 -114 169 170 -387 0
-19 13 -9 -114 169 170 387 388 0
-19 13 -9 -114 169 170 -388 0
-19 13 -9 -114 -170 -387 0
-19 13 -9 -114 -170 387 388 0
-19 13 -9 -114 -170 -388 0
-19 -13 9 -113 -169 -387 0
-19 -13 9 -113 -169 387 388 0
-19 -13 9 -113 169 170 -387 0
-19 -13 9 -113 169 170 387 388 0
-19 -13 9 -113 169 170 -388 0
-19 -13 9 -113 -170 -387 0
-19 -13 9 -113 -170 387 388 0
-19 -13 9 -113 -170 -388 0
-19 -13 9 113 114 -169 -387 0
-19 -13 9 113 114 -169 387 388 0
-19 -13 9 113 114 -169 -388 0
-19 -13 9 113 114 169 170 -387 0
-19 -13 9 113 114 169 170 -388 0
-19 -13 9 113 114 -170 -387 0
-19 -13 9 113 114 -170 387 388 0
-19 -13 9 113 114 -170 -388 0
-19 -13 9 -114 -169 -387 0
-19 -13 9 -114 -169 387 388 0
-19 -13 9 -114 -169 -388 0
-19 -13 9 -114 169 170 -387 0
-19 -13 9 -114 169 170 387 388 0
-19 -13 9 -114 169 170 -388 0
-19 -13 9 -114 -170 387 388 0
-19 -13 9 -114 -170 -388 0
-19 -13 -9 -113 -169 387 388 0
-19 -13 -9 -113 -169 -388 0
-19 -13 -9 -113 169 170 -387 0
-19 -13 -9 -113 169 170 387 388 0
-19 -13 -9 -113 169 170 -388 0
-19 -13 -9 -113 -170 -387 0
-19 -13 -9 -113 -170 387 388 0
-19 -13 -9 -113 -170 -388 0
-19 -13 -9 113 114 -169 -387 0
-19 -13 -9 113 114 -169 387 388 0
-19 -13 -9 113 114 -169 -388 0
-19 -13 -9 113 114 169 170 -387 0
-19 -13 -9 113 114 169 170 -388 0
-19 -13 -9 113 114 -170 -387 0
-19 -13 -9 113 114 -170 387 388 0
-19 -13 -9 113 114 -170 -388 0
-19 -13 -9 -114 -169 -387 0
-19 -13 -9 -114 -169 387 388 0
-19 -13 -9 -114 -169 -388 0
-19 -13 -9 -114 169 170 -387 0
-19 -13 -9 -114 169 170 387 388 0
-19 -13 -9 -114 169 170 -388 0
-19 -13 -9 -114 -170 -387 0
-19 -13 -9 -114 -170 387 388 0
20 14 9 -115 -171 443 444 0
20 14 9 -115 -171 -444 0
20 14 9 -115 171 172 -443 0
20 14 9 -115 171 172 443 444 0
20 14 9 -115 171 172 -444 0
20 14 9 -115 -172 -443 0
20 14 9 -115 -172 443 444 0
20 14 9 -115 -172 -444 0
20 14 9 115 116 -171 -443 0
20 14 9 115 116 -171 443 444 0
20 14 9 115 116 -171 -444 0
20 14 9 115 116 171 172 -443 0
20 14 9 115 116 171 172 -444 0
20 14 9 115 116 -172 -443 0
20 14 9 115 116 -172 443 444 0
20 14 9 115 116 -172 -444 0
20 14 9 -116 -171 -443 0
20 14 9 -116 -171 443 444 0
20 14 9 -116 -171 -444 0
20 14 9 -116 171 172 -443 0
20 14 9 -116 171 172 443 444 0
20 14 9 -116 171 172 -444 0
20 14 9 -116 -172 -443 0
20 14 9 -116 -172 443 444 0
20 14 -9 -115 -171 -443 0
20 14 -9 -115 -171 443 444 0
20 14 -9 -115 171 172 -443 0
20 14 -9 -115 171 172 443 444 0
20 14 -9 -115 171 172 -444 0
20 14 -9 -115 -172 -443 0
20 14 -9 -115 -172 443 444 0
20 14 -9 -115 -172 -444 0
20 14 -9 115 116 -171 -443 0
20 14 -9 115 116 -171 443 444 0
20 14 -9 115 116 -171 -444 0
20 14 -9 115 116 171 172 -443 0
20 14 -9 115 116 171 172 -444 0
20 14 -9 115 116 -172 -443 0
20 14 -9 115 116 -172 443 444 0
20 14 -9 115 116 -172 -444 0
20 14 -9 -116 -171 -443 0
20 14 -9 -116 -171 443 444 0
20 14 -9 -116 -171 -444 0
20 14 -9 -116 171 172 -443 0
20 14 -9 -116 171 172 443 444 0
20 14 -9 -116 171 172 -444 0
20 14 -9 -116 -172 443 444 0
20 14 -9 -116 -172 -444 0
20 -14 9 -115 -171 -443 0
20 -14 9 -115 -171 443 444 0
20 -14 9 -115 -171 -444 0
20 -14 9 -115 171 172 -443 0
20 -14 9 -115 171 172 443 444 0
20 -14 9 -115 171 172 -444 0
20 -14 9 -115 -172 443 444 0
20 -14 9 -115 -172 -444 0
20 -14 9 115 116 -171 -443 0
20 -14 9 115 116 -171 443 444 0
20 -14 9 115 116 -171 -444 0
20 -14 9 115 116 171 172 -443 0
20 -14 9 115 116 171 172 -444 0
20 -14 9 115 116 -172 -443 0
20 -14 9 115 116 -172 443 444 0
20 -14 9 115 116 -172 -444 0
20 -14 9 -116 -171 -443 0
20 -14 9 -116 -171 443 444 0
20 -14 9 -116 171 172 -443 0
20 -14 9 -116 171 172 443 444 0
20 -14 9 -116 171 172 -444 0
20 -14 9 -116 -172 -443 0
20 -14 9 -116 -172 443 444 0
20 -14 9 -116 -172 -444 0
20 -14 -9 -115 -171 -443 0
20 -14 -9 -115 -171 443 444 0
20 -14 -9 -115 -171 -444 0
20 -14 -9 -115 171 172 -443 0
20 -14 -9 -115 171 172 443 444 0
20 -14 -9 -115 171 172 -444 0
20 -14 -9 -115 -172 -443 0
20 -14 -9 -115 -172 443 444 0
20 -14 -9 115 116 -171 -443 0
20 -14 -9 115 116 -171 443 444 0
20 -14 -9 115 116 -171 -444 0
20 -14 -9 115 116 171 172 -443 0
20 -14 -9 115 116 171 172 -444 0
20 -14 -9 115 116 -172 -443 0
20 -14 -9 115 116 -172 443 444 0
20 -14 -9 115 116 -172 -444 0
20 -14 -9 -116 -171 443 444 0
20 -14 -9 -116 -171 -444 0
20 -14 -9 -116 171 172 -443 0
20 -14 -9 -116 171 172 443 444 0
20 -14 -9 -116 171 172 -444 0
20 -14 -9 -116 -172 -443 0
20 -14 -9 -116 -172 443 444 0
20 -14 -9 -116 -172 -444 0
-20 14 9 -115 -171 -443 0
-20 14 9 -115 -171 443 444 0
-20 14 9 -115 -171 -444 0
-20 14 9 -115 171 172 -443 0
-20 14 9 -115 171 172 443 444 0
-20 14 9 -115 171 172 -444 0
-20 14 9 -115 -172 -443 0
-20 14 9 -115 -172 443 444 0
-20 14 9 115 116 -171 -443 0
-20 14 9 115 116 -171 443 444 0
-20 14 9 115 116 -171 -444 0
-20 14 9 115 116 171 172 -443 0
-20 14 9 115 116 171 172 -444 0
-20 14 9 115 116 -172 -443 0
-20 14 9 115 116 -172 443 444 0
-20 14 9 115 116 -172 -444 0
-20 14 9 -116 -171 443 444 0
-20 14 9 -116 -171 -444 0
-20 14 9 -116 171 172 -443 0
-20 14 9 -116 171 172 443 444 0
-20 14 9 -116 171 172 -444 0
-20 14 9 -116 -172 -443 0
-20 14 9 -116 -172 443 444 0
-20 14 9 -116 -172 -444 0
-20 14 -9 -115 -171 -443 0
-20 14 -9 -115 -171 443 444 0
-20 14 -9 -115 -171 -444 0
-20 14 -9 -115 171 172 -443 0
-20 14 -9 -115 171 172 443 444 0
-20 14 -9 -115 171 172 -444 0
-20 14 -9 -115 -172 443 444 0
-20 14 -9 -115 -172 -444 0
-20 14 -9 115 116 -171 -443 0
-20 14 -9 115 116 -171 443 444 0
-20 14 -9 115 116 -171 -444 0
-20 14 -9 115 116 171 172 -443 0
-20 14 -9 115 116 171 172 -444 0
-20 14 -9 115 116 -172 -443 0
-20 14 -9 115 116 -172 443 444 0
-20 14 -9 115 116 -172 -444 0
-20 14 -9 -116 -171 -443 0
-20 14 -9 -116 -171 443 444 0
-20 14 -9 -116 171 172 -443 0
-20 14 -9 -116 171 172 443 444 0
-20 14 -9 -116 171 172 -444 0
-20 14 -9 -116 -172 -443 0
-20 14 -9 -116 -172 443 444 0
-20 14 -9 -116 -172 -444 0
-20 -14 9 -115 -171 -443 0
-20 -14 9 -115 -171 443 444 0
-20 -14 9 -115 171 172 -443 0
-20 -14 9 -115 171 172 443 444 0
-20 -14 9 -115 171 172 -444 0
-20 -14 9 -115 -172 -443 0
-20 -14 9 -115 -172 443 444 0
-20 -14 9 -115 -172 -444 0
-20 -14 9 115 116 -171 -443 0
-20 -14 9 115 116 -171 443 444 0
-20 -14 9 115 116 -171 -444 0
-20 -14 9 115 116 171 172 -443 0
-20 -14 9 115 116 171 172 -444 0
-20 -14 9 115 116 -172 -443 0
-20 -14 9 115 116 -172 443 444 0
-20 -14 9 115 116 -172 -444 0
-20 -14 9 -116 -171 -443 0
-20 -14 9 -116 -171 443 444 0
-20 -14 9 -116 -171 -444 0
-20 -14 9 -116 171 172 -443 0
-20 -14 9 -116 171 172 443 444 0
-20 -14 9 -116 171 172 -444 0
-20 -14 9 -116 -172 443 444 0
-20 -14 9 -116 -172 -444 0
-20 -14 -9 -115 -171 443 444 0
-20 -14 -9 -115 -171 -444 0
-20 -14 -9 -115 171 172 -443 0
-20 -14 -9 -115 171 172 443 444 0
-20 -14 -9 -115 171 172 -444 0
-20 -14 -9 -115 -172 -443 0
-20 -14 -9 -115 -172 443 444 0
-20 -14 -9 -115 -172 -444 0
-20 -14 -9 115 116 -171 -443 0
-20 -14 -9 115 116 -171 443 444 0
-20 -14 -9 115 116 -171 -444 0
-20 -14 -9 115 116 171 172 -443 0
-20 -14 -9 115 116 171 172 -444 0
-20 -14 -9 115 116 -172 -443 0
-20 -14 -9 115 116 -172 443 444 0
-20 -14 -9 115 116 -172 -444 0
-20 -14 -9 -116 -171 -443 0
-20 -14 -9 -116 -171 443 444 0
-20 -14 -9 -116 -171 -444 0
-20 -14 -9 -116 171 172 -443 0
-20 -14 -9 -116 171 172 443 444 0
-20 -14 -9 -116 171 172 -444 0
-20 -14 -9 -116 -172 -443 0
-20 -14 -9 -116 -172 443 444 0
21 15 9 -117 -173 499 500 0
21 15 9 -117 -173 -500 0
21 15 9 -117 173 174 -499 0
21 15 9 -117 173 174 499 500 0
21 15 9 -117 173 174 -500 0
21 15 9 -117 -174 -499 0
21 15 9 -117 -174 499 500 0
21 15 9 -117 -174 -500 0
21 15 9 117 118 -173 -499 0
21 15 9 117 118 -173 499 500 0
21 15 9 117 118 -173 -500 0
21 15 9 117 118 173 174 -499 0
21 15 9 117 118 173 174 -500 0
21 15 9 117 118 -174 -499 0
21 15 9 117 118 -174 499 500 0
21 15 9 117 118 -174 -500 0
21 15 9 -118 -173 -499 0
21 15 9 -118 -173 499 500 0
21 15 9 -118 -173 -500 0
21 15 9 -118 173 174 -499 0
21 15 9 -118 173 174 499 500 0
21 15 9 -118 173 174 -500 0
21 15 9 -118 -174 -499 0
21 15 9 -118 -174 499 500 0
21 15 -9 -117 -173 -499 0
21 15 -9 -117 -173 499 500 0
21 15 -9 -117 173 174 -499 0
21 15 -9 -117 173 174 499 500 0
21 15 -9 -117 173 174 -500 0
21 15 -9 -117 -174 -499 0
21 15 -9 -117 -174 499 500 0
21 15 -9 -117 -174 -500 0
21 15 -9 117 118 -173 -499 0
21 15 -9 117 118 -173 499 500 0
21 15 -9 117 118 -173 -500 0
21 15 -9 117 118 173 174 -499 0
21 15 -9 117 118 173 174 -500 0
21 15 -9 117 118 -174 -499 0
21 15 -9 117 118 -174 499 500 0
21 15 -9 117 118 -174 -500 0
21 15 -9 -118 -173 -499 0
21 15 -9 -118 -173 499 500 0
21 15 -9 -118 -173 -500 0
21 15 -9 -118 173 174 -499 0
21 15 -9 -118 173 174 499 500 0
21 15 -9 -118 173 174 -500 0
21 15 -9 -118 -174 499 500 0
21 15 -9 -118 -174 -500 0
21 -15 9 -117 -173 -499 0
21 -15 9 -117 -173 499 500 0
21 -15 9 -117 -173 -500 0
21 -15 9 -117 173 174 -499 0
21 -15 9 -117 173 174 499 500 0
21 -15 9 -117 173 174 -500 0
21 -15 9 -117 -174 499 500 0
21 -15 9 -117 -174 -500 0
21 -15 9 117 118 -173 -499 0
21 -15 9 117 118 -173 499 500 0
21 -15 9 117 118 -173 -500 0
21 -15 9 117 118 173 174 -499 0
21 -15 9 117 118 173 174 -500 0
21 -15 9 117 118 -174 -499 0
21 -15 9 117 118 -174 499 500 0
21 -15 9 117 118 -174 -500 0
21 -15 9 -118 -173 -499 0
21 -15 9 -118 -173 499 500 0
21 -15 9 -118 173 174 -499 0
21 -15 9 -118 173 174 499 500 0
21 -15 9 -118 173 174 -500 0
21 -15 9 -118 -174 -499 0
21 -15 9 -118 -174 499 500 0
21 -15 9 -118 -174 -500 0
21 -15 -9 -117 -173 -499 0
21 -15 -9 -117 -173 499 500 0
21 -15 -9 -117 -173 -500 0
21 -15 -9 -117 173 174 -499 0
21 -15 -9 -117 173 174 499 500 0
21 -15 -9 -117 173 174 -500 0
21 -15 -9 -117 -174 -499 0
21 -15 -9 -117 -174 499 500 0
21 -15 -9 117 118 -173 -499 0
21 -15 -9 117 118 -173 499 500 0
21 -15 -9 117 118 -173 -500 0
21 -15 -9 117 118 173 174 -499 0
21 -15 -9 117 118 173 174 -500 0
21 -15 -9 117 118 -174 -499 0
21 -15 -9 117 118 -174 499 500 0
21 -15 -9 117 118 -174 -500 0
21 -15 -9 -118 -173 499 500 0
21 -15 -9 -118 -173 -500 0
21 -15 -9 -118 173 174 -499 0
21 -15 -9 -118 173 174 499 500 0
21 -15 -9 -118 173 174 -500 0
21 -15 -9 -118 -174 -499 0
21 -15 -9 -118 -174 499 500 0
21 -15 -9 -118 -174 -500 0
-21 15 9 -117 -173 -499 0
-21 15 9 -117 -173 499 500 0
-21 15 9 -117 -173 -500 0
-21 15 9 -117 173 174 -499 0
-21 15 9 -117 173 174 499 500 0
-21 15 9 -117 173 174 -500 0
-21 15 9 -117 -174 -499 0
-21 15 9 -117 -174 499 500 0
-21 15 9 117 118 -173 -499 0
-21 15 9 117 118 -173 499 500 0
-21 15 9 117 118 -173 -500 0
-21 15 9 117 118 173 174 -499 0
-21 15 9 117 118 173 174 -500 0
-21 15 9 117 118 -174 -499 0
-21 15 9 117 118 -174 499 500 0
-21 15 9 117 118 -174 -500 0
-21 15 9 -118 -173 499 500 0
-21 15 9 -118 -173 -500 0
-21 15 9 -118 173 174 -499 0
-21 15 9 -118 173 174 499 500 0
-21 15 9 -118 173 174 -500 0
-21 15 9 -118 -174 -499 0
-21 15 9 -118 -174 499 500 0
-21 15 9 -118 -174 -500 0
-21 15 -9 -117 -173 -499 0
-21 15 -9 -117 -173 499 500 0
-21 15 -9 -117 -173 -500 0
-21 15 -9 -117 173 174 -499 0
-21 15 -9 -117 173 174 499 500 0
-21 15 -9 -117 173 174 -500 0
-21 15 -9 -117 -174 499 500 0
-21 15 -9 -117 -174 -500 0
-21 15 -9 117 118 -173 -499 0
-21 15 -9 117 118 -173 499 500 0
-21 15 -9 117 118 -173 -500 0
-21 15 -9 117 118 173 174 -499 0
-21 15 -9 117 118 173 174 -500 0
-21 15 -9 117 118 -174 -499 0
-21 15 -9 117 118 -174 499 500 0
-21 15 -9 117 118 -174 -500 0
-21 15 -9 -118 -173 -499 0
-21 15 -9 -118 -173 499 500 0
-21 15 -9 -118 173 174 -499 0
-21 15 -9 -118 173 174 499 500 0
-21 15 -9 -118 173 174 -500 0
-21 15 -9 -118 -174 -499 0
-21 15 -9 -118 -174 499 500 0
-21 15 -9 -118 -174 -500 0
-21 -15 9 -117 -173 -499 0
-21 -15 9 -117 -173 499 500 0
-21 -15 9 -117 173 174 -499 0
-21 -15 9 -117 173 174 499 500 0
-21 -15 9 -117 173 174 -500 0
-21 -15 9 -117 -174 -499 0
-21 -15 9 -117 -174 499 500 0
-21 -15 9 -117 -174 -500 0
-21 -15 9 117 118 -173 -499 0
-21 -15 9 117 118 -173 499 500 0
-21 -15 9 117 118 -173 -500 0
-21 -15 9 117 118 173 174 -499 0
-21 -15 9 117 118 173 174 -500 0
-21 -15 9 117 118 -174 -499 0
-21 -15 9 117 118 -174 499 500 0
-21 -15 9 117 118 -174 -500 0
-21 -15 9 -118 -173 -499 0
-21 -15 9 -118 -173 499 500 0
-21 -15 9 -118 -173 -500 0
-21 -15 9 -118 173 174 -499 0
-21 -15 9 -118 173 174 499 500 0
-21 -15 9 -118 173 174 -500 0
-21 -15 9 -118 -174 499 500 0
-21 -15 9 -118 -174 -500 0
-21 -15 -9 -117 -173 499 500 0
-21 -15 -9 -117 -173 -500 0
-21 -15 -9 -117 173 174 -499 0
-21 -15 -9 -117 173 174 499 500 0
-21 -15 -9 -117 173 174 -500 0
-21 -15 -9 -117 -174 -499 0
-21 -15 -9 -117 -174 499 500 0
-21 -15 -9 -117 -174 -500 0
-21 -15 -9 117 118 -173 -499 0
-21 -15 -9 117 118 -173 499 500 0
-21 -15 -9 117 118 -173 -500 0
-21 -15 -9 117 118 173 174 -499 0
-21 -15 -9 117 118 173 174 -500 0
-21 -15 -9 117 118 -174 -499 0
-21 -15 -9 117 118 -174 499 500 0
-21 -15 -9 117 118 -174 -500 0
-21 -15 -9 -118 -173 -499 0
-21 -15 -9 -118 -173 499 500 0
-21 -15 -9 -118 -173 -500 0
-21 -15 -9 -118 173 174 -499 0
-21 -15 -9 -118 173 174 499 500 0
-21 -15 -9 -118 173 174 -500 0
-21 -15 -9 -118 -174 -499 0
-21 -15 -9 -118 -174 499 500 0
22 11 10 -119 -221 277 278 0
22 11 10 -119 -221 -278 0
22 11 10 -119 221 222 -277 0
22 11 10 -119 221 222 277 278 0
22 11 10 -119 221 222 -278 0
22 11 10 -119 -222 -277 0
22 11 10 -119 -222 277 278 0
22 11 10 -119 -222 -278 0
22 11 10 119 120 -221 -277 0
22 11 10 119 120 -221 277 278 0
22 11 10 119 120 -221 -278 0
22 11 10 119 120 221 222 -277 0
22 11 10 119 120 221 222 -278 0
22 11 10 119 120 -222 -277 0
22 11 10 119 120 -222 277 278 0
22 11 10 119 120 -222 -278 0
22 11 10 -120 -221 -277 0
22 11 10 -120 -221 277 278 0
22 11 10 -120 -221 -278 0
22 11 10 -120 221 222 -277 0
22 11 10 -120 221 222 277 278 0
22 11 10 -120 221 222 -278 0
22 11 10 -120 -222 -277 0
22 11 10 -120 -222 277 278 0
22 11 -10 -119 -221 -277 0
22 11 -10 -119 -221 277 278 0
22 11 -10 -119 221 222 -277 0
22 11 -10 -119 221 222 277 278 0
22 11 -10 -119 221 222 -278 0
22 11 -10 -119 -222 -277 0
22 11 -10 -119 -222 277 278 0
22 11 -10 -119 -222 -278 0
22 11 -10 119 120 -221 -277 0
22 11 -10 119 120 -221 277 278 0
22 11 -10 119 120 -221 -278 0
22 11 -10 119 120 221 222 -277 0
22 11 -10 119 120 221 222 -278 0
22 11 -10 119 120 -222 -277 0
22 11 -10 119 120 -222 277 278 0
22 11 -10 119 120 -222 -278 0
22 11 -10 -120 -221 -277 0
22 11 -10 -120 -221 277 278 0
22 11 -10 -120 -221 -278 0
22 11 -10 -120 221 222 -277 0
22 11 -10 -120 221 222 277 278 0
22 11 -10 -120 221 222 -278 0
22 11 -10 -120 -222 277 278 0
22 11 -10 -120 -222 -278 0
22 -11 10 -119 -221 -277 0
22 -11 10 -119 -221 277 278 0
22 -11 10 -119 -221 -278 0
22 -11 10 -119 221 222 -277 0
22 -11 10 -119 221 222 277 278 0
22 -11 10 -119 221 222 -278 0
22 -11 10 -119 -222 277 278 0
22 -11 10 -119 -222 -278 0
22 -11 10 119 120 -221 -277 0
22 -11 10 119 120 -221 277 278 0
22 -11 10 119 120 -221 -278 0
22 -11 10 119 120 221 222 -277 0
22 -11 10 119 120 221 222 -278 0
22 -11 10 119 120 -222 -277 0
22 -11 10 119 120 -222 277 278 0
22 -11 10 119 120 -222 -278 0
22 -11 10 -120 -221 -277 0
22 -11 10 -120 -221 277 278 0
22 -11 10 -120 221 222 -277 0
22 -11 10 -120 221 222 277 278 0
22 -11 10 -120 221 222 -278 0
22 -11 10 -120 -222 -277 0
22 -11 10 -120 -222 277 278 0
22 -11 10 -120 -222 -278 0
22 -11 -10 -119 -221 -277 0
22 -11 -10 -119 -221 277 278 0
22 -11 -10 -119 -221 -278 0
22 -11 -10 -119 221 222 -277 0
22 -11 -10 -119 221 222 277 278 0
22 -11 -10 -119 221 222 -278 0
22 -11 -10 -119 -222 -277 0
22 -11 -10 -119 -222 277 278 0
22 -11 -10 119 120 -221 -277 0
22 -11 -10 119 120 -221 277 278 0
22 -11 -10 119 120 -221 -278 0
22 -11 -10 119 120 221 222 -277 0
22 -11 -10 119 120 221 222 -278 0
22 -11 -10 119 120 -222 -277 0
22 -11 -10 119 120 -222 277 278 0
22 -11 -10 119 120 -222 -278 0
22 -11 -10 -120 -221 277 278 0
22 -11 -10 -120 -221 -278 0
22 -11 -10 -120 221 222 -277 0
22 -11 -10 -120 221 222 277 278 0
22 -11 -10 -120 221 222 -278 0
22 -11 -10 -120 -222 -277 0
22 -11 -10 -120 -222 277 278 0
22 -11 -10 -120 -222 -278 0
-22 11 10 -119 -221 -277 0
-22 11 10 -119 -221 277 278 0
-22 11 10 -119 -221 -278 0
-22 11 10 -119 221 222 -277 0
-22 11 10 -119 221 222 277 278 0
-22 11 10 -119 221 222 -278 0
-22 11 10 -119 -222 -277 0
-22 11 10 -119 -222 277 278 0
-22 11 10 119 120 -221 -277 0
-22 11 10 119 120 -221 277 278 0
-22 11 10 119 120 -221 -278 0
-22 11 10 119 120 221 222 -277 0
-22 11 10 119 120 221 222 -278 0
-22 11 10 119 120 -222 -277 0
-22 11 10 119 120 -222 277 278 0
-22 11 10 119 120 -222 -278 0
-22 11 10 -120 -221 277 278 0
-22 11 10 -120 -221 -278 0
-22 11 10 -120 221 222 -277 0
-22 11 10 -120 221 222 277 278 0
-22 11 10 -120 221 222 -278 0
-22 11 10 -120 -222 -277 0
-22 11 10 -120 -222 277 278 0
-22 11 10 -120 -222 -278 0
-22 11 -10 -119 -221 -277 0
-22 11 -10 -119 -221 277 278 0
-22 11 -10 -119 -221 -278 0
-22 11 -10 -119 221 222 -277 0
-22 11 -10 -119 221 222 277 278 0
-22 11 -10 -119 221 222 -278 0
-22 11 -10 -119 -222 277 278 0
-22 11 -10 -119 -222 -278 0
-22 11 -10 119 120 -221 -277 0
-22 11 -10 119 120 -221 277 278 0
-22 11 -10 119 120 -221 -278 0
-22 11 -10 119 120 221 222 -277 0
-22 11 -10 119 120 221 222 -278 0
-22 11 -10 119 120 -222 -277 0
-22 11 -10 119 120 -222 277 278 0
-22 11 -10 119 120 -222 -278 0
-22 11 -10 -120 -221 -277 0
-22 11 -10 -120 -221 277 278 0
-22 11 -10 -120 221 222 -277 0
-22 11 -10 -120 221 222 277 278 0
-22 11 -10 -120 221 222 -278 0
-22 11 -10 -120 -222 -277 0
-22 11 -10 -120 -222 277 278 0
-22 11 -10 -120 -222 -278 0
-22 -11 10 -119 -221 -277 0
-22 -11 10 -119 -221 277 278 0
-22 -11 10 -119 221 222 -277 0
-22 -11 10 -119 221 222 277 278 0
-22 -11 10 -119 221 222 -278 0
-22 -11 10 -119 -222 -277 0
-22 -11 10 -119 -222 277 278 0
-22 -11 10 -119 -222 -278 0
-22 -11 10 119 120 -221 -277 0
-22 -11 10 119 120 -221 277 278 0
-22 -11 10 119 120 -221 -278 0
-22 -11 10 119 120 221 222 -277 0
-22 -11 10 119 120 221 222 -278 0
-22 -11 10 119 120 -222 -277 0
-22 -11 10 119 120 -222 277 278 0
-22 -11 10 119 120 -222 -278 0
-22 -11 10 -120 -221 -277 0
-22 -11 10 -120 -221 277 278 0
-22 -11 10 -120 -221 -278 0
-22 -11 10 -120 221 222 -277 0
-22 -11 10 -120 221 222 277 278 0
-22 -11 10 -120 221 222 -278 0
-22 -11 10 -120 -222 277 278 0
-22 -11 10 -120 -222 -278 0
-22 -11 -10 -119 -221 277 278 0
-22 -11 -10 -119 -221 -278 0
-22 -11 -10 -119 221 222 -277 0
-22 -11 -10 -119 221 222 277 278 0
-22 -11 -10 -119 221 222 -278 0
-22 -11 -10 -119 -222 -277 0
-22 -11 -10 -119 -222 277 278 0
-22 -11 -10 -119 -222 -278 0
-22 -11 -10 119 120 -221 -277 0
-22 -11 -10 119 120 -221 277 278 0
-22 -11 -10 119 120 -221 -278 0
-22 -11 -10 119 120 221 222 -277 0
-22 -11 -10 119 120 221 222 -278 0
-22 -11 -10 119 120 -222 -277 0
-22 -11 -10 119 120 -222 277 278 0
-22 -11 -10 119 120 -222 -278 0
-22 -11 -10 -120 -221 -277 0
-22 -11 -10 -120 -221 277 278 0
-22 -11 -10 -120 -221 -278 0
-22 -11 -10 -120 221 222 -277 0
-22 -11 -10 -120 221 222 277 278 0
-22 -11 -10 -120 221 222 -278 0
-22 -11 -10 -120 -222 -277 0
-22 -11 -10 -120 -222 277 278 0
23 12 10 -121 -223 333 334 0
23 12 10 -121 -223 -334 0
23 12 10 -121 223 224 -333 0
23 12 10 -121 223 224 333 334 0
23 12 10 -121 223 224 -334 0
23 12 10 -121 -224 -333 0
23 12 10 -121 -224 333 334 0
23 12 10 -121 -224 -334 0
23 12 10 121 122 -223 -333 0
23 12 10 121 122 -223 333 334 0
23 12 10 121 122 -223 -334 0
23 12 10 121 122 223 224 -333 0
23 12 10 121 122 223 224 -334 0
23 12 10 121 122 -224 -333 0
23 12 10 121 122 -224 333 334 0
23 12 10 121 122 -224 -334 0
23 12 10 -122 -223 -333 0
23 12 10 -122 -223 333 334 0
23 12 10 -122 -223 -334 0
23 12 10 -122 223 224 -333 0
23 12 10 -122 223 224 333 334 0
23 12 10 -122 223 224 -334 0
23 12 10 -122 -224 -333 0
23 12 10 -122 -224 333 334 0
23 12 -10 -121 -223 -333 0
23 12 -10 -121 -223 333 334 0
23 12 -10 -121 223 224 -333 0
23 12 -10 -121 223 224 333 334 0
23 12 -10 -121 223 224 -334 0
23 12 -10 -121 -224 -333 0
23 12 -10 -121 -224 333 334 0
23 12 -10 -121 -224 -334 0
23 12 -10 121 122 -223 -333 0
23 12 -10 121 122 -223 333 334 0
23 12 -10 121 122 -223 -334 0
23 12 -10 121 122 223 224 -333 0
23 12 -10 121 122 223 224 -334 0
23 12 -10 121 122 -224 -333 0
23 12 -10 121 122 -224 333 334 0
23 12 -10 121 122 -224 -334 0
23 12 -10 -122 -223 -333 0
23 12 -10 -122 -223 333 334 0
23 12 -10 -122 -223 -334 0
23 12 -10 -122 223 224 -333 0
23 12 -10 -122 223 224 333 334 0
23 12 -10 -122 223 224 -334 0
23 12 -10 -122 -224 333 334 0
23 12 -10 -122 -224 -334 0
23 -12 10 -121 -223 -333 0
23 -12 10 -121 -223 333 334 0
23 -12 10 -121 -223 -334 0
23 -12 10 -121 223 224 -333 0
23 -12 10 -121 223 224 333 334 0
23 -12 10 -121 223 224 -334 0
23 -12 10 -121 -224 333 334 0
23 -12 10 -121 -224 -334 0
23 -12 10 121 122 -223 -333 0
23 -12 10 121 122 -223 333 334 0
23 -12 10 121 122 -223 -334 0
23 -12 10 121 122 223 224 -333 0
23 -12 10 121 122 223 224 -334 0
23 -12 10 121 122 -224 -333 0
23 -12 10 121 122 -224 333 334 0
23 -12 10 121 122 -224 -334 0
23 -12 10 -122 -223 -333 0
23 -12 10 -122 -223 333 334 0
23 -12 10 -122 223 224 -333 0
23 -12 10 -122 223 224 333 334 0
23 -12 10 -122 223 224 -334 0
23 -12 10 -122 -224 -333 0
23 -12 10 -122 -224 333 334 0
23 -12 10 -122 -224 -334 0
23 -12 -10 -121 -223 -333 0
23 -12 -10 -121 -223 333 334 0
23 -12 -10 -121 -223 -334 0
23 -12 -10 -121 223 224 -333 0
23 -12 -10 -121 223 224 333 334 0
23 -12 -10 -121 223 224 -334 0
23 -12 -10 -121 -224 -333 0
23 -12 -10 -121 -224 333 334 0
23 -12 -10 121 122 -223 -333 0
23 -12 -10 121 122 -223 333 334 0
23 -12 -10 121 122 -223 -334 0
23 -12 -10 121 122 223 224 -333 0
23 -12 -10 121 122 223 224 -334 0
23 -12 -10 121 122 -224 -333 0
23 -12 -10 121 122 -224 333 334 0
23 -12 -10 121 122 -224 -334 0
23 -12 -10 -122 -223 333 334 0
23 -12 -10 -122 -223 -334 0
23 -12 -10 -122 223 224 -333 0
23 -12 -10 -122 223 224 333 334 0
23 -12 -10 -122 223 224 -334 0
23 -12 -10 -122 -224 -333 0
23 -12 -10 -122 -224 333 334 0
23 -12 -10 -122 -224 -334 0
-23 12 10 -121 -223 -333 0
-23 12 10 -121 -223 333 334 0
-23 12 10 -121 -223 -334 0
-23 12 10 -121 223 224 -333 0
-23 12 10 -121 223 224 333 334 0
-23 12 10 -121 223 224 -334 0
-23 12 10 -121 -224 -333 0
-23 12 10 -121 -224 333 334 0
-23 12 10 121 122 -223 -333 0
-23 12 10 121 122 -223 333 334 0
-23 12 10 121 122 -223 -334 0
-23 12 10 121 122 223 224 -333 0
-23 12 10 121 122 223 224 -334 0
-23 12 10 121 122 -224 -333 0
-23 12 10 121 122 -224 333 334 0
-23 12 10 121 122 -224 -334 0
-23 12 10 -122 -223 333 334 0
-23 12 10 -122 -223 -334 0
-23 12 10 -122 223 224 -333 0
-23 12 10 -122 223 224 333 334 0
-23 12 10 -122 223 224 -334 0
-23 12 10 -122 -224 -333 0
-23 12 10 -122 -224 333 334 0
-23 12 10 -122 -224 -334 0
-23 12 -10 -121 -223 -333 0
-23 12 -10 -121 -223 333 334 0
-23 12 -10 -121 -223 -334 0
-23 12 -10 -121 223 224 -333 0
-23 12 -10 -121 223 224 333 334 0
-23 12 -10 -121 223 224 -334 0
-23 12 -10 -121 -224 333 334 0
-23 12 -10 -121 -224 -334 0
-23 12 -10 121 122 -223 -333 0
-23 12 -10 121 122 -223 333 334 0
-23 12 -10 121 122 -223 -334 0
-23 12 -10 121 122 223 224 -333 0
-23 12 -10 121 122 223 224 -334 0
-23 12 -10 121 122 -224 -333 0
-23 12 -10 121 122 -224 333 334 0
-23 12 -10 121 122 -224 -334 0
-23 12 -10 -122 -223 -333 0
-23 12 -10 -122 -223 333 334 0
-23 12 -10 -122 223 224 -333 0
-23 12 -10 -122 223 224 333 334 0
-23 12 -10 -122 223 224 -334 0
-23 12 -10 -122 -224 -333 0
-23 12 -10 -122 -224 333 334 0
-23 12 -10 -122 -224 -334 0
-23 -12 10 -121 -223 -333 0
-23 -12 10 -121 -223 333 334 0
-23 -12 10 -121 223 224 -333 0
-23 -12 10 -121 223 224 333 334 0
-23 -12 10 -121 223 224 -334 0
-23 -12 10 -121 -224 -333 0
-23 -12 10 -121 -224 333 334 0
-23 -12 10 -121 -224 -334 0
-23 -12 10 121 122 -223 -333 0
-23 -12 10 121 122 -223 333 334 0
-23 -12 10 121 122 -223 -334 0
-23 -12 10 121 122 223 224 -333 0
-23 -12 10 121 122 223 224 -334 0
-23 -12 10 121 122 -224 -333 0
-23 -12 10 121 122 -224 333 334 0
-23 -12 10 121 122 -224 -334 0
-23 -12 10 -122 -223 -333 0
-23 -12 10 -122 -223 333 334 0
-23 -12 10 -122 -223 -334 0
-23 -12 10 -122 223 224 -333 0
-23 -12 10 -122 223 224 333 334 0
-23 -12 10 -122 223 224 -334 0
-23 -12 10 -122 -224 333 334 0
-23 -12 10 -122 -224 -334 0
-23 -12 -10 -121 -223 333 334 0
-23 -12 -10 -121 -223 -334 0
-23 -12 -10 -121 223 224 -333 0
-23 -12 -10 -121 223 224 333 334 0
-23 -12 -10 -121 223 224 -334 0
-23 -12 -10 -121 -224 -333 0
-23 -12 -10 -121 -224 333 334 0
-23 -12 -10 -121 -224 -334 0
-23 -12 -10 121 122 -223 -333 0
-23 -12 -10 121 122 -223 333 334 0
-23 -12 -10 121 122 -223 -334 0
-23 -12 -10 121 122 223 224 -333 0
-23 -12 -10 121 122 223 224 -334 0
-23 -12 -10 121 122 -224 -333 0
-23 -12 -10 121 122 -224 333 334 0
-23 -12 -10 121 122 -224 -334 0
-23 -12 -10 -122 -223 -333 0
-23 -12 -10 -122 -223 333 334 0
-23 -12 -10 -122 -223 -334 0
-23 -12 -10 -122 223 224 -333 0
-23 -12 -10 -122 223 224 333 334 0
-23 -12 -10 -122 223 224 -334 0
-23 -12 -10 -122 -224 -333 0
-23 -12 -10 -122 -224 333 334 0
24 13 10 -123 -225 389 390 0
24 13 10 -123 -225 -390 0
24 13 10 -123 225 226 -389 0
24 13 10 -123 225 226 389 390 0
24 13 10 -123 225 226 -390 0
24 13 10 -123 -226 -389 0
24 13 10 -123 -226 389 390 0
24 13 10 -123 -226 -390 0
24 13 10 123 124 -225 -389 0
24 13 10 123 124 -225 389 390 0
24 13 10 123 124 -225 -390 0
24 13 10 123 124 225 226 -389 0
24 13 10 123 124 225 226 -390 0
24 13 10 123 124 -226 -389 0
24 13 10 123 124 -226 389 390 0
24 13 10 123 124 -226 -390 0
24 13 10 -124 -225 -389 0
24 13 10 -124 -225 389 390 0
24 13 10 -124 -225 -390 0
24 13 10 -124 225 226 -389 0
24 13 10 -124 225 226 389 390 0
24 13 10 -124 225 226 -390 0
24 13 10 -124 -226 -389 0
24 13 10 -124 -226 389 390 0
24 13 -10 -123 -225 -389 0
24 13 -10 -123 -225 389 390 0
24 13 -10 -123 225 226 -389 0
24 13 -10 -123 225 226 389 390 0
24 13 -10 -123 225 226 -390 0
24 13 -10 -123 -226 -389 0
24 13 -10 -123 -226 389 390 0
24 13 -10 -123 -226 -390 0
24 13 -10 123 124 -225 -389 0
24 13 -10 123 124 -225 389 390 0
24 13 -10 123 124 -225 -390 0
24 13 -10 123 124 225 226 -389 0
24 13 -10 123 124 225 226 -390 0
24 13 -10 123 124 -226 -389 0
24 13 -10 123 124 -226 389 390 0
24 13 -10 123 124 -226 -390 0
24 13 -10 -124 -225 -389 0
24 13 -10 -124 -225 389 390 0
24 13 -10 -124 -225 -390 0
24 13 -10 -124 225 226 -389 0
24 13 -10 -124 225 226 389 390 0
24 13 -10 -124 225 226 -390 0
24 13 -10 -124 -226 389 390 0
24 13 -10 -124 -226 -390 0
24 -13 10 -123 -225 -389 0
24 -13 10 -123 -225 389 390 0
24 -13 10 -123 -225 -390 0
24 -13 10 -123 225 226 -389 0
24 -13 10 -123 225 226 389 390 0
24 -13 10 -123 225 226 -390 0
24 -13 10 -123 -226 389 390 0
24 -13 10 -123 -226 -390 0
24 -13 10 123 124 -225 -389 0
24 -13 10 123 124 -225 389 390 0
24 -13 10 123 124 -225 -390 0
24 -13 10 123 124 225 226 -389 0
24 -13 10 123 124 225 226 -390 0
24 -13 10 123 124 -226 -389 0
24 -13 10 123 124 -226 389 390 0
24 -13 10 123 124 -226 -390 0
24 -13 10 -124 -225 -389 0
24 -13 10 -124 -225 389 390 0
24 -13 10 -124 225 226 -389 0
24 -13 10 -124 225 226 389 390 0
24 -13 10 -124 225 226 -390 0
24 -13 10 -124 -226 -389 0
24 -13 10 -124 -226 389 390 0
24 -13 10 -124 -226 -390 0
24 -13 -10 -123 -225 -389 0
24 -13 -10 -123 -225 389 390 0
24 -13 -10 -123 -225 -390 0
24 -13 -10 -123 225 226 -389 0
24 -13 -10 -123 225 226 389 390 0
24 -13 -10 -123 225 226 -390 0
24 -13 -10 -123 -226 -389 0
24 -13 -10 -123 -226 389 390 0
24 -13 -10 123 124 -225 -389 0
24 -13 -10 123 124 -225 389 390 0
24 -13 -10 123 124 -225 -390 0
24 -13 -10 123 124 225 226 -389 0
24 -13 -10 123 124 225 226 -390 0
24 -13 -10 123 124 -226 -389 0
24 -13 -10 123 124 -226 389 390 0
24 -13 -10 123 124 -226 -390 0
24 -13 -10 -124 -225 389 390 0
24 -13 -10 -124 -225 -390 0
24 -13 -10 -124 225 226 -389 0
24 -13 -10 -124 225 226 389 390 0
24 -13 -10 -124 225 226 -390 0
24 -13 -10 -124 -226 -389 0
24 -13 -10 -124 -226 389 390 0
24 -13 -10 -124 -226 -390 0
-24 13 10 -123 -225 -389 0
-24 13 10 -123 -225 389 390 0
-24 13 10 -123 -225 -390 0
-24 13 10 -123 225 226 -389 0
-24 13 10 -123 225 226 389 390 0
-24 13 10 -123 225 226 -390 0
-24 13 10 -123 -226 -389 0
-24 13 10 -123 -226 389 390 0
-24 13 10 123 124 -225 -389 0
-24 13 10 123 124 -225 389 390 0
-24 13 10 123 124 -225 -390 0
-24 13 10 123 124 225 226 -389 0
-24 13 10 123 124 225 226 -390 0
-24 13 10 123 124 -226 -389 0
-24 13 10 123 124 -226 389 390 0
-24 13 10 123 124 -226 -390 0
-24 13 10 -124 -225 389 390 0
-24 13 10 -124 -225 -390 0
-24 13 10 -124 225 226 -389 0
-24 13 10 -124 225 226 389 390 0
-24 13 10 -124 225 226 -390 0
-24 13 10 -124 -226 -389 0
-24 13 10 -124 -226 389 390 0
-24 13 10 -124 -226 -390 0
-24 13 -10 -123 -225 -389 0
-24 13 -10 -123 -225 389 390 0
-24 13 -10 -123 -225 -390 0
-24 13 -10 -123 225 226 -389 0
-24 13 -10 -123 225 226 389 390 0
-24 13 -10 -123 225 226 -390 0
-24 13 -10 -123 -226 389 390 0
-24 13 -10 -123 -226 -390 0
-24 13 -10 123 124 -225 -389 0
-24 13 -10 123 124 -225 389 390 0
-24 13 -10 123 124 -225 -390 0
-24 13 -10 123 124 225 226 -389 0
-24 13 -10 123 124 225 226 -390 0
-24 13 -10 123 124 -226 -389 0
-24 13 -10 123 124 -226 389 390 0
-24 13 -10 123 124 -226 -390 0
-24 13 -10 -124 -225 -389 0
-24 13 -10 -124 -225 389 390 0
-24 13 -10 -124 225 226 -389 0
-24 13 -10 -124 225 226 389 390 0
-24 13 -10 -124 225 226 -390 0
-24 13 -10 -124 -226 -389 0
-24 13 -10 -124 -226 389 390 0
-24 13 -10 -124 -226 -390 0
-24 -13 10 -123 -225 -389 0
-24 -13 10 -123 -225 389 390 0
-24 -13 10 -123 225 226 -389 0
-24 -13 10 -123 225 226 389 390 0
-24 -13 10 -123 225 226 -390 0
-24 -13 10 -123 -226 -389 0
-24 -13 10 -123 -226 389 390 0
-24 -13 10 -123 -226 -390 0
-24 -13 10 123 124 -225 -389 0
-24 -13 10 123 124 -225 389 390 0
-24 -13 10 123 124 -225 -390 0
-24 -13 10 123 124 225 226 -389 0
-24 -13 10 123 124 225 226 -390 0
-24 -13 10 123 124 -226 -389 0
-24 -13 10 123 124 -226 389 390 0
-24 -13 10 123 124 -226 -390 0
-24 -13 10 -124 -225 -389 0
-24 -13 10 -124 -225 389 390 0
-24 -13 10 -124 -225 -390 0
-24 -13 10 -124 225 226 -389 0
-24 -13 10 -124 225 226 389 390 0
-24 -13 10 -124 225 226 -390 0
-24 -13 10 -124 -226 389 390 0
-24 -13 10 -124 -226 -390 0
-24 -13 -10 -123 -225 389 390 0
-24 -13 -10 -123 -225 -390 0
-24 -13 -10 -123 225 226 -389 0
-24 -13 -10 -123 225 226 389 390 0
-24 -13 -10 -123 225 226 -390 0
-24 -13 -10 -123 -226 -389 0
-24 -13 -10 -123 -226 389 390 0
-24 -13 -10 -123 -226 -390 0
-24 -13 -10 123 124 -225 -389 0
-24 -13 -10 123 124 -225 389 390 0
-24 -13 -10 123 124 -225 -390 0
-24 -13 -10 123 124 225 226 -389 0
-24 -13 -10 123 124 225 226 -390 0
-24 -13 -10 123 124 -226 -389 0
-24 -13 -10 123 124 -226 389 390 0
-24 -13 -10 123 124 -226 -390 0
-24 -13 -10 -124 -225 -389 0
-24 -13 -10 -124 -225 389 390 0
-24 -13 -10 -124 -225 -390 0
-24 -13 -10 -124 225 226 -389 0
-24 -13 -10 -124 225 226 389 390 0
-24 -13 -10 -124 225 226 -390 0
-24 -13 -10 -124 -226 -389 0
-24 -13 -10 -124 -226 389 390 0
25 14 10 -125 -227 445 446 0
25 14 10 -125 -227 -446 0
25 14 10 -125 227 228 -445 0
25 14 10 -125 227 228 445 446 0
25 14 10 -125 227 228 -446 0
25 14 10 -125 -228 -445 0
25 14 10 -125 -228 445 446 0
25 14 10 -125 -228 -446 0
25 14 10 125 126 -227 -445 0
25 14 10 125 126 -227 445 446 0
25 14 10 125 126 -227 -446 0
25 14 10 125 126 227 228 -445 0
25 14 10 125 126 227 228 -446 0
25 14 10 125 126 -228 -445 0
25 14 10 125 126 -228 445 446 0
25 14 10 125 126 -228 -446 0
25 14 10 -126 -227 -445 0
25 14 10 -126 -227 445 446 0
25 14 10 -126 -227 -446 0
25 14 10 -126 227 228 -445 0
25 14 10 -126 227 228 445 446 0
25 14 10 -126 227 228 -446 0
25 14 10 -126 -228 -445 0
25 14 10 -126 -228 445 446 0
25 14 -10 -125 -227 -445 0
25 14 -10 -125 -227 445 446 0
25 14 -10 -125 227 228 -445 0
25 14 -10 -125 227 228 445 446 0
25 14 -10 -125 227 228 -446 0
25 14 -10 -125 -228 -445 0
25 14 -10 -125 -228 445 446 0
25 14 -10 -125 -228 -446 0
25 14 -10 125 126 -227 -445 0
25 14 -10 125 126 -227 445 446 0
25 14 -10 125 126 -227 -446 0
25 14 -10 125 126 227 228 -445 0
25 14 -10 125 126 227 228 -446 0
25 14 -10 125 126 -228 -445 0
25 14 -10 125 126 -228 445 446 0
25 14 -10 125 126 -228 -446 0
25 14 -10 -126 -227 -445 0
25 14 -10 -126 -227 445 446 0
25 14 -10 -126 -227 -446 0
25 14 -10 -126 227 228 -445 0
25 14 -10 -126 227 228 445 446 0
25 14 -10 -126 227 228 -446 0
25 14 -10 -126 -228 445 446 0
25 14 -10 -126 -228 -446 0
25 -14 10 -125 -227 -445 0
25 -14 10 -125 -227 445 446 0
25 -14 10 -125 -227 -446 0
25 -14 10 -125 227 228 -445 0
25 -14 10 -125 227 228 445 446 0
25 -14 10 -125 227 228 -446 0
25 -14 10 -125 -228 445 446 0
25 -14 10 -125 -228 -446 0
25 -14 10 125 126 -227 -445 0
25 -14 10 125 126 -227 445 446 0
25 -14 10 125 126 -227 -446 0
25 -14 10 125 126 227 228 -445 0
25 -14 10 125 126 227 228 -446 0
25 -14 10 125 126 -228 -445 0
25 -14 10 125 126 -228 445 446 0
25 -14 10 125 126 -228 -446 0
25 -14 10 -126 -227 -445 0
25 -14 10 -126 -227 445 446 0
25 -14 10 -126 227 228 -445 0
25 -14 10 -126 227 228 445 446 0
25 -14 10 -126 227 228 -446 0
25 -14 10 -126 -228 -445 0
25 -14 10 -126 -228 445 446 0
25 -14 10 -126 -228 -446 0
25 -14 -10 -125 -227 -445 0
25 -14 -10 -125 -227 445 446 0
25 -14 -10 -125 -227 -446 0
25 -14 -10 -125 227 228 -445 0
25 -14 -10 -125 227 228 445 446 0
25 -14 -10 -125 227 228 -446 0
25 -14 -10 -125 -228 -445 0
25 -14 -10 -125 -228 445 446 0
25 -14 -10 125 126 -227 -445 0
25 -14 -10 125 126 -227 445 446 0
25 -14 -10 125 126 -227 -446 0
25 -14 -10 125 126 227 228 -445 0
25 -14 -10 125 126 227 228 -446 0
25 -14 -10 125 126 -228 -445 0
25 -14 -10 125 126 -228 445 446 0
25 -14 -10 125 126 -228 -446 0
25 -14 -10 -126 -227 445 446 0
25 -14 -10 -126 -227 -446 0
25 -14 -10 -126 227 228 -445 0
25 -14 -10 -126 227 228 445 446 0
25 -14 -10 -126 227 228 -446 0
25 -14 -10 -126 -228 -445 0
25 -14 -10 -126 -228 445 446 0
25 -14 -10 -126 -228 -446 0
-25 14 10 -125 -227 -445 0
-25 14 10 -125 -227 445 446 0
-25 14 10 -125 -227 -446 0
-25 14 10 -125 227 228 -445 0
-25 14 10 -125 227 228 445 446 0
-25 14 10 -125 227 228 -446 0
-25 14 10 -125 -228 -445 0
-25 14 10 -125 -228 445 446 0
-25 14 10 125 126 -227 -445 0
-25 14 10 125 126 -227 445 446 0
-25 14 10 125 126 -227 -446 0
-25 14 10 125 126 227 228 -445 0
-25 14 10 125 126 227 228 -446 0
-25 14 10 125 126 -228 -445 0
-25 14 10 125 126 -228 445 446 0
-25 14 10 125 126 -228 -446 0
-25 14 10 -126 -227 445 446 0
-25 14 10 -126 -227 -446 0
-25 14 10 -126 227 228 -445 0
-25 14 10 -126 227 228 445 446 0
-25 14 10 -126 227 228 -446 0
-25 14 10 -126 -228 -445 0
-25 14 10 -126 -228 445 446 0
-25 14 10 -126 -228 -446 0
-25 14 -10 -125 -227 -445 0
-25 14 -10 -125 -227 445 446 0
-25 14 -10 -125 -227 -446 0
-25 14 -10 -125 227 228 -445 0
-25 14 -10 -125 227 228 445 446 0
-25 14 -10 -125 227 228 -446 0
-25 14 -10 -125 -228 445 446 0
-25 14 -10 -125 -228 -446 0
-25 14 -10 125 126 -227 -445 0
-25 14 -10 125 126 -227 445 446 0
-25 14 -10 125 126 -227 -446 0
-25 14 -10 125 126 227 228 -445 0
-25 14 -10 125 126 227 228 -446 0
-25 14 -10 125 126 -228 -445 0
-25 14 -10 125 126 -228 445 446 0
-25 14 -10 125 126 -228 -446 0
-25 14 -10 -126 -227 -445 0
-25 14 -10 -126 -227 445 446 0
-25 14 -10 -126 227 228 -445 0
-25 14 -10 -126 227 228 445 446 0
-25 14 -10 -126 227 228 -446 0
-25 14 -10 -126 -228 -445 0
-25 14 -10 -126 -228 445 446 0
-25 14 -10 -126 -228 -446 0
-25 -14 10 -125 -227 -445 0
-25 -14 10 -125 -227 445 446 0
-25 -14 10 -125 227 228 -445 0
-25 -14 10 -125 227 228 445 446 0
-25 -14 10 -125 227 228 -446 0
-25 -14 10 -125 -228 -445 0
-25 -14 10 -125 -228 445 446 0
-25 -14 10 -125 -228 -446 0
-25 -14 10 125 126 -227 -445 0
-25 -14 10 125 126 -227 445 446 0
-25 -14 10 125 126 -227 -446 0
-25 -14 10 125 126 227 228 -445 0
-25 -14 10 125 126 227 228 -446 0
-25 -14 10 125 126 -228 -445 0
-25 -14 10 125 126 -228 445 446 0
-25 -14 10 125 126 -228 -446 0
-25 -14 10 -126 -227 -445 0
-25 -14 10 -126 -227 445 446 0
-25 -14 10 -126 -227 -446 0
-25 -14 10 -126 227 228 -445 0
-25 -14 10 -126 227 228 445 446 0
-25 -14 10 -126 227 228 -446 0
-25 -14 10 -126 -228 445 446 0
-25 -14 10 -126 -228 -446 0
-25 -14 -10 -125 -227 445 446 0
-25 -14 -10 -125 -227 -446 0
-25 -14 -10 -125 227 228 -445 0
-25 -14 -10 -125 227 228 445 446 0
-25 -14 -10 -125 227 228 -446 0
-25 -14 -10 -125 -228 -445 0
-25 -14 -10 -125 -228 445 446 0
-25 -14 -10 -125 -228 -446 0
-25 -14 -10 125 126 -227 -445 0
-25 -14 -10 125 126 -227 445 446 0
-25 -14 -10 125 126 -227 -446 0
-25 -14 -10 125 126 227 228 -445 0
-25 -14 -10 125 126 227 228 -446 0
-25 -14 -10 125 126 -228 -445 0
-25 -14 -10 125 126 -228 445 446 0
-25 -14 -10 125 126 -228 -446 0
-25 -14 -10 -126 -227 -445 0
-25 -14 -10 -126 -227 445 446 0
-25 -14 -10 -126 -227 -446 0
-25 -14 -10 -126 227 228 -445 0
-25 -14 -10 -126 227 228 445 446 0
-25 -14 -10 -126 227 228 -446 0
-25 -14 -10 -126 -228 -445 0
-25 -14 -10 -126 -228 445 446 0
26 15 10 -127 -229 501 502 0
26 15 10 -127 -229 -502 0
26 15 10 -127 229 230 -501 0
26 15 10 -127 229 230 501 502 0
26 15 10 -127 229 230 -502 0
26 15 10 -127 -230 -501 0
26 15 10 -127 -230 501 502 0
26 15 10 -127 -230 -502 0
26 15 10 127 128 -229 -501 0
26 15 10 127 128 -229 501 502 0
26 15 10 127 128 -229 -502 0
26 15 10 127 128 229 230 -501 0
26 15 10 127 128 229 230 -502 0
26 15 10 127 128 -230 -501 0
26 15 10 127 128 -230 501 502 0
26 15 10 127 128 -230 -502 0
26 15 10 -128 -229 -501 0
26 15 10 -128 -229 501 502 0
26 15 10 -128 -229 -502 0
26 15 10 -128 229 230 -501 0
26 15 10 -128 229 230 501 502 0
26 15 10 -128 229 230 -502 0
26 15 10 -128 -230 -501 0
26 15 10 -128 -230 501 502 0
26 15 -10 -127 -229 -501 0
26 15 -10 -127 -229 501 502 0
26 15 -10 -127 229 230 -501 0
26 15 -10 -127 229 230 501 502 0
26 15 -10 -127 229 230 -502 0
26 15 -10 -127 -230 -501 0
26 15 -10 -127 -230 501 502 0
26 15 -10 -127 -230 -502 0
26 15 -10 127 128 -229 -501 0
26 15 -10 127 128 -229 501 502 0
26 15 -10 127 128 -229 -502 0
26 15 -10 127 128 229 230 -501 0
26 15 -10 127 128 229 230 -502 0
26 15 -10 127 128 -230 -501 0
26 15 -10 127 128 -230 501 502 0
26 15 -10 127 128 -230 -502 0
26 15 -10 -128 -229 -501 0
26 15 -10 -128 -229 501 502 0
26 15 -10 -128 -229 -502 0
26 15 -10 -128 229 230 -501 0
26 15 -10 -128 229 230 501 502 0
26 15 -10 -128 229 230 -502 0
26 15 -10 -128 -230 501 502 0
26 15 -10 -128 -230 -502 0
26 -15 10 -127 -229 -501 0
26 -15 10 -127 -229 501 502 0
26 -15 10 -127 -229 -502 0
26 -15 10 -127 229 230 -501 0
26 -15 10 -127 229 230 501 502 0
26 -15 10 -127 229 230 -502 0
26 -15 10 -127 -230 501 502 0
26 -15 10 -127 -230 -502 0
26 -15 10 127 128 -229 -501 0
26 -15 10 127 128 -229 501 502 0
26 -15 10 127 128 -229 -502 0
26 -15 10 127 128 229 230 -501 0
26 -15 10 127 128 229 230 -502 0
26 -15 10 127 128 -230 -501 0
26 -15 10 127 128 -230 501 502 0
26 -15 10 127 128 -230 -502 0
26 -15 10 -128 -229 -501 0
26 -15 10 -128 -229 501 502 0
26 -15 10 -128 229 230 -501 0
26 -15 10 -128 229 230 501 502 0
26 -15 10 -128 229 230 -502 0
26 -15 10 -128 -230 -501 0
26 -15 10 -128 -230 501 502 0
26 -15 10 -128 -230 -502 0
26 -15 -10 -127 -229 -501 0
26 -15 -10 -127 -229 501 502 0
26 -15 -10 -127 -229 -502 0
26 -15 -10 -127 229 230 -501 0
26 -15 -10 -127 229 230 501 502 0
26 -15 -10 -127 229 230 -502 0
26 -15 -10 -127 -230 -501 0
26 -15 -10 -127 -230 501 502 0
26 -15 -10 127 128 -229 -501 0
26 -15 -10 127 128 -229 501 502 0
26 -15 -10 127 128 -229 -502 0
26 -15 -10 127 128 229 230 -501 0
26 -15 -10 127 128 229 230 -502 0
26 -15 -10 127 128 -230 -501 0
26 -15 -10 127 128 -230 501 502 0
26 -15 -10 127 128 -230 -502 0
26 -15 -10 -128 -229 501 502 0
26 -15 -10 -128 -229 -502 0
26 -15 -10 -128 229 230 -501 0
26 -15 -10 -128 229 230 501 502 0
26 -15 -10 -128 229 230 -502 0
26 -15 -10 -128 -230 -501 0
26 -15 -10 -128 -230 501 502 0
26 -15 -10 -128 -230 -502 0
-26 15 10 -127 -229 -501 0
-26 15 10 -127 -229 501 502 0
-26 15 10 -127 -229 -502 0
-26 15 10 -127 229 230 -501 0
-26 15 10 -127 229 230 501 502 0
-26 15 10 -127 229 230 -502 0
-26 15 10 -127 -230 -501 0
-26 15 10 -127 -230 501 502 0
-26 15 10 127 128 -229 -501 0
-26 15 10 127 128 -229 501 502 0
-26 15 10 127 128 -229 -502 0
-26 15 10 127 128 229 230 -501 0
-26 15 10 127 128 229 230 -502 0
-26 15 10 127 128 -230 -501 0
-26 15 10 127 128 -230 501 502 0
-26 15 10 127 128 -230 -502 0
-26 15 10 -128 -229 501 502 0
-26 15 10 -128 -229 -502 0
-26 15 10 -128 229 230 -501 0
-26 15 10 -128 229 230 501 502 0
-26 15 10 -128 229 230 -502 0
-26 15 10 -128 -230 -501 0
-26 15 10 -128 -230 501 502 0
-26 15 10 -128 -230 -502 0
-26 15 -10 -127 -229 -501 0
-26 15 -10 -127 -229 501 502 0
-26 15 -10 -127 -229 -502 0
-26 15 -10 -127 229 230 -501 0
-26 15 -10 -127 229 230 501 502 0
-26 15 -10 -127 229 230 -502 0
-26 15 -10 -127 -230 501 502 0
-26 15 -10 -127 -230 -502 0
-26 15 -10 127 128 -229 -501 0
-26 15 -10 127 128 -229 501 502 0
-26 15 -10 127 128 -229 -502 0
-26 15 -10 127 128 229 230 -501 0
-26 15 -10 127 128 229 230 -502 0
-26 15 -10 127 128 -230 -501 0
-26 15 -10 127 128 -230 501 502 0
-26 15 -10 127 128 -230 -502 0
-26 15 -10 -128 -229 -501 0
-26 15 -10 -128 -229 501 502 0
-26 15 -10 -128 229 230 -501 0
-26 15 -10 -128 229 230 501 502 0
-26 15 -10 -128 229 230 -502 0
-26 15 -10 -128 -230 -501 0
-26 15 -10 -128 -230 501 502 0
-26 15 -10 -128 -230 -502 0
-26 -15 10 -127 -229 -501 0
-26 -15 10 -127 -229 501 502 0
-26 -15 10 -127 229 230 -501 0
-26 -15 10 -127 229 230 501 502 0
-26 -15 10 -127 229 230 -502 0
-26 -15 10 -127 -230 -501 0
-26 -15 10 -127 -230 501 502 0
-26 -15 10 -127 -230 -502 0
-26 -15 10 127 128 -229 -501 0
-26 -15 10 127 128 -229 501 502 0
-26 -15 10 127 128 -229 -502 0
-26 -15 10 127 128 229 230 -501 0
-26 -15 10 127 128 229 230 -502 0
-26 -15 10 127 128 -230 -501 0
-26 -15 10 127 128 -230 501 502 0
-26 -15 10 127 128 -230 -502 0
-26 -15 10 -128 -229 -501 0
-26 -15 10 -128 -229 501 502 0
-26 -15 10 -128 -229 -502 0
-26 -15 10 -128 229 230 -501 0
-26 -15 10 -128 229 230 501 502 0
-26 -15 10 -128 229 230 -502 0
-26 -15 10 -128 -230 501 502 0
-26 -15 10 -128 -230 -502 0
-26 -15 -10 -127 -229 501 502 0
-26 -15 -10 -127 -229 -502 0
-26 -15 -10 -127 229 230 -501 0
-26 -15 -10 -127 229 230 501 502 0
-26 -15 -10 -127 229 230 -502 0
-26 -15 -10 -127 -230 -501 0
-26 -15 -10 -127 -230 501 502 0
-26 -15 -10 -127 -230 -502 0
-26 -15 -10 127 128 -229 -501 0
-26 -15 -10 127 128 -229 501 502 0
-26 -15 -10 127 128 -229 -502 0
-26 -15 -10 127 128 229 230 -501 0
-26 -15 -10 127 128 229 230 -502 0
-26 -15 -10 127 128 -230 -501 0
-26 -15 -10 127 128 -230 501 502 0
-26 -15 -10 127 128 -230 -502 0
-26 -15 -10 -128 -229 -501 0
-26 -15 -10 -128 -229 501 502 0
-26 -15 -10 -128 -229 -502 0
-26 -15 -10 -128 229 230 -501 0
-26 -15 -10 -128 229 230 501 502 0
-26 -15 -10 -128 229 230 -502 0
-26 -15 -10 -128 -230 -501 0
-26 -15 -10 -128 -230 501 502 0
27 12 11 -129 -279 335 336 0
27 12 11 -129 -279 -336 0
27 12 11 -129 279 280 -335 0
27 12 11 -129 279 280 335 336 0
27 12 11 -129 279 280 -336 0
27 12 11 -129 -280 -335 0
27 12 11 -129 -280 335 336 0
27 12 11 -129 -280 -336 0
27 12 11 129 130 -279 -335 0
27 12 11 129 130 -279 335 336 0
27 12 11 129 130 -279 -336 0
27 12 11 129 130 279 280 -335 0
27 12 11 129 130 279 280 -336 0
27 12 11 129 130 -280 -335 0
27 12 11 129 130 -280 335 336 0
27 12 11 129 130 -280 -336 0
27 12 11 -130 -279 -335 0
27 12 11 -130 -279 335 336 0
27 12 11 -130 -279 -336 0
27 12 11 -130 279 280 -335 0
27 12 11 -130 279 280 335 336 0
27 12 11 -130 279 280 -336 0
27 12 11 -130 -280 -335 0
27 12 11 -130 -280 335 336 0
27 12 -11 -129 -279 -335 0
27 12 -11 -129 -279 335 336 0
27 12 -11 -129 279 280 -335 0
27 12 -11 -129 279 280 335 336 0
27 12 -11 -129 279 280 -336 0
27 12 -11 -129 -280 -335 0
27 12 -11 -129 -280 335 336 0
27 12 -11 -129 -280 -336 0
27 12 -11 129 130 -279 -335 0
27 12 -11 129 130 -279 335 336 0
27 12 -11 129 130 -279 -336 0
27 12 -11 129 130 279 280 -335 0
27 12 -11 129 130 279 280 -336 0
27 12 -11 129 130 -280 -335 0
27 12 -11 129 130 -280 335 336 0
27 12 -11 129 130 -280 -336 0
27 12 -11 -130 -279 -335 0
27 12 -11 -130 -279 335 336 0
27 12 -11 -130 -279 -336 0
27 12 -11 -130 279 280 -335 0
27 12 -11 -130 279 280 335 336 0
27 12 -11 -130 279 280 -336 0
27 12 -11 -130 -280 335 336 0
27 12 -11 -130 -280 -336 0
27 -12 11 -129 -279 -335 0
27 -12 11 -129 -279 335 336 0
27 -12 11 -129 -279 -336 0
27 -12 11 -129 279 280 -335 0
27 -12 11 -129 279 280 335 336 0
27 -12 11 -129 279 280 -336 0
27 -12 11 -129 -280 335 336 0
27 -12 11 -129 -280 -336 0
27 -12 11 129 130 -279 -335 0
27 -12 11 129 130 -279 335 336 0
27 -12 11 129 130 -279 -336 0
27 -12 11 129 130 279 280 -335 0
27 -12 11 129 130 279 280 -336 0
27 -12 11 129 130 -280 -335 0
27 -12 11 129 130 -280 335 336 0
27 -12 11 129 130 -280 -336 0
27 -12 11 -130 -279 -335 0
27 -12 11 -130 -279 335 336 0
27 -12 11 -130 279 280 -335 0
27 -12 11 -130 279 280 335 336 0
27 -12 11 -130 279 280 -336 0
27 -12 11 -130 -280 -335 0
27 -12 11 -130 -280 335 336 0
27 -12 11 -130 -280 -336 0
27 -12 -11 -129 -279 -335 0
27 -12 -11 -129 -279 335 336 0
27 -12 -11 -129 -279 -336 0
27 -12 -11 -129 279 280 -335 0
27 -12 -11 -129 279 280 335 336 0
27 -12 -11 -129 279 280 -336 0
27 -12 -11 -129 -280 -335 0
27 -12 -11 -129 -280 335 336 0
27 -12 -11 129 130 -279 -335 0
27 -12 -11 129 130 -279 335 336 0
27 -12 -11 129 130 -279 -336 0
27 -12 -11 129 130 279 280 -335 0
27 -12 -11 129 130 279 280 -336 0
27 -12 -11 129 130 -280 -335 0
27 -12 -11 129 130 -280 335 336 0
27 -12 -11 129 130 -280 -336 0
27 -12 -11 -130 -279 335 336 0
27 -12 -11 -130 -279 -336 0
27 -12 -11 -130 279 280 -335 0
27 -12 -11 -130 279 280 335 336 0
27 -12 -11 -130 279 280 -336 0
27 -12 -11 -130 -280 -335 0
27 -12 -11 -130 -280 335 336 0
27 -12 -11 -130 -280 -336 0
-27 12 11 -129 -279 -335 0
-27 12 11 -129 -279 335 336 0
-27 12 11 -129 -279 -336 0
-27 12 11 -129 279 280 -335 0
-27 12 11 -129 279 280 335 336 0
-27 12 11 -129 279 280 -336 0
-27 12 11 -129 -280 -335 0
-27 12 11 -129 -280 335 336 0
-27 12 11 129 130 -279 -335 0
-27 12 11 129 130 -279 335 336 0
-27 12 11 129 130 -279 -336 0
-27 12 11 129 130 279 280 -335 0
-27 12 11 129 130 279 280 -336 0
-27 12 11 129 130 -280 -335 0
-27 12 11 129 130 -280 335 336 0
-27 12 11 129 130 -280 -336 0
-27 12 11 -130 -279 335 336 0
-27 12 11 -130 -279 -336 0
-27 12 11 -130 279 280 -335 0
-27 12 11 -130 279 280 335 336 0
-27 12 11 -130 279 280 -336 0
-27 12 11 -130 -280 -335 0
-27 12 11 -130 -280 335 336 0
-27 12 11 -130 -280 -336 0
-27 12 -11 -129 -279 -335 0
-27 12 -11 -129 -279 335 336 0
-27 12 -11 -129 -279 -336 0
-27 12 -11 -129 279 280 -335 0
-27 12 -11 -129 279 280 335 336 0
-27 12 -11 -129 279 280 -336 0
-27 12 -11 -129 -280 335 336 0
-27 12 -11 -129 -280 -336 0
-27 12 -11 129 130 -279 -335 0
-27 12 -11 129 130 -279 335 336 0
-27 12 -11 129 130 -279 -336 0
-27 12 -11 129 130 279 280 -335 0
-27 12 -11 129 130 279 280 -336 0
-27 12 -11 129 130 -280 -335 0
-27 12 -11 129 130 -280 335 336 0
-27 12 -11 129 130 -280 -336 0
-27 12 -11 -130 -279 -335 0
-27 12 -11 -130 -279 335 336 0
-27 12 -11 -130 279 280 -335 0
-27 12 -11 -130 279 280 335 336 0
-27 12 -11 -130 279 280 -336 0
-27 12 -11 -130 -280 -335 0
-27 12 -11 -130 -280 335 336 0
-27 12 -11 -130 -280 -336 0
-27 -12 11 -129 -279 -335 0
-27 -12 11 -129 -279 335 336 0
-27 -12 11 -129 279 280 -335 0
-27 -12 11 -129 279 280 335 336 0
-27 -12 11 -129 279 280 -336 0
-27 -12 11 -129 -280 -335 0
-27 -12 11 -129 -280 335 336 0
-27 -12 11 -129 -280 -336 0
-27 -12 11 129 130 -279 -335 0
-27 -12 11 129 130 -279 335 336 0
-27 -12 11 129 130 -279 -336 0
-27 -12 11 129 130 279 280 -335 0
-27 -12 11 129 130 279 280 -336 0
-27 -12 11 129 130 -280 -335 0
-27 -12 11 129 130 -280 335 336 0
-27 -12 11 129 130 -280 -336 0
-27 -12 11 -130 -279 -335 0
-27 -12 11 -130 -279 335 336 0
-27 -12 11 -130 -279 -336 0
-27 -12 11 -130 279 280 -335 0
-27 -12 11 -130 279 280 335 336 0
-27 -12 11 -130 279 280 -336 0
-27 -12 11 -130 -280 335 336 0
-27 -12 11 -130 -280 -336 0
-27 -12 -11 -129 -279 335 336 0
-27 -12 -11 -129 -279 -336 0
-27 -12 -11 -129 279 280 -335 0
-27 -12 -11 -129 279 280 335 336 0
-27 -12 -11 -129 279 280 -336 0
-27 -12 -11 -129 -280 -335 0
-27 -12 -11 -129 -280 335 336 0
-27 -12 -11 -129 -280 -336 0
-27 -12 -11 129 130 -279 -335 0
-27 -12 -11 129 130 -279 335 336 0
-27 -12 -11 129 130 -279 -336 0
-27 -12 -11 129 130 279 280 -335 0
-27 -12 -11 129 130 279 280 -336 0
-27 -12 -11 129 130 -280 -335 0
-27 -12 -11 129 130 -280 335 336 0
-27 -12 -11 129 130 -280 -336 0
-27 -12 -11 -130 -279 -335 0
-27 -12 -11 -130 -279 335 336 0
-27 -12 -11 -130 -279 -336 0
-27 -12 -11 -130 279 280 -335 0
-27 -12 -11 -130 279 280 335 336 0
-27 -12 -11 -130 279 280 -336 0
-27 -12 -11 -130 -280 -335 0
-27 -12 -11 -130 -280 335 336 0
28 13 11 -131 -281 391 392 0
28 13 11 -131 -281 -392 0
28 13 11 -131 281 282 -391 0
28 13 11 -131 281 282 391 392 0
28 13 11 -131 281 282 -392 0
28 13 11 -131 -282 -391 0
28 13 11 -131 -282 391 392 0
28 13 11 -131 -282 -392 0
28 13 11 131 132 -281 -391 0
28 13 11 131 132 -281 391 392 0
28 13 11 131 132 -281 -392 0
28 13 11 131 132 281 282 -391 0
28 13 11 131 132 281 282 -392 0
28 13 11 131 132 -282 -391 0
28 13 11 131 132 -282 391 392 0
28 13 11 131 132 -282 -392 0
28 13 11 -132 -281 -391 0
28 13 11 -132 -281 391 392 0
28 13 11 -132 -281 -392 0
28 13 11 -132 281 282 -391 0
28 13 11 -132 281 282 391 392 0
28 13 11 -132 281 282 -392 0
28 13 11 -132 -282 -391 0
28 13 11 -132 -282 391 392 0
28 13 -11 -131 -281 -391 0
28 13 -11 -131 -281 391 392 0
28 13 -11 -131 281 282 -391 0
28 13 -11 -131 281 282 391 392 0
28 13 -11 -131 281 282 -392 0
28 13 -11 -131 -282 -391 0
28 13 -11 -131 -282 391 392 0
28 13 -11 -131 -282 -392 0
28 13 -11 131 132 -281 -391 0
28 13 -11 131 132 -281 391 392 0
28 13 -11 131 132 -281 -392 0
28 13 -11 131 132 281 282 -391 0
28 13 -11 131 132 281 282 -392 0
28 13 -11 131 132 -282 -391 0
28 13 -11 131 132 -282 391 392 0
28 13 -11 131 132 -282 -392 0
28 13 -11 -132 -281 -391 0
28 13 -11 -132 -281 391 392 0
28 13 -11 -132 -281 -392 0
28 13 -11 -132 281 282 -391 0
28 13 -11 -132 281 282 391 392 0
28 13 -11 -132 281 282 -392 0
28 13 -11 -132 -282 391 392 0
28 13 -11 -132 -282 -392 0
28 -13 11 -131 -281 -391 0
28 -13 11 -131 -281 391 392 0
28 -13 11 -131 -281 -392 0
28 -13 11 -131 281 282 -391 0
28 -13 11 -131 281 282 391 392 0
28 -13 11 -131 281 282 -392 0
28 -13 11 -131 -282 391 392 0
28 -13 11 -131 -282 -392 0
28 -13 11 131 132 -281 -391 0
28 -13 11 131 132 -281 391 392 0
28 -13 11 131 132 -281 -392 0
28 -13 11 131 132 281 282 -391 0
28 -13 11 131 132 281 282 -392 0
28 -13 11 131 132 -282 -391 0
28 -13 11 131 132 -282 391 392 0
28 -13 11 131 132 -282 -392 0
28 -13 11 -132 -281 -391 0
28 -13 11 -132 -281 391 392 0
28 -13 11 -132 281 282 -391 0
28 -13 11 -132 281 282 391 392 0
28 -13 11 -132 281 282 -392 0
28 -13 11 -132 -282 -391 0
28 -13 11 -132 -282 391 392 0
28 -13 11 -132 -282 -392 0
28 -13 -11 -131 -281 -391 0
28 -13 -11 -131 -281 391 392 0
28 -13 -11 -131 -281 -392 0
28 -13 -11 -131 281 282 -391 0
28 -13 -11 -131 281 282 391 392 0
28 -13 -11 -131 281 282 -392 0
28 -13 -11 -131 -282 -391 0
28 -13 -11 -131 -282 391 392 0
28 -13 -11 131 132 -281 -391 0
28 -13 -11 131 132 -281 391 392 0
28 -13 -11 131 132 -281 -392 0
28 -13 -11 131 132 281 282 -391 0
28 -13 -11 131 132 281 282 -392 0
28 -13 -11 131 132 -282 -391 0
28 -13 -11 131 132 -282 391 392 0
28 -13 -11 131 132 -282 -392 0
28 -13 -11 -132 -281 391 392 0
28 -13 -11 -132 -281 -392 0
28 -13 -11 -132 281 282 -391 0
28 -13 -11 -132 281 282 391 392 0
28 -13 -11 -132 281 282 -392 0
28 -13 -11 -132 -282 -391 0
28 -13 -11 -132 -282 391 392 0
28 -13 -11 -132 -282 -392 0
-28 13 11 -131 -281 -391 0
-28 13 11 -131 -281 391 392 0
-28 13 11 -131 -281 -392 0
-28 13 11 -131 281 282 -391 0
-28 13 11 -131 281 282 391 392 0
-28 13 11 -131 281 282 -392 0
-28 13 11 -131 -282 -391 0
-28 13 11 -131 -282 391 392 0
-28 13 11 131 132 -281 -391 0
-28 13 11 131 132 -281 391 392 0
-28 13 11 131 132 -281 -392 0
-28 13 11 131 132 281 282 -391 0
-28 13 11 131 132 281 282 -392 0
-28 13 11 131 132 -282 -391 0
-28 13 11 131 132 -282 391 392 0
-28 13 11 131 132 -282 -392 0
-28 13 11 -132 -281 391 392 0
-28 13 11 -132 -281 -392 0
-28 13 11 -132 281 282 -391 0
-28 13 11 -132 281 282 391 392 0
-28 13 11 -132 281 282 -392 0
-28 13 11 -132 -282 -391 0
-28 13 11 -132 -282 391 392 0
-28 13 11 -132 -282 -392 0
-28 13 -11 -131 -281 -391 0
-28 13 -11 -131 -281 391 392 0
-28 13 -11 -131 -281 -392 0
-28 13 -11 -131 281 282 -391 0
-28 13 -11 -131 281 282 391 392 0
-28 13 -11 -131 281 282 -392 0
-28 13 -11 -131 -282 391 392 0
-28 13 -11 -131 -282 -392 0
-28 13 -11 131 132 -281 -391 0
-28 13 -11 131 132 -281 391 392 0
-28 13 -11 131 132 -281 -392 0
-28 13 -11 131 132 281 282 -391 0
-28 13 -11 131 132 281 282 -392 0
-28 13 -11 131 132 -282 -391 0
-28 13 -11 131 132 -282 391 392 0
-28 13 -11 131 132 -282 -392 0
-28 13 -11 -132 -281 -391 0
-28 13 -11 -132 -281 391 392 0
-28 13 -11 -132 281 282 -391 0
-28 13 -11 -132 281 282 391 392 0
-28 13 -11 -132 281 282 -392 0
-28 13 -11 -132 -282 -391 0
-28 13 -11 -132 -282 391 392 0
-28 13 -11 -132 -282 -392 0
-28 -13 11 -131 -281 -391 0
-28 -13 11 -131 -281 391 392 0
-28 -13 11 -131 281 282 -391 0
-28 -13 11 -131 281 282 391 392 0
-28 -13 11 -131 281 282 -392 0
-28 -13 11 -131 -282 -391 0
-28 -13 11 -131 -282 391 392 0
-28 -13 11 -131 -282 -392 0
-28 -13 11 131 132 -281 -391 0
-28 -13 11 131 132 -281 391 392 0
-28 -13 11 131 132 -281 -392 0
-28 -13 11 131 132 281 282 -391 0
-28 -13 11 131 132 281 282 -392 0
-28 -13 11 131 132 -282 -391 0
-28 -13 11 131 132 -282 391 392 0
-28 -13 11 131 132 -282 -392 0
-28 -13 11 -132 -281 -391 0
-28 -13 11 -132 -281 391 392 0
-28 -13 11 -132 -281 -392 0
-28 -13 11 -132 281 282 -391 0
-28 -13 11 -132 281 282 391 392 0
-28 -13 11 -132 281 282 -392 0
-28 -13 11 -132 -282 391 392 0
-28 -13 11 -132 -282 -392 0
-28 -13 -11 -131 -281 391 392 0
-28 -13 -11 -131 -281 -392 0
-28 -13 -11 -131 281 282 -391 0
-28 -13 -11 -131 281 282 391 392 0
-28 -13 -11 -131 281 282 -392 0
-28 -13 -11 -131 -282 -391 0
-28 -13 -11 -131 -282 391 392 0
-28 -13 -11 -131 -282 -392 0
-28 -13 -11 131 132 -281 -391 0
-28 -13 -11 131 132 -281 391 392 0
-28 -13 -11 131 132 -281 -392 0
-28 -13 -11 131 132 281 282 -391 0
-28 -13 -11 131 132 281 282 -392 0
-28 -13 -11 131 132 -282 -391 0
-28 -13 -11 131 132 -282 391 392 0
-28 -13 -11 131 132 -282 -392 0
-28 -13 -11 -132 -281 -391 0
-28 -13 -11 -132 -281 391 392 0
-28 -13 -11 -132 -281 -392 0
-28 -13 -11 -132 281 282 -391 0
-28 -13 -11 -132 281 282 391 392 0
-28 -13 -11 -132 281 282 -392 0
-28 -13 -11 -132 -282 -391 0
-28 -13 -11 -132 -282 391 392 0
29 14 11 -133 -283 447 448 0
29 14 11 -133 -283 -448 0
29 14 11 -133 283 284 -447 0
29 14 11 -133 283 284 447 448 0
29 14 11 -133 283 284 -448 0
29 14 11 -133 -284 -447 0
29 14 11 -133 -284 447 448 0
29 14 11 -133 -284 -448 0
29 14 11 133 134 -283 -447 0
29 14 11 133 134 -283 447 448 0
29 14 11 133 134 -283 -448 0
29 14 11 133 134 283 284 -447 0
29 14 11 133 134 283 284 -448 0
29 14 11 133 134 -284 -447 0
29 14 11 133 134 -284 447 448 0
29 14 11 133 134 -284 -448 0
29 14 11 -134 -283 -447 0
29 14 11 -134 -283 447 448 0
29 14 11 -134 -283 -448 0
29 14 11 -134 283 284 -447 0
29 14 11 -134 283 284 447 448 0
29 14 11 -134 283 284 -448 0
29 14 11 -134 -284 -447 0
29 14 11 -134 -284 447 448 0
29 14 -11 -133 -283 -447 0
29 14 -11 -133 -283 447 448 0
29 14 -11 -133 283 284 -447 0
29 14 -11 -133 283 284 447 448 0
29 14 -11 -133 283 284 -448 0
29 14 -11 -133 -284 -447 0
29 14 -11 -133 -284 447 448 0
29 14 -11 -133 -284 -448 0
29 14 -11 133 134 -283 -447 0
29 14 -11 133 134 -283 447 448 0
29 14 -11 133 134 -283 -448 0
29 14 -11 133 134 283 284 -447 0
29 14 -11 133 134 283 284 -448 0
29 14 -11 133 134 -284 -447 0
29 14 -11 133 134 -284 447 448 0
29 14 -11 133 134 -284 -448 0
29 14 -11 -134 -283 -447 0
29 14 -11 -134 -283 447 448 0
29 14 -11 -134 -283 -448 0
29 14 -11 -134 283 284 -447 0
29 14 -11 -134 283 284 447 448 0
29 14 -11 -134 283 284 -448 0
29 14 -11 -134 -284 447 448 0
29 14 -11 -134 -284 -448 0
29 -14 11 -133 -283 -447 0
29 -14 11 -133 -283 447 448 0
29 -14 11 -133 -283 -448 0
29 -14 11 -133 283 284 -447 0
29 -14 11 -133 283 284 447 448 0
29 -14 11 -133 283 284 -448 0
29 -14 11 -133 -284 447 448 0
29 -14 11 -133 -284 -448 0
29 -14 11 133 134 -283 -447 0
29 -14 11 133 134 -283 447 448 0
29 -14 11 133 134 -283 -448 0
29 -14 11 133 134 283 284 -447 0
29 -14 11 133 134 283 284 -448 0
29 -14 11 133 134 -284 -447 0
29 -14 11 133 134 -284 447 448 0
29 -14 11 133 134 -284 -448 0
29 -14 11 -134 -283 -447 0
29 -14 11 -134 -283 447 448 0
29 -14 11 -134 283 284 -447 0
29 -14 11 -134 283 284 447 448 0
29 -14 11 -134 283 284 -448 0
29 -14 11 -134 -284 -447 0
29 -14 11 -134 -284 447 448 0
29 -14 11 -134 -284 -448 0
29 -14 -11 -133 -283 -447 0
29 -14 -11 -133 -283 447 448 0
29 -14 -11 -133 -283 -448 0
29 -14 -11 -133 283 284 -447 0
29 -14 -11 -133 283 284 447 448 0
29 -14 -11 -133 283 284 -448 0
29 -14 -11 -133 -284 -447 0
29 -14 -11 -133 -284 447 448 0
29 -14 -11 133 134 -283 -447 0
29 -14 -11 133 134 -283 447 448 0
29 -14 -11 133 134 -283 -448 0
29 -14 -11 133 134 283 284 -447 0
29 -14 -11 133 134 283 284 -448 0
29 -14 -11 133 134 -284 -447 0
29 -14 -11 133 134 -284 447 448 0
29 -14 -11 133 134 -284 -448 0
29 -14 -11 -134 -283 447 448 0
29 -14 -11 -134 -283 -448 0
29 -14 -11 -134 283 284 -447 0
29 -14 -11 -134 283 284 447 448 0
29 -14 -11 -134 283 284 -448 0
29 -14 -11 -134 -284 -447 0
29 -14 -11 -134 -284 447 448 0
29 -14 -11 -134 -284 -448 0
-29 14 11 -133 -283 -447 0
-29 14 11 -133 -283 447 448 0
-29 14 11 -133 -283 -448 0
-29 14 11 -133 283 284 -447 0
-29 14 11 -133 283 284 447 448 0
-29 14 11 -133 283 284 -448 0
-29 14 11 -133 -284 -447 0
-29 14 11 -133 -284 447 448 0
-29 14 11 133 134 -283 -447 0
-29 14 11 133 134 -283 447 448 0
-29 14 11 133 134 -283 -448 0
-29 14 11 133 134 283 284 -447 0
-29 14 11 133 134 283 284 -448 0
-29 14 11 133 134 -284 -447 0
-29 14 11 133 134 -284 447 448 0
-29 14 11 133 134 -284 -448 0
-29 14 11 -134 -283 447 448 0
-29 14 11 -134 -283 -448 0
-29 14 11 -134 283 284 -447 0
-29 14 11 -134 283 284 447 448 0
-29 14 11 -134 283 284 -448 0
-29 14 11 -134 -284 -447 0
-29 14 11 -134 -284 447 448 0
-29 14 11 -134 -284 -448 0
-29 14 -11 -133 -283 -447 0
-29 14 -11 -133 -283 447 448 0
-29 14 -11 -133 -283 -448 0
-29 14 -11 -133 283 284 -447 0
-29 14 -11 -133 283 284 447 448 0
-29 14 -11 -133 283 284 -448 0
-29 14 -11 -133 -284 447 448 0
-29 14 -11 -133 -284 -448 0
-29 14 -11 133 134 -283 -447 0
-29 14 -11 133 134 -283 447 448 0
-29 14 -11 133 134 -283 -448 0
-29 14 -11 133 134 283 284 -447 0
-29 14 -11 133 134 283 284 -448 0
-29 14 -11 133 134 -284 -447 0
-29 14 -11 133 134 -284 447 448 0
-29 14 -11 133 134 -284 -448 0
-29 14 -11 -134 -283 -447 0
-29 14 -11 -134 -283 447 448 0
-29 14 -11 -134 283 284 -447 0
-29 14 -11 -134 283 284 447 448 0
-29 14 -11 -134 283 284 -448 0
-29 14 -11 -134 -284 -447 0
-29 14 -11 -134 -284 447 448 0
-29 14 -11 -134 -284 -448 0
-29 -14 11 -133 -283 -447 0
-29 -14 11 -133 -283 447 448 0
-29 -14 11 -133 283 284 -447 0
-29 -14 11 -133 283 284 447 448 0
-29 -14 11 -133 283 284 -448 0
-29 -14 11 -133 -284 -447 0
-29 -14 11 -133 -284 447 448 0
-29 -14 11 -133 -284 -448 0
-29 -14 11 133 134 -283 -447 0
-29 -14 11 133 134 -283 447 448 0
-29 -14 11 133 134 -283 -448 0
-29 -14 11 133 134 283 284 -447 0
-29 -14 11 133 134 283 284 -448 0
-29 -14 11 133 134 -284 -447 0
-29 -14 11 133 134 -284 447 448 0
-29 -14 11 133 134 -284 -448 0
-29 -14 11 -134 -283 -447 0
-29 -14 11 -134 -283 447 448 0
-29 -14 11 -134 -283 -448 0
-29 -14 11 -134 283 284 -447 0
-29 -14 11 -134 283 284 447 448 0
-29 -14 11 -134 283 284 -448 0
-29 -14 11 -134 -284 447 448 0
-29 -14 11 -134 -284 -448 0
-29 -14 -11 -133 -283 447 448 0
-29 -14 -11 -133 -283 -448 0
-29 -14 -11 -133 283 284 -447 0
-29 -14 -11 -133 283 284 447 448 0
-29 -14 -11 -133 283 284 -448 0
-29 -14 -11 -133 -284 -447 0
-29 -14 -11 -133 -284 447 448 0
-29 -14 -11 -133 -284 -448 0
-29 -14 -11 133 134 -283 -447 0
-29 -14 -11 133 134 -283 447 448 0
-29 -14 -11 133 134 -283 -448 0
-29 -14 -11 133 134 283 284 -447 0
-29 -14 -11 133 134 283 284 -448 0
-29 -14 -11 133 134 -284 -447 0
-29 -14 -11 133 134 -284 447 448 0
-29 -14 -11 133 134 -284 -448 0
-29 -14 -11 -134 -283 -447 0
-29 -14 -11 -134 -283 447 448 0
-29 -14 -11 -134 -283 -448 0
-29 -14 -11 -134 283 284 -447 0
-29 -14 -11 -134 283 284 447 448 0
-29 -14 -11 -134 283 284 -448 0
-29 -14 -11 -134 -284 -447 0
-29 -14 -11 -134 -284 447 448 0
30 15 11 -135 -285 503 504 0
30 15 11 -135 -285 -504 0
30 15 11 -135 285 286 -503 0
30 15 11 -135 285 286 503 504 0
30 15 11 -135 285 286 -504 0
30 15 11 -135 -286 -503 0
30 15 11 -135 -286 503 504 0
30 15 11 -135 -286 -504 0
30 15 11 135 136 -285 -503 0
30 15 11 135 136 -285 503 504 0
30 15 11 135 136 -285 -504 0
30 15 11 135 136 285 286 -503 0
30 15 11 135 136 285 286 -504 0
30 15 11 135 136 -286 -503 0
30 15 11 135 136 -286 503 504 0
30 15 11 135 136 -286 -504 0
30 15 11 -136 -285 -503 0
30 15 11 -136 -285 503 504 0
30 15 11 -136 -285 -504 0
30 15 11 -136 285 286 -503 0
30 15 11 -136 285 286 503 504 0
30 15 11 -136 285 286 -504 0
30 15 11 -136 -286 -503 0
30 15 11 -136 -286 503 504 0
30 15 -11 -135 -285 -503 0
30 15 -11 -135 -285 503 504 0
30 15 -11 -135 285 286 -503 0
30 15 -11 -135 285 286 503 504 0
30 15 -11 -135 285 286 -504 0
30 15 -11 -135 -286 -503 0
30 15 -11 -135 -286 503 504 0
30 15 -11 -135 -286 -504 0
30 15 -11 135 136 -285 -503 0
30 15 -11 135 136 -285 503 504 0
30 15 -11 135 136 -285 -504 0
30 15 -11 135 136 285 286 -503 0
30 15 -11 135 136 285 286 -504 0
30 15 -11 135 136 -286 -503 0
30 15 -11 135 136 -286 503 504 0
30 15 -11 135 136 -286 -504 0
30 15 -11 -136 -285 -503 0
30 15 -11 -136 -285 503 504 0
30 15 -11 -136 -285 -504 0
30 15 -11 -136 285 286 -503 0
30 15 -11 -136 285 286 503 504 0
30 15 -11 -136 285 286 -504 0
30 15 -11 -136 -286 503 504 0
30 15 -11 -136 -286 -504 0
30 -15 11 -135 -285 -503 0
30 -15 11 -135 -285 503 504 0
30 -15 11 -135 -285 -504 0
30 -15 11 -135 285 286 -503 0
30 -15 11 -135 285 286 503 504 0
30 -15 11 -135 285 286 -504 0
30 -15 11 -135 -286 503 504 0
30 -15 11 -135 -286 -504 0
30 -15 11 135 136 -285 -503 0
30 -15 11 135 136 -285 503 504 0
30 -15 11 135 136 -285 -504 0
30 -15 11 135 136 285 286 -503 0
30 -15 11 135 136 285 286 -504 0
30 -15 11 135 136 -286 -503 0
30 -15 11 135 136 -286 503 504 0
30 -15 11 135 136 -286 -504 0
30 -15 11 -136 -285 -503 0
30 -15 11 -136 -285 503 504 0
30 -15 11 -136 285 286 -503 0
30 -15 11 -136 285 286 503 504 0
30 -15 11 -136 285 286 -504 0
30 -15 11 -136 -286 -503 0
30 -15 11 -136 -286 503 504 0
30 -15 11 -136 -286 -504 0
30 -15 -11 -135 -285 -503 0
30 -15 -11 -135 -285 503 504 0
30 -15 -11 -135 -285 -504 0
30 -15 -11 -135 285 286 -503 0
30 -15 -11 -135 285 286 503 504 0
30 -15 -11 -135 285 286 -504 0
30 -15 -11 -135 -286 -503 0
30 -15 -11 -135 -286 503 504 0
30 -15 -11 135 136 -285 -503 0
30 -15 -11 135 136 -285 503 504 0
30 -15 -11 135 136 -285 -504 0
30 -15 -11 135 136 285 286 -503 0
30 -15 -11 135 136 285 286 -504 0
30 -15 -11 135 136 -286 -503 0
30 -15 -11 135 136 -286 503 504 0
30 -15 -11 135 136 -286 -504 0
30 -15 -11 -136 -285 503 504 0
30 -15 -11 -136 -285 -504 0
30 -15 -11 -136 285 286 -503 0
30 -15 -11 -136 285 286 503 504 0
30 -15 -11 -136 285 286 -504 0
30 -15 -11 -136 -286 -503 0
30 -15 -11 -136 -286 503 504 0
30 -15 -11 -136 -286 -504 0
-30 15 11 -135 -285 -503 0
-30 15 11 -135 -285 503 504 0
-30 15 11 -135 -285 -504 0
-30 15 11 -135 285 286 -503 0
-30 15 11 -135 285 286 503 504 0
-30 15 11 -135 285 286 -504 0
-30 15 11 -135 -286 -503 0
-30 15 11 -135 -286 503 504 0
-30 15 11 135 136 -285 -503 0
-30 15 11 135 136 -285 503 504 0
-30 15 11 135 136 -285 -504 0
-30 15 11 135 136 285 286 -503 0
-30 15 11 135 136 285 286 -504 0
-30 15 11 135 136 -286 -503 0
-30 15 11 135 136 -286 503 504 0
-30 15 11 135 136 -286 -504 0
-30 15 11 -136 -285 503 504 0
-30 15 11 -136 -285 -504 0
-30 15 11 -136 285 286 -503 0
-30 15 11 -136 285 286 503 504 0
-30 15 11 -136 285 286 -504 0
-30 15 11 -136 -286 -503 0
-30 15 11 -136 -286 503 504 0
-30 15 11 -136 -286 -504 0
-30 15 -11 -135 -285 -503 0
-30 15 -11 -135 -285 503 504 0
-30 15 -11 -135 -285 -504 0
-30 15 -11 -135 285 286 -503 0
-30 15 -11 -135 285 286 503 504 0
-30 15 -11 -135 285 286 -504 0
-30 15 -11 -135 -286 503 504 0
-30 15 -11 -135 -286 -504 0
-30 15 -11 135 136 -285 -503 0
-30 15 -11 135 136 -285 503 504 0
-30 15 -11 135 136 -285 -504 0
-30 15 -11 135 136 285 286 -503 0
-30 15 -11 135 136 285 286 -504 0
-30 15 -11 135 136 -286 -503 0
-30 15 -11 135 136 -286 503 504 0
-30 15 -11 135 136 -286 -504 0
-30 15 -11 -136 -285 -503 0
-30 15 -11 -136 -285 503 504 0
-30 15 -11 -136 285 286 -503 0
-30 15 -11 -136 285 286 503 504 0
-30 15 -11 -136 285 286 -504 0
-30 15 -11 -136 -286 -503 0
-30 15 -11 -136 -286 503 504 0
-30 15 -11 -136 -286 -504 0
-30 -15 11 -135 -285 -503 0
-30 -15 11 -135 -285 503 504 0
-30 -15 11 -135 285 286 -503 0
-30 -15 11 -135 285 286 503 504 0
-30 -15 11 -135 285 286 -504 0
-30 -15 11 -135 -286 -503 0
-30 -15 11 -135 -286 503 504 0
-30 -15 11 -135 -286 -504 0
-30 -15 11 135 136 -285 -503 0
-30 -15 11 135 136 -285 503 504 0
-30 -15 11 135 136 -285 -504 0
-30 -15 11 135 136 285 286 -503 0
-30 -15 11 135 136 285 286 -504 0
-30 -15 11 135 136 -286 -503 0
-30 -15 11 135 136 -286 503 504 0
-30 -15 11 135 136 -286 -504 0
-30 -15 11 -136 -285 -503 0
-30 -15 11 -136 -285 503 504 0
-30 -15 11 -136 -285 -504 0
-30 -15 11 -136 285 286 -503 0
-30 -15 11 -136 285 286 503 504 0
-30 -15 11 -136 285 286 -504 0
-30 -15 11 -136 -286 503 504 0
-30 -15 11 -136 -286 -504 0
-30 -15 -11 -135 -285 503 504 0
-30 -15 -11 -135 -285 -504 0
-30 -15 -11 -135 285 286 -503 0
-30 -15 -11 -135 285 286 503 504 0
-30 -15 -11 -135 285 286 -504 0
-30 -15 -11 -135 -286 -503 0
-30 -15 -11 -135 -286 503 504 0
-30 -15 -11 -135 -286 -504 0
-30 -15 -11 135 136 -285 -503 0
-30 -15 -11 135 136 -285 503 504 0
-30 -15 -11 135 136 -285 -504 0
-30 -15 -11 135 136 285 286 -503 0
-30 -15 -11 135 136 285 286 -504 0
-30 -15 -11 135 136 -286 -503 0
-30 -15 -11 135 136 -286 503 504 0
-30 -15 -11 135 136 -286 -504 0
-30 -15 -11 -136 -285 -503 0
-30 -15 -11 -136 -285 503 504 0
-30 -15 -11 -136 -285 -504 0
-30 -15 -11 -136 285 286 -503 0
-30 -15 -11 -136 285 286 503 504 0
-30 -15 -11 -136 285 286 -504 0
-30 -15 -11 -136 -286 -503 0
-30 -15 -11 -136 -286 503 504 0
31 13 12 -137 -337 393 394 0
31 13 12 -137 -337 -394 0
31 13 12 -137 337 338 -393 0
31 13 12 -137 337 338 393 394 0
31 13 12 -137 337 338 -394 0
31 13 12 -137 -338 -393 0
31 13 12 -137 -338 393 394 0
31 13 12 -137 -338 -394 0
31 13 12 137 138 -337 -393 0
31 13 12 137 138 -337 393 394 0
31 13 12 137 138 -337 -394 0
31 13 12 137 138 337 338 -393 0
31 13 12 137 138 337 338 -394 0
31 13 12 137 138 -338 -393 0
31 13 12 137 138 -338 393 394 0
31 13 12 137 138 -338 -394 0
31 13 12 -138 -337 -393 0
31 13 12 -138 -337 393 394 0
31 13 12 -138 -337 -394 0
31 13 12 -138 337 338 -393 0
31 13 12 -138 337 338 393 394 0
31 13 12 -138 337 338 -394 0
31 13 12 -138 -338 -393 0
31 13 12 -138 -338 393 394 0
31 13 -12 -137 -337 -393 0
31 13 -12 -137 -337 393 394 0
31 13 -12 -137 337 338 -393 0
31 13 -12 -137 337 338 393 394 0
31 13 -12 -137 337 338 -394 0
31 13 -12 -137 -338 -393 0
31 13 -12 -137 -338 393 394 0
31 13 -12 -137 -338 -394 0
31 13 -12 137 138 -337 -393 0
31 13 -12 137 138 -337 393 394 0
31 13 -12 137 138 -337 -394 0
31 13 -12 137 138 337 338 -393 0
31 13 -12 137 138 337 338 -394 0
31 13 -12 137 138 -338 -393 0
31 13 -12 137 138 -338 393 394 0
31 13 -12 137 138 -338 -394 0
31 13 -12 -138 -337 -393 0
31 13 -12 -138 -337 393 394 0
31 13 -12 -138 -337 -394 0
31 13 -12 -138 337 338 -393 0
31 13 -12 -138 337 338 393 394 0
31 13 -12 -138 337 338 -394 0
31 13 -12 -138 -338 393 394 0
31 13 -12 -138 -338 -394 0
31 -13 12 -137 -337 -393 0
31 -13 12 -137 -337 393 394 0
31 -13 12 -137 -337 -394 0
31 -13 12 -137 337 338 -393 0
31 -13 12 -137 337 338 393 394 0
31 -13 12 -137 337 338 -394 0
31 -13 12 -137 -338 393 394 0
31 -13 12 -137 -338 -394 0
31 -13 12 137 138 -337 -393 0
31 -13 12 137 138 -337 393 394 0
31 -13 12 137 138 -337 -394 0
31 -13 12 137 138 337 338 -393 0
31 -13 12 137 138 337 338 -394 0
31 -13 12 137 138 -338 -393 0
31 -13 12 137 138 -338 393 394 0
31 -13 12 137 138 -338 -394 0
31 -13 12 -138 -337 -393 0
31 -13 12 -138 -337 393 394 0
31 -13 12 -138 337 338 -393 0
31 -13 12 -138 337 338 393 394 0
31 -13 12 -138 337 338 -394 0
31 -13 12 -138 -338 -393 0
31 -13 12 -138 -338 393 394 0
31 -13 12 -138 -338 -394 0
31 -13 -12 -137 -337 -393 0
31 -13 -12 -137 -337 393 394 0
31 -13 -12 -137 -337 -394 0
31 -13 -12 -137 337 338 -393 0
31 -13 -12 -137 337 338 393 394 0
31 -13 -12 -137 337 338 -394 0
31 -13 -12 -137 -338 -393 0
31 -13 -12 -137 -338 393 394 0
31 -13 -12 137 138 -337 -393 0
31 -13 -12 137 138 -337 393 394 0
31 -13 -12 137 138 -337 -394 0
31 -13 -12 137 138 337 338 -393 0
31 -13 -12 137 138 337 338 -394 0
31 -13 -12 137 138 -338 -393 0
31 -13 -12 137 138 -338 393 394 0
31 -13 -12 137 138 -338 -394 0
31 -13 -12 -138 -337 393 394 0
31 -13 -12 -138 -337 -394 0
31 -13 -12 -138 337 338 -393 0
31 -13 -12 -138 337 338 393 394 0
31 -13 -12 -138 337 338 -394 0
31 -13 -12 -138 -338 -393 0
31 -13 -12 -138 -338 393 394 0
31 -13 -12 -138 -338 -394 0
-31 13 12 -137 -337 -393 0
-31 13 12 -137 -337 393 394 0
-31 13 12 -137 -337 -394 0
-31 13 12 -137 337 338 -393 0
-31 13 12 -137 337 338 393 394 0
-31 13 12 -137 337 338 -394 0
-31 13 12 -137 -338 -393 0
-31 13 12 -137 -338 393 394 0
-31 13 12 137 138 -337 -393 0
-31 13 12 137 138 -337 393 394 0
-31 13 12 137 138 -337 -394 0
-31 13 12 137 138 337 338 -393 0
-31 13 12 137 138 337 338 -394 0
-31 13 12 137 138 -338 -393 0
-31 13 12 137 138 -338 393 394 0
-31 13 12 137 138 -338 -394 0
-31 13 12 -138 -337 393 394 0
-31 13 12 -138 -337 -394 0
-31 13 12 -138 337 338 -393 0
-31 13 12 -138 337 338 393 394 0
-31 13 12 -138 337 338 -394 0
-31 13 12 -138 -338 -393 0
-31 13 12 -138 -338 393 394 0
-31 13 12 -138 -338 -394 0
-31 13 -12 -137 -337 -393 0
-31 13 -12 -137 -337 393 394 0
-31 13 -12 -137 -337 -394 0
-31 13 -12 -137 337 338 -393 0
-31 13 -12 -137 337 338 393 394 0
-31 13 -12 -137 337 338 -394 0
-31 13 -12 -137 -338 393 394 0
-31 13 -12 -137 -338 -394 0
-31 13 -12 137 138 -337 -393 0
-31 13 -12 137 138 -337 393 394 0
-31 13 -12 137 138 -337 -394 0
-31 13 -12 137 138 337 338 -393 0
-31 13 -12 137 138 337 338 -394 0
-31 13 -12 137 138 -338 -393 0
-31 13 -12 137 138 -338 393 394 0
-31 13 -12 137 138 -338 -394 0
-31 13 -12 -138 -337 -393 0
-31 13 -12 -138 -337 393 394 0
-31 13 -12 -138 337 338 -393 0
-31 13 -12 -138 337 338 393 394 0
-31 13 -12 -138 337 338 -394 0
-31 13 -12 -138 -338 -393 0
-31 13 -12 -138 -338 393 394 0
-31 13 -12 -138 -338 -394 0
-31 -13 12 -137 -337 -393 0
-31 -13 12 -137 -337 393 394 0
-31 -13 12 -137 337 338 -393 0
-31 -13 12 -137 337 338 393 394 0
-31 -13 12 -137 337 338 -394 0
-31 -13 12 -137 -338 -393 0
-31 -13 12 -137 -338 393 394 0
-31 -13 12 -137 -338 -394 0
-31 -13 12 137 138 -337 -393 0
-31 -13 12 137 138 -337 393 394 0
-31 -13 12 137 138 -337 -394 0
-31 -13 12 137 138 337 338 -393 0
-31 -13 12 137 138 337 338 -394 0
-31 -13 12 137 138 -338 -393 0
-31 -13 12 137 138 -338 393 394 0
-31 -13 12 137 138 -338 -394 0
-31 -13 12 -138 -337 -393 0
-31 -13 12 -138 -337 393 394 0
-31 -13 12 -138 -337 -394 0
-31 -13 12 -138 337 338 -393 0
-31 -13 12 -138 337 338 393 394 0
-31 -13 12 -138 337 338 -394 0
-31 -13 12 -138 -338 393 394 0
-31 -13 12 -138 -338 -394 0
-31 -13 -12 -137 -337 393 394 0
-31 -13 -12 -137 -337 -394 0
-31 -13 -12 -137 337 338 -393 0
-31 -13 -12 -137 337 338 393 394 0
-31 -13 -12 -137 337 338 -394 0
-31 -13 -12 -137 -338 -393 0
-31 -13 -12 -137 -338 393 394 0
-31 -13 -12 -137 -338 -394 0
-31 -13 -12 137 138 -337 -393 0
-31 -13 -12 137 138 -337 393 394 0
-31 -13 -12 137 138 -337 -394 0
-31 -13 -12 137 138 337 338 -393 0
-31 -13 -12 137 138 337 338 -394 0
-31 -13 -12 137 138 -338 -393 0
-31 -13 -12 137 138 -338 393 394 0
-31 -13 -12 137 138 -338 -394 0
-31 -13 -12 -138 -337 -393 0
-31 -13 -12 -138 -337 393 394 0
-31 -13 -12 -138 -337 -394 0
-31 -13 -12 -138 337 338 -393 0
-31 -13 -12 -138 337 338 393 394 0
-31 -13 -12 -138 337 338 -394 0
-31 -13 -12 -138 -338 -393 0
-31 -13 -12 -138 -338 393 394 0
32 14 12 -139 -339 449 450 0
32 14 12 -139 -339 -450 0
32 14 12 -139 339 340 -449 0
32 14 12 -139 339 340 449 450 0
32 14 12 -139 339 340 -450 0
32 14 12 -139 -340 -449 0
32 14 12 -139 -340 449 450 0
32 14 12 -139 -340 -450 0
32 14 12 139 140 -339 -449 0
32 14 12 139 140 -339 449 450 0
32 14 12 139 140 -339 -450 0
32 14 12 139 140 339 340 -449 0
32 14 12 139 140 339 340 -450 0
32 14 12 139 140 -340 -449 0
32 14 12 139 140 -340 449 450 0
32 14 12 139 140 -340 -450 0
32 14 12 -140 -339 -449 0
32 14 12 -140 -339 449 450 0
32 14 12 -140 -339 -450 0
32 14 12 -140 339 340 -449 0
32 14 12 -140 339 340 449 450 0
32 14 12 -140 339 340 -450 0
32 14 12 -140 -340 -449 0
32 14 12 -140 -340 449 450 0
32 14 -12 -139 -339 -449 0
32 14 -12 -139 -339 449 450 0
32 14 -12 -139 339 340 -449 0
32 14 -12 -139 339 340 449 450 0
32 14 -12 -139 339 340 -450 0
32 14 -12 -139 -340 -449 0
32 14 -12 -139 -340 449 450 0
32 14 -12 -139 -340 -450 0
32 14 -12 139 140 -339 -449 0
32 14 -12 139 140 -339 449 450 0
32 14 -12 139 140 -339 -450 0
32 14 -12 139 140 339 340 -449 0
32 14 -12 139 140 339 340 -450 0
32 14 -12 139 140 -340 -449 0
32 14 -12 139 140 -340 449 450 0
32 14 -12 139 140 -340 -450 0
32 14 -12 -140 -339 -449 0
32 14 -12 -140 -339 449 450 0
32 14 -12 -140 -339 -450 0
32 14 -12 -140 339 340 -449 0
32 14 -12 -140 339 340 449 450 0
32 14 -12 -140 339 340 -450 0
32 14 -12 -140 -340 449 450 0
32 14 -12 -140 -340 -450 0
32 -14 12 -139 -339 -449 0
32 -14 12 -139 -339 449 450 0
32 -14 12 -139 -339 -450 0
32 -14 12 -139 339 340 -449 0
32 -14 12 -139 339 340 449 450 0
32 -14 12 -139 339 340 -450 0
32 -14 12 -139 -340 449 450 0
32 -14 12 -139 -340 -450 0
32 -14 12 139 140 -339 -449 0
32 -14 12 139 140 -339 449 450 0
32 -14 12 139 140 -339 -450 0
32 -14 12 139 140 339 340 -449 0
32 -14 12 139 140 339 340 -450 0
32 -14 12 139 140 -340 -449 0
32 -14 12 139 140 -340 449 450 0
32 -14 12 139 140 -340 -450 0
32 -14 12 -140 -339 -449 0
32 -14 12 -140 -339 449 450 0
32 -14 12 -140 339 340 -449 0
32 -14 12 -140 339 340 449 450 0
32 -14 12 -140 339 340 -450 0
32 -14 12 -140 -340 -449 0
32 -14 12 -140 -340 449 450 0
32 -14 12 -140 -340 -450 0
32 -14 -12 -139 -339 -449 0
32 -14 -12 -139 -339 449 450 0
32 -14 -12 -139 -339 -450 0
32 -14 -12 -139 339 340 -449 0
32 -14 -12 -139 339 340 449 450 0
32 -14 -12 -139 339 340 -450 0
32 -14 -12 -139 -340 -449 0
32 -14 -12 -139 -340 449 450 0
32 -14 -12 139 140 -339 -449 0
32 -14 -12 139 140 -339 449 450 0
32 -14 -12 139 140 -339 -450 0
32 -14 -12 139 140 339 340 -449 0
32 -14 -12 139 140 339 340 -450 0
32 -14 -12 139 140 -340 -449 0
32 -14 -12 139 140 -340 449 450 0
32 -14 -12 139 140 -340 -450 0
32 -14 -12 -140 -339 449 450 0
32 -14 -12 -140 -339 -450 0
32 -14 -12 -140 339 340 -449 0
32 -14 -12 -140 339 340 449 450 0
32 -14 -12 -140 339 340 -450 0
32 -14 -12 -140 -340 -449 0
32 -14 -12 -140 -340 449 450 0
32 -14 -12 -140 -340 -450 0
-32 14 12 -139 -339 -449 0
-32 14 12 -139 -339 449 450 0
-32 14 12 -139 -339 -450 0
-32 14 12 -139 339 340 -449 0
-32 14 12 -139 339 340 449 450 0
-32 14 12 -139 339 340 -450 0
-32 14 12 -139 -340 -449 0
-32 14 12 -139 -340 449 450 0
-32 14 12 139 140 -339 -449 0
-32 14 12 139 140 -339 449 450 0
-32 14 12 139 140 -339 -450 0
-32 14 12 139 140 339 340 -449 0
-32 14 12 139 140 339 340 -450 0
-32 14 12 139 140 -340 -449 0
-32 14 12 139 140 -340 449 450 0
-32 14 12 139 140 -340 -450 0
-32 14 12 -140 -339 449 450 0
-32 14 12 -140 -339 -450 0
-32 14 12 -140 339 340 -449 0
-32 14 12 -140 339 340 449 450 0
-32 14 12 -140 339 340 -450 0
-32 14 12 -140 -340 -449 0
-32 14 12 -140 -340 449 450 0
-32 14 12 -140 -340 -450 0
-32 14 -12 -139 -339 -449 0
-32 14 -12 -139 -339 449 450 0
-32 14 -12 -139 -339 -450 0
-32 14 -12 -139 339 340 -449 0
-32 14 -12 -139 339 340 449 450 0
-32 14 -12 -139 339 340 -450 0
-32 14 -12 -139 -340 449 450 0
-32 14 -12 -139 -340 -450 0
-32 14 -12 139 140 -339 -449 0
-32 14 -12 139 140 -339 449 450 0
-32 14 -12 139 140 -339 -450 0
-32 14 -12 139 140 339 340 -449 0
-32 14 -12 139 140 339 340 -450 0
-32 14 -12 139 140 -340 -449 0
-32 14 -12 139 140 -340 449 450 0
-32 14 -12 139 140 -340 -450 0
-32 14 -12 -140 -339 -449 0
-32 14 -12 -140 -339 449 450 0
-32 14 -12 -140 339 340 -449 0
-32 14 -12 -140 339 340 449 450 0
-32 14 -12 -140 339 340 -450 0
-32 14 -12 -140 -340 -449 0
-32 14 -12 -140 -340 449 450 0
-32 14 -12 -140 -340 -450 0
-32 -14 12 -139 -339 -449 0
-32 -14 12 -139 -339 449 450 0
-32 -14 12 -139 339 340 -449 0
-32 -14 12 -139 339 340 449 450 0
-32 -14 12 -139 339 340 -450 0
-32 -14 12 -139 -340 -449 0
-32 -14 12 -139 -340 449 450 0
-32 -14 12 -139 -340 -450 0
-32 -14 12 139 140 -339 -449 0
-32 -14 12 139 140 -339 449 450 0
-32 -14 12 139 140 -339 -450 0
-32 -14 12 139 140 339 340 -449 0
-32 -14 12 139 140 339 340 -450 0
-32 -14 12 139 140 -340 -449 0
-32 -14 12 139 140 -340 449 450 0
-32 -14 12 139 140 -340 -450 0
-32 -14 12 -140 -339 -449 0
-32 -14 12 -140 -339 449 450 0
-32 -14 12 -140 -339 -450 0
-32 -14 12 -140 339 340 -449 0
-32 -14 12 -140 339 340 449 450 0
-32 -14 12 -140 339 340 -450 0
-32 -14 12 -140 -340 449 450 0
-32 -14 12 -140 -340 -450 0
-32 -14 -12 -139 -339 449 450 0
-32 -14 -12 -139 -339 -450 0
-32 -14 -12 -139 339 340 -449 0
-32 -14 -12 -139 339 340 449 450 0
-32 -14 -12 -139 339 340 -450 0
-32 -14 -12 -139 -340 -449 0
-32 -14 -12 -139 -340 449 450 0
-32 -14 -12 -139 -340 -450 0
-32 -14 -12 139 140 -339 -449 0
-32 -14 -12 139 140 -339 449 450 0
-32 -14 -12 139 140 -339 -450 0
-32 -14 -12 139 140 339 340 -449 0
-32 -14 -12 139 140 339 340 -450 0
-32 -14 -12 139 140 -340 -449 0
-32 -14 -12 139 140 -340 449 450 0
-32 -14 -12 139 140 -340 -450 0
-32 -14 -12 -140 -339 -449 0
-32 -14 -12 -140 -339 449 450 0
-32 -14 -12 -140 -339 -450 0
-32 -14 -12 -140 339 340 -449 0
-32 -14 -12 -140 339 340 449 450 0
-32 -14 -12 -140 339 340 -450 0
-32 -14 -12 -140 -340 -449 0
-32 -14 -12 -140 -340 449 450 0
33 15 12 -141 -341 505 506 0
33 15 12 -141 -341 -506 0
33 15 12 -141 341 342 -505 0
33 15 12 -141 341 342 505 506 0
33 15 12 -141 341 342 -506 0
33 15 12 -141 -342 -505 0
33 15 12 -141 -342 505 506 0
33 15 12 -141 -342 -506 0
33 15 12 141 142 -341 -505 0
33 15 12 141 142 -341 505 506 0
33 15 12 141 142 -341 -506 0
33 15 12 141 142 341 342 -505 0
33 15 12 141 142 341 342 -506 0
33 15 12 141 142 -342 -505 0
33 15 12 141 142 -342 505 506 0
33 15 12 141 142 -342 -506 0
33 15 12 -142 -341 -505 0
33 15 12 -142 -341 505 506 0
33 15 12 -142 -341 -506 0
33 15 12 -142 341 342 -505 0
33 15 12 -142 341 342 505 506 0
33 15 12 -142 341 342 -506 0
33 15 12 -142 -342 -505 0
33 15 12 -142 -342 505 506 0
33 15 -12 -141 -341 -505 0
33 15 -12 -141 -341 505 506 0
33 15 -12 -141 341 342 -505 0
33 15 -12 -141 341 342 505 506 0
33 15 -12 -141 341 342 -506 0
33 15 -12 -141 -342 -505 0
33 15 -12 -141 -342 505 506 0
33 15 -12 -141 -342 -506 0
33 15 -12 141 142 -341 -505 0
33 15 -12 141 142 -341 505 506 0
33 15 -12 141 142 -341 -506 0
33 15 -12 141 142 341 342 -505 0
33 15 -12 141 142 341 342 -506 0
33 15 -12 141 142 -342 -505 0
33 15 -12 141 142 -342 505 506 0
33 15 -12 141 142 -342 -506 0
33 15 -12 -142 -341 -505 0
33 15 -12 -142 -341 505 506 0
33 15 -12 -142 -341 -506 0
33 15 -12 -142 341 342 -505 0
33 15 -12 -142 341 342 505 506 0
33 15 -12 -142 341 342 -506 0
33 15 -12 -142 -342 505 506 0
33 15 -12 -142 -342 -506 0
33 -15 12 -141 -341 -505 0
33 -15 12 -141 -341 505 506 0
33 -15 12 -141 -341 -506 0
33 -15 12 -141 341 342 -505 0
33 -15 12 -141 341 342 505 506 0
33 -15 12 -141 341 342 -506 0
33 -15 12 -141 -342 505 506 0
33 -15 12 -141 -342 -506 0
33 -15 12 141 142 -341 -505 0
33 -15 12 141 142 -341 505 506 0
33 -15 12 141 142 -341 -506 0
33 -15 12 141 142 341 342 -505 0
33 -15 12 141 142 341 342 -506 0
33 -15 12 141 142 -342 -505 0
33 -15 12 141 142 -342 505 506 0
33 -15 12 141 142 -342 -506 0
33 -15 12 -142 -341 -505 0
33 -15 12 -142 -341 505 506 0
33 -15 12 -142 341 342 -505 0
33 -15 12 -142 341 342 505 506 0
33 -15 12 -142 341 342 -506 0
33 -15 12 -142 -342 -505 0
33 -15 12 -142 -342 505 506 0
33 -15 12 -142 -342 -506 0
33 -15 -12 -141 -341 -505 0
33 -15 -12 -141 -341 505 506 0
33 -15 -12 -141 -341 -506 0
33 -15 -12 -141 341 342 -505 0
33 -15 -12 -141 341 342 505 506 0
33 -15 -12 -141 341 342 -506 0
33 -15 -12 -141 -342 -505 0
33 -15 -12 -141 -342 505 506 0
33 -15 -12 141 142 -341 -505 0
33 -15 -12 141 142 -341 505 506 0
33 -15 -12 141 142 -341 -506 0
33 -15 -12 141 142 341 342 -505 0
33 -15 -12 141 142 341 342 -506 0
33 -15 -12 141 142 -342 -505 0
33 -15 -12 141 142 -342 505 506 0
33 -15 -12 141 142 -342 -506 0
33 -15 -12 -142 -341 505 506 0
33 -15 -12 -142 -341 -506 0
33 -15 -12 -142 341 342 -505 0
33 -15 -12 -142 341 342 505 506 0
33 -15 -12 -142 341 342 -506 0
33 -15 -12 -142 -342 -505 0
33 -15 -12 -142 -342 505 506 0
33 -15 -12 -142 -342 -506 0
-33 15 12 -141 -341 -505 0
-33 15 12 -141 -341 505 506 0
-33 15 12 -141 -341 -506 0
-33 15 12 -141 341 342 -505 0
-33 15 12 -141 341 342 505 506 0
-33 15 12 -141 341 342 -506 0
-33 15 12 -141 -342 -505 0
-33 15 12 -141 -342 505 506 0
-33 15 12 141 142 -341 -505 0
-33 15 12 141 142 -341 505 506 0
-33 15 12 141 142 -341 -506 0
-33 15 12 141 142 341 342 -505 0
-33 15 12 141 142 341 342 -506 0
-33 15 12 141 142 -342 -505 0
-33 15 12 141 142 -342 505 506 0
-33 15 12 141 142 -342 -506 0
-33 15 12 -142 -341 505 506 0
-33 15 12 -142 -341 -506 0
-33 15 12 -142 341 342 -505 0
-33 15 12 -142 341 342 505 506 0
-33 15 12 -142 341 342 -506 0
-33 15 12 -142 -342 -505 0
-33 15 12 -142 -342 505 506 0
-33 15 12 -142 -342 -506 0
-33 15 -12 -141 -341 -505 0
-33 15 -12 -141 -341 505 506 0
-33 15 -12 -141 -341 -506 0
-33 15 -12 -141 341 342 -505 0
-33 15 -12 -141 341 342 505 506 0
-33 15 -12 -141 341 342 -506 0
-33 15 -12 -141 -342 505 506 0
-33 15 -12 -141 -342 -506 0
-33 15 -12 141 142 -341 -505 0
-33 15 -12 141 142 -341 505 506 0
-33 15 -12 141 142 -341 -506 0
-33 15 -12 141 142 341 342 -505 0
-33 15 -12 141 142 341 342 -506 0
-33 15 -12 141 142 -342 -505 0
-33 15 -12 141 142 -342 505 506 0
-33 15 -12 141 142 -342 -506 0
-33 15 -12 -142 -341 -505 0
-33 15 -12 -142 -341 505 506 0
-33 15 -12 -142 341 342 -505 0
-33 15 -12 -142 341 342 505 506 0
-33 15 -12 -142 341 342 -506 0
-33 15 -12 -142 -342 -505 0
-33 15 -12 -142 -342 505 506 0
-33 15 -12 -142 -342 -506 0
-33 -15 12 -141 -341 -505 0
-33 -15 12 -141 -341 505 506 0
-33 -15 12 -141 341 342 -505 0
-33 -15 12 -141 341 342 505 506 0
-33 -15 12 -141 341 342 -506 0
-33 -15 12 -141 -342 -505 0
-33 -15 12 -141 -342 505 506 0
-33 -15 12 -141 -342 -506 0
-33 -15 12 141 142 -341 -505 0
-33 -15 12 141 142 -341 505 506 0
-33 -15 12 141 142 -341 -506 0
-33 -15 12 141 142 341 342 -505 0
-33 -15 12 141 142 341 342 -506 0
-33 -15 12 141 142 -342 -505 0
-33 -15 12 141 142 -342 505 506 0
-33 -15 12 141 142 -342 -506 0
-33 -15 12 -142 -341 -505 0
-33 -15 12 -142 -341 505 506 0
-33 -15 12 -142 -341 -506 0
-33 -15 12 -142 341 342 -505 0
-33 -15 12 -142 341 342 505 506 0
-33 -15 12 -142 341 342 -506 0
-33 -15 12 -142 -342 505 506 0
-33 -15 12 -142 -342 -506 0
-33 -15 -12 -141 -341 505 506 0
-33 -15 -12 -141 -341 -506 0
-33 -15 -12 -141 341 342 -505 0
-33 -15 -12 -141 341 342 505 506 0
-33 -15 -12 -141 341 342 -506 0
-33 -15 -12 -141 -342 -505 0
-33 -15 -12 -141 -342 505 506 0
-33 -15 -12 -141 -342 -506 0
-33 -15 -12 141 142 -341 -505 0
-33 -15 -12 141 142 -341 505 506 0
-33 -15 -12 141 142 -341 -506 0
-33 -15 -12 141 142 341 342 -505 0
-33 -15 -12 141 142 341 342 -506 0
-33 -15 -12 141 142 -342 -505 0
-33 -15 -12 141 142 -342 505 506 0
-33 -15 -12 141 142 -342 -506 0
-33 -15 -12 -142 -341 -505 0
-33 -15 -12 -142 -341 505 506 0
-33 -15 -12 -142 -341 -506 0
-33 -15 -12 -142 341 342 -505 0
-33 -15 -12 -142 341 342 505 506 0
-33 -15 -12 -142 341 342 -506 0
-33 -15 -12 -142 -342 -505 0
-33 -15 -12 -142 -342 505 506 0
34 14 13 -143 -395 451 452 0
34 14 13 -143 -395 -452 0
34 14 13 -143 395 396 -451 0
34 14 13 -143 395 396 451 452 0
34 14 13 -143 395 396 -452 0
34 14 13 -143 -396 -451 0
34 14 13 -143 -396 451 452 0
34 14 13 -143 -396 -452 0
34 14 13 143 144 -395 -451 0
34 14 13 143 144 -395 451 452 0
34 14 13 143 144 -395 -452 0
34 14 13 143 144 395 396 -451 0
34 14 13 143 144 395 396 -452 0
34 14 13 143 144 -396 -451 0
34 14 13 143 144 -396 451 452 0
34 14 13 143 144 -396 -452 0
34 14 13 -144 -395 -451 0
34 14 13 -144 -395 451 452 0
34 14 13 -144 -395 -452 0
34 14 13 -144 395 396 -451 0
34 14 13 -144 395 396 451 452 0
34 14 13 -144 395 396 -452 0
34 14 13 -144 -396 -451 0
34 14 13 -144 -396 451 452 0
34 14 -13 -143 -395 -451 0
34 14 -13 -143 -395 451 452 0
34 14 -13 -143 395 396 -451 0
34 14 -13 -143 395 396 451 452 0
34 14 -13 -143 395 396 -452 0
34 14 -13 -143 -396 -451 0
34 14 -13 -143 -396 451 452 0
34 14 -13 -143 -396 -452 0
34 14 -13 143 144 -395 -451 0
34 14 -13 143 144 -395 451 452 0
34 14 -13 143 144 -395 -452 0
34 14 -13 143 144 395 396 -451 0
34 14 -13 143 144 395 396 -452 0
34 14 -13 143 144 -396 -451 0
34 14 -13 143 144 -396 451 452 0
34 14 -13 143 144 -396 -452 0
34 14 -13 -144 -395 -451 0
34 14 -13 -144 -395 451 452 0
34 14 -13 -144 -395 -452 0
34 14 -13 -144 395 396 -451 0
34 14 -13 -144 395 396 451 452 0
34 14 -13 -144 395 396 -452 0
34 14 -13 -144 -396 451 452 0
34 14 -13 -144 -396 -452 0
34 -14 13 -143 -395 -451 0
34 -14 13 -143 -395 451 452 0
34 -14 13 -143 -395 -452 0
34 -14 13 -143 395 396 -451 0
34 -14 13 -143 395 396 451 452 0
34 -14 13 -143 395 396 -452 0
34 -14 13 -143 -396 451 452 0
34 -14 13 -143 -396 -452 0
34 -14 13 143 144 -395 -451 0
34 -14 13 143 144 -395 451 452 0
34 -14 13 143 144 -395 -452 0
34 -14 13 143 144 395 396 -451 0
34 -14 13 143 144 395 396 -452 0
34 -14 13 143 144 -396 -451 0
34 -14 13 143 144 -396 451 452 0
34 -14 13 143 144 -396 -452 0
34 -14 13 -144 -395 -451 0
34 -14 13 -144 -395 451 452 0
34 -14 13 -144 395 396 -451 0
34 -14 13 -144 395 396 451 452 0
34 -14 13 -144 395 396 -452 0
34 -14 13 -144 -396 -451 0
34 -14 13 -144 -396 451 452 0
34 -14 13 -144 -396 -452 0
34 -14 -13 -143 -395 -451 0
34 -14 -13 -143 -395 451 452 0
34 -14 -13 -143 -395 -452 0
34 -14 -13 -143 395 396 -451 0
34 -14 -13 -143 395 396 451 452 0
34 -14 -13 -143 395 396 -452 0
34 -14 -13 -143 -396 -451 0
34 -14 -13 -143 -396 451 452 0
34 -14 -13 143 144 -395 -451 0
34 -14 -13 143 144 -395 451 452 0
34 -14 -13 143 144 -395 -452 0
34 -14 -13 143 144 395 396 -451 0
34 -14 -13 143 144 395 396 -452 0
34 -14 -13 143 144 -396 -451 0
34 -14 -13 143 144 -396 451 452 0
34 -14 -13 143 144 -396 -452 0
34 -14 -13 -144 -395 451 452 0
34 -14 -13 -144 -395 -452 0
34 -14 -13 -144 395 396 -451 0
34 -14 -13 -144 395 396 451 452 0
34 -14 -13 -144 395 396 -452 0
34 -14 -13 -144 -396 -451 0
34 -14 -13 -144 -396 451 452 0
34 -14 -13 -144 -396 -452 0
-34 14 13 -143 -395 -451 0
-34 14 13 -143 -395 451 452 0
-34 14 13 -143 -395 -452 0
-34 14 13 -143 395 396 -451 0
-34 14 13 -143 395 396 451 452 0
-34 14 13 -143 395 396 -452 0
-34 14 13 -143 -396 -451 0
-34 14 13 -143 -396 451 452 0
-34 14 13 143 144 -395 -451 0
-34 14 13 143 144 -395 451 452 0
-34 14 13 143 144 -395 -452 0
-34 14 13 143 144 395 396 -451 0
-34 14 13 143 144 395 396 -452 0
-34 14 13 143 144 -396 -451 0
-34 14 13 143 144 -396 451 452 0
-34 14 13 143 144 -396 -452 0
-34 14 13 -144 -395 451 452 0
-34 14 13 -144 -395 -452 0
-34 14 13 -144 395 396 -451 0
-34 14 13 -144 395 396 451 452 0
-34 14 13 -144 395 396 -452 0
-34 14 13 -144 -396 -451 0
-34 14 13 -144 -396 451 452 0
-34 14 13 -144 -396 -452 0
-34 14 -13 -143 -395 -451 0
-34 14 -13 -143 -395 451 452 0
-34 14 -13 -143 -395 -452 0
-34 14 -13 -143 395 396 -451 0
-34 14 -13 -143 395 396 451 452 0
-34 14 -13 -143 395 396 -452 0
-34 14 -13 -143 -396 451 452 0
-34 14 -13 -143 -396 -452 0
-34 14 -13 143 144 -395 -451 0
-34 14 -13 143 144 -395 451 452 0
-34 14 -13 143 144 -395 -452 0
-34 14 -13 143 144 395 396 -451 0
-34 14 -13 143 144 395 396 -452 0
-34 14 -13 143 144 -396 -451 0
-34 14 -13 143 144 -396 451 452 0
-34 14 -13 143 144 -396 -452 0
-34 14 -13 -144 -395 -451 0
-34 14 -13 -144 -395 451 452 0
-34 14 -13 -144 395 396 -451 0
-34 14 -13 -144 395 396 451 452 0
-34 14 -13 -144 395 396 -452 0
-34 14 -13 -144 -396 -451 0
-34 14 -13 -144 -396 451 452 0
-34 14 -13 -144 -396 -452 0
-34 -14 13 -143 -395 -451 0
-34 -14 13 -143 -395 451 452 0
-34 -14 13 -143 395 396 -451 0
-34 -14 13 -143 395 396 451 452 0
-34 -14 13 -143 395 396 -452 0
-34 -14 13 -143 -396 -451 0
-34 -14 13 -143 -396 451 452 0
-34 -14 13 -143 -396 -452 0
-34 -14 13 143 144 -395 -451 0
-34 -14 13 143 144 -395 451 452 0
-34 -14 13 143 144 -395 -452 0
-34 -14 13 143 144 395 396 -451 0
-34 -14 13 143 144 395 396 -452 0
-34 -14 13 143 144 -396 -451 0
-34 -14 13 143 144 -396 451 452 0
-34 -14 13 143 144 -396 -452 0
-34 -14 13 -144 -395 -451 0
-34 -14 13 -144 -395 451 452 0
-34 -14 13 -144 -395 -452 0
-34 -14 13 -144 395 396 -451 0
-34 -14 13 -144 395 396 451 452 0
-34 -14 13 -144 395 396 -452 0
-34 -14 13 -144 -396 451 452 0
-34 -14 13 -144 -396 -452 0
-34 -14 -13 -143 -395 451 452 0
-34 -14 -13 -143 -395 -452 0
-34 -14 -13 -143 395 396 -451 0
-34 -14 -13 -143 395 396 451 452 0
-34 -14 -13 -143 395 396 -452 0
-34 -14 -13 -143 -396 -451 0
-34 -14 -13 -143 -396 451 452 0
-34 -14 -13 -143 -396 -452 0
-34 -14 -13 143 144 -395 -451 0
-34 -14 -13 143 144 -395 451 452 0
-34 -14 -13 143 144 -395 -452 0
-34 -14 -13 143 144 395 396 -451 0
-34 -14 -13 143 144 395 396 -452 0
-34 -14 -13 143 144 -396 -451 0
-34 -14 -13 143 144 -396 451 452 0
-34 -14 -13 143 144 -396 -452 0
-34 -14 -13 -144 -395 -451 0
-34 -14 -13 -144 -395 451 452 0
-34 -14 -13 -144 -395 -452 0
-34 -14 -13 -144 395 396 -451 0
-34 -14 -13 -144 395 396 451 452 0
-34 -14 -13 -144 395 396 -452 0
-34 -14 -13 -144 -396 -451 0
-34 -14 -13 -144 -396 451 452 0
35 15 13 -145 -397 507 508 0
35 15 13 -145 -397 -508 0
35 15 13 -145 397 398 -507 0
35 15 13 -145 397 398 507 508 0
35 15 13 -145 397 398 -508 0
35 15 13 -145 -398 -507 0
35 15 13 -145 -398 507 508 0
35 15 13 -145 -398 -508 0
35 15 13 145 146 -397 -507 0
35 15 13 145 146 -397 507 508 0
35 15 13 145 146 -397 -508 0
35 15 13 145 146 397 398 -507 0
35 15 13 145 146 397 398 -508 0
35 15 13 145 146 -398 -507 0
35 15 13 145 146 -398 507 508 0
35 15 13 145 146 -398 -508 0
35 15 13 -146 -397 -507 0
35 15 13 -146 -397 507 508 0
35 15 13 -146 -397 -508 0
35 15 13 -146 397 398 -507 0
35 15 13 -146 397 398 507 508 0
35 15 13 -146 397 398 -508 0
35 15 13 -146 -398 -507 0
35 15 13 -146 -398 507 508 0
35 15 -13 -145 -397 -507 0
35 15 -13 -145 -397 507 508 0
35 15 -13 -145 397 398 -507 0
35 15 -13 -145 397 398 507 508 0
35 15 -13 -145 397 398 -508 0
35 15 -13 -145 -398 -507 0
35 15 -13 -145 -398 507 508 0
35 15 -13 -145 -398 -508 0
35 15 -13 145 146 -397 -507 0
35 15 -13 145 146 -397 507 508 0
35 15 -13 145 146 -397 -508 0
35 15 -13 145 146 397 398 -507 0
35 15 -13 145 146 397 398 -508 0
35 15 -13 145 146 -398 -507 0
35 15 -13 145 146 -398 507 508 0
35 15 -13 145 146 -398 -508 0
35 15 -13 -146 -397 -507 0
35 15 -13 -146 -397 507 508 0
35 15 -13 -146 -397 -508 0
35 15 -13 -146 397 398 -507 0
35 15 -13 -146 397 398 507 508 0
35 15 -13 -146 397 398 -508 0
35 15 -13 -146 -398 507 508 0
35 15 -13 -146 -398 -508 0
35 -15 13 -145 -397 -507 0
35 -15 13 -145 -397 507 508 0
35 -15 13 -145 -397 -508 0
35 -15 13 -145 397 398 -507 0
35 -15 13 -145 397 398 507 508 0
35 -15 13 -145 397 398 -508 0
35 -15 13 -145 -398 507 508 0
35 -15 13 -145 -398 -508 0
35 -15 13 145 146 -397 -507 0
35 -15 13 145 146 -397 507 508 0
35 -15 13 145 146 -397 -508 0
35 -15 13 145 146 397 398 -507 0
35 -15 13 145 146 397 398 -508 0
35 -15 13 145 146 -398 -507 0
35 -15 13 145 146 -398 507 508 0
35 -15 13 145 146 -398 -508 0
35 -15 13 -146 -397 -507 0
35 -15 13 -146 -397 507 508 0
35 -15 13 -146 397 398 -507 0
35 -15 13 -146 397 398 507 508 0
35 -15 13 -146 397 398 -508 0
35 -15 13 -146 -398 -507 0
35 -15 13 -146 -398 507 508 0
35 -15 13 -146 -398 -508 0
35 -15 -13 -145 -397 -507 0
35 -15 -13 -145 -397 507 508 0
35 -15 -13 -145 -397 -508 0
35 -15 -13 -145 397 398 -507 0
35 -15 -13 -145 397 398 507 508 0
35 -15 -13 -145 397 398 -508 0
35 -15 -13 -145 -398 -507 0
35 -15 -13 -145 -398 507 508 0
35 -15 -13 145 146 -397 -507 0
35 -15 -13 145 146 -397 507 508 0
35 -15 -13 145 146 -397 -508 0
35 -15 -13 145 146 397 398 -507 0
35 -15 -13 145 146 397 398 -508 0
35 -15 -13 145 146 -398 -507 0
35 -15 -13 145 146 -398 507 508 0
35 -15 -13 145 146 -398 -508 0
35 -15 -13 -146 -397 507 508 0
35 -15 -13 -146 -397 -508 0
35 -15 -13 -146 397 398 -507 0
35 -15 -13 -146 397 398 507 508 0
35 -15 -13 -146 397 398 -508 0
35 -15 -13 -146 -398 -507 0
35 -15 -13 -146 -398 507 508 0
35 -15 -13 -146 -398 -508 0
-35 15 13 -145 -397 -507 0
-35 15 13 -145 -397 507 508 0
-35 15 13 -145 -397 -508 0
-35 15 13 -145 397 398 -507 0
-35 15 13 -145 397 398 507 508 0
-35 15 13 -145 397 398 -508 0
-35 15 13 -145 -398 -507 0
-35 15 13 -145 -398 507 508 0
-35 15 13 145 146 -397 -507 0
-35 15 13 145 146 -397 507 508 0
-35 15 13 145 146 -397 -508 0
-35 15 13 145 146 397 398 -507 0
-35 15 13 145 146 397 398 -508 0
-35 15 13 145 146 -398 -507 0
-35 15 13 145 146 -398 507 508 0
-35 15 13 145 146 -398 -508 0
-35 15 13 -146 -397 507 508 0
-35 15 13 -146 -397 -508 0
-35 15 13 -146 397 398 -507 0
-35 15 13 -146 397 398 507 508 0
-35 15 13 -146 397 398 -508 0
-35 15 13 -146 -398 -507 0
-35 15 13 -146 -398 507 508 0
-35 15 13 -146 -398 -508 0
-35 15 -13 -145 -397 -507 0
-35 15 -13 -145 -397 507 508 0
-35 15 -13 -145 -397 -508 0
-35 15 -13 -145 397 398 -507 0
-35 15 -13 -145 397 398 507 508 0
-35 15 -13 -145 397 398 -508 0
-35 15 -13 -145 -398 507 508 0
-35 15 -13 -145 -398 -508 0
-35 15 -13 145 146 -397 -507 0
-35 15 -13 145 146 -397 507 508 0
-35 15 -13 145 146 -397 -508 0
-35 15 -13 145 146 397 398 -507 0
-35 15 -13 145 146 397 398 -508 0
-35 15 -13 145 146 -398 -507 0
-35 15 -13 145 146 -398 507 508 0
-35 15 -13 145 146 -398 -508 0
-35 15 -13 -146 -397 -507 0
-35 15 -13 -146 -397 507 508 0
-35 15 -13 -146 397 398 -507 0
-35 15 -13 -146 397 398 507 508 0
-35 15 -13 -146 397 398 -508 0
-35 15 -13 -146 -398 -507 0
-35 15 -13 -146 -398 507 508 0
-35 15 -13 -146 -398 -508 0
-35 -15 13 -145 -397 -507 0
-35 -15 13 -145 -397 507 508 0
-35 -15 13 -145 397 398 -507 0
-35 -15 13 -145 397 398 507 508 0
-35 -15 13 -145 397 398 -508 0
-35 -15 13 -145 -398 -507 0
-35 -15 13 -145 -398 507 508 0
-35 -15 13 -145 -398 -508 0
-35 -15 13 145 146 -397 -507 0
-35 -15 13 145 146 -397 507 508 0
-35 -15 13 145 146 -397 -508 0
-35 -15 13 145 146 397 398 -507 0
-35 -15 13 145 146 397 398 -508 0
-35 -15 13 145 146 -398 -507 0
-35 -15 13 145 146 -398 507 508 0
-35 -15 13 145 146 -398 -508 0
-35 -15 13 -146 -397 -507 0
-35 -15 13 -146 -397 507 508 0
-35 -15 13 -146 -397 -508 0
-35 -15 13 -146 397 398 -507 0
-35 -15 13 -146 397 398 507 508 0
-35 -15 13 -146 397 398 -508 0
-35 -15 13 -146 -398 507 508 0
-35 -15 13 -146 -398 -508 0
-35 -15 -13 -145 -397 507 508 0
-35 -15 -13 -145 -397 -508 0
-35 -15 -13 -145 397 398 -507 0
-35 -15 -13 -145 397 398 507 508 0
-35 -15 -13 -145 397 398 -508 0
-35 -15 -13 -145 -398 -507 0
-35 -15 -13 -145 -398 507 508 0
-35 -15 -13 -145 -398 -508 0
-35 -15 -13 145 146 -397 -507 0
-35 -15 -13 145 146 -397 507 508 0
-35 -15 -13 145 146 -397 -508 0
-35 -15 -13 145 146 397 398 -507 0
-35 -15 -13 145 146 397 398 -508 0
-35 -15 -13 145 146 -398 -507 0
-35 -15 -13 145 146 -398 507 508 0
-35 -15 -13 145 146 -398 -508 0
-35 -15 -13 -146 -397 -507 0
-35 -15 -13 -146 -397 507 508 0
-35 -15 -13 -146 -397 -508 0
-35 -15 -13 -146 397 398 -507 0
-35 -15 -13 -146 397 398 507 508 0
-35 -15 -13 -146 397 398 -508 0
-35 -15 -13 -146 -398 -507 0
-35 -15 -13 -146 -398 507 508 0
36 15 14 -147 -453 509 510 0
36 15 14 -147 -453 -510 0
36 15 14 -147 453 454 -509 0
36 15 14 -147 453 454 509 510 0
36 15 14 -147 453 454 -510 0
36 15 14 -147 -454 -509 0
36 15 14 -147 -454 509 510 0
36 15 14 -147 -454 -510 0
36 15 14 147 148 -453 -509 0
36 15 14 147 148 -453 509 510 0
36 15 14 147 148 -453 -510 0
36 15 14 147 148 453 454 -509 0
36 15 14 147 148 453 454 -510 0
36 15 14 147 148 -454 -509 0
36 15 14 147 148 -454 509 510 0
36 15 14 147 148 -454 -510 0
36 15 14 -148 -453 -509 0
36 15 14 -148 -453 509 510 0
36 15 14 -148 -453 -510 0
36 15 14 -148 453 454 -509 0
36 15 14 -148 453 454 509 510 0
36 15 14 -148 453 454 -510 0
36 15 14 -148 -454 -509 0
36 15 14 -148 -454 509 510 0
36 15 -14 -147 -453 -509 0
36 15 -14 -147 -453 509 510 0
36 15 -14 -147 453 454 -509 0
36 15 -14 -147 453 454 509 510 0
36 15 -14 -147 453 454 -510 0
36 15 -14 -147 -454 -509 0
36 15 -14 -147 -454 509 510 0
36 15 -14 -147 -454 -510 0
36 15 -14 147 148 -453 -509 0
36 15 -14 147 148 -453 509 510 0
36 15 -14 147 148 -453 -510 0
36 15 -14 147 148 453 454 -509 0
36 15 -14 147 148 453 454 -510 0
36 15 -14 147 148 -454 -509 0
36 15 -14 147 148 -454 509 510 0
36 15 -14 147 148 -454 -510 0
36 15 -14 -148 -453 -509 0
36 15 -14 -148 -453 509 510 0
36 15 -14 -148 -453 -510 0
36 15 -14 -148 453 454 -509 0
36 15 -14 -148 453 454 509 510 0
36 15 -14 -148 453 454 -510 0
36 15 -14 -148 -454 509 510 0
36 15 -14 -148 -454 -510 0
36 -15 14 -147 -453 -509 0
36 -15 14 -147 -453 509 510 0
36 -15 14 -147 -453 -510 0
36 -15 14 -147 453 454 -509 0
36 -15 14 -147 453 454 509 510 0
36 -15 14 -147 453 454 -510 0
36 -15 14 -147 -454 509 510 0
36 -15 14 -147 -454 -510 0
36 -15 14 147 148 -453 -509 0
36 -15 14 147 148 -453 509 510 0
36 -15 14 147 148 -453 -510 0
36 -15 14 147 148 453 454 -509 0
36 -15 14 147 148 453 454 -510 0
36 -15 14 147 148 -454 -509 0
36 -15 14 147 148 -454 509 510 0
36 -15 14 147 148 -454 -510 0
36 -15 14 -148 -453 -509 0
36 -15 14 -148 -453 509 510 0
36 -15 14 -148 453 454 -509 0
36 -15 14 -148 453 454 509 510 0
36 -15 14 -148 453 454 -510 0
36 -15 14 -148 -454 -509 0
36 -15 14 -148 -454 509 510 0
36 -15 14 -148 -454 -510 0
36 -15 -14 -147 -453 -509 0
36 -15 -14 -147 -453 509 510 0
36 -15 -14 -147 -453 -510 0
36 -15 -14 -147 453 454 -509 0
36 -15 -14 -147 453 454 509 510 0
36 -15 -14 -147 453 454 -510 0
36 -15 -14 -147 -454 -509 0
36 -15 -14 -147 -454 509 510 0
36 -15 -14 147 148 -453 -509 0
36 -15 -14 147 148 -453 509 510 0
36 -15 -14 147 148 -453 -510 0
36 -15 -14 147 148 453 454 -509 0
36 -15 -14 147 148 453 454 -510 0
36 -15 -14 147 148 -454 -509 0
36 -15 -14 147 148 -454 509 510 0
36 -15 -14 147 148 -454 -510 0
36 -15 -14 -148 -453 509 510 0
36 -15 -14 -148 -453 -510 0
36 -15 -14 -148 453 454 -509 0
36 -15 -14 -148 453 454 509 510 0
36 -15 -14 -148 453 454 -510 0
36 -15 -14 -148 -454 -509 0
36 -15 -14 -148 -454 509 510 0
36 -15 -14 -148 -454 -510 0
-36 15 14 -147 -453 -509 0
-36 15 14 -147 -453 509 510 0
-36 15 14 -147 -453 -510 0
-36 15 14 -147 453 454 -509 0
-36 15 14 -147 453 454 509 510 0
-36 15 14 -147 453 454 -510 0
-36 15 14 -147 -454 -509 0
-36 15 14 -147 -454 509 510 0
-36 15 14 147 148 -453 -509 0
-36 15 14 147 148 -453 509 510 0
-36 15 14 147 148 -453 -510 0
-36 15 14 147 148 453 454 -509 0
-36 15 14 147 148 453 454 -510 0
-36 15 14 147 148 -454 -509 0
-36 15 14 147 148 -454 509 510 0
-36 15 14 147 148 -454 -510 0
-36 15 14 -148 -453 509 510 0
-36 15 14 -148 -453 -510 0
-36 15 14 -148 453 454 -509 0
-36 15 14 -148 453 454 509 510 0
-36 15 14 -148 453 454 -510 0
-36 15 14 -148 -454 -509 0
-36 15 14 -148 -454 509 510 0
-36 15 14 -148 -454 -510 0
-36 15 -14 -147 -453 -509 0
-36 15 -14 -147 -453 509 510 0
-36 15 -14 -147 -453 -510 0
-36 15 -14 -147 453 454 -509 0
-36 15 -14 -147 453 454 509 510 0
-36 15 -14 -147 453 454 -510 0
-36 15 -14 -147 -454 509 510 0
-36 15 -14 -147 -454 -510 0
-36 15 -14 147 148 -453 -509 0
-36 15 -14 147 148 -453 509 510 0
-36 15 -14 147 148 -453 -510 0
-36 15 -14 147 148 453 454 -509 0
-36 15 -14 147 148 453 454 -510 0
-36 15 -14 147 148 -454 -509 0
-36 15 -14 147 148 -454 509 510 0
-36 15 -14 147 148 -454 -510 0
-36 15 -14 -148 -453 -509 0
-36 15 -14 -148 -453 509 510 0
-36 15 -14 -148 453 454 -509 0
-36 15 -14 -148 453 454 509 510 0
-36 15 -14 -148 453 454 -510 0
-36 15 -14 -148 -454 -509 0
-36 15 -14 -148 -454 509 510 0
-36 15 -14 -148 -454 -510 0
-36 -15 14 -147 -453 -509 0
-36 -15 14 -147 -453 509 510 0
-36 -15 14 -147 453 454 -509 0
-36 -15 14 -147 453 454 509 510 0
-36 -15 14 -147 453 454 -510 0
-36 -15 14 -147 -454 -509 0
-36 -15 14 -147 -454 509 510 0
-36 -15 14 -147 -454 -510 0
-36 -15 14 147 148 -453 -509 0
-36 -15 14 147 148 -453 509 510 0
-36 -15 14 147 148 -453 -510 0
-36 -15 14 147 148 453 454 -509 0
-36 -15 14 147 148 453 454 -510 0
-36 -15 14 147 148 -454 -509 0
-36 -15 14 147 148 -454 509 510 0
-36 -15 14 147 148 -454 -510 0
-36 -15 14 -148 -453 -509 0
-36 -15 14 -148 -453 509 510 0
-36 -15 14 -148 -453 -510 0
-36 -15 14 -148 453 454 -509 0
-36 -15 14 -148 453 454 509 510 0
-36 -15 14 -148 453 454 -510 0
-36 -15 14 -148 -454 509 510 0
-36 -15 14 -148 -454 -510 0
-36 -15 -14 -147 -453 509 510 0
-36 -15 -14 -147 -453 -510 0
-36 -15 -14 -147 453 454 -509 0
-36 -15 -14 -147 453 454 509 510 0
-36 -15 -14 -147 453 454 -510 0
-36 -15 -14 -147 -454 -509 0
-36 -15 -14 -147 -454 509 510 0
-36 -15 -14 -147 -454 -510 0
-36 -15 -14 147 148 -453 -509 0
-36 -15 -14 147 148 -453 509 510 0
-36 -15 -14 147 148 -453 -510 0
-36 -15 -14 147 148 453 454 -509 0
-36 -15 -14 147 148 453 454 -510 0
-36 -15 -14 147 148 -454 -509 0
-36 -15 -14 147 148 -454 509 510 0
-36 -15 -14 147 148 -454 -510 0
-36 -15 -14 -148 -453 -509 0
-36 -15 -14 -148 -453 509 510 0
-36 -15 -14 -148 -453 -510 0
-36 -15 -14 -148 453 454 -509 0
-36 -15 -14 -148 453 454 509 510 0
-36 -15 -14 -148 453 454 -510 0
-36 -15 -14 -148 -454 -509 0
-36 -15 -14 -148 -454 509 510 0
22 17 16 -175 -231 287 288 0
22 17 16 -175 -231 -288 0
22 17 16 -175 231 232 -287 0
22 17 16 -175 231 232 287 288 0
22 17 16 -175 231 232 -288 0
22 17 16 -175 -232 -287 0
22 17 16 -175 -232 287 288 0
22 17 16 -175 -232 -288 0
22 17 16 175 176 -231 -287 0
22 17 16 175 176 -231 287 288 0
22 17 16 175 176 -231 -288 0
22 17 16 175 176 231 232 -287 0
22 17 16 175 176 231 232 -288 0
22 17 16 175 176 -232 -287 0
22 17 16 175 176 -232 287 288 0
22 17 16 175 176 -232 -288 0
22 17 16 -176 -231 -287 0
22 17 16 -176 -231 287 288 0
22 17 16 -176 -231 -288 0
22 17 16 -176 231 232 -287 0
22 17 16 -176 231 232 287 288 0
22 17 16 -176 231 232 -288 0
22 17 16 -176 -232 -287 0
22 17 16 -176 -232 287 288 0
22 17 -16 -175 -231 -287 0
22 17 -16 -175 -231 287 288 0
22 17 -16 -175 231 232 -287 0
22 17 -16 -175 231 232 287 288 0
22 17 -16 -175 231 232 -288 0
22 17 -16 -175 -232 -287 0
22 17 -16 -175 -232 287 288 0
22 17 -16 -175 -232 -288 0
22 17 -16 175 176 -231 -287 0
22 17 -16 175 176 -231 287 288 0
22 17 -16 175 176 -231 -288 0
22 17 -16 175 176 231 232 -287 0
22 17 -16 175 176 231 232 -288 0
22 17 -16 175 176 -232 -287 0
22 17 -16 175 176 -232 287 288 0
22 17 -16 175 176 -232 -288 0
22 17 -16 -176 -231 -287 0
22 17 -16 -176 -231 287 288 0
22 17 -16 -176 -231 -288 0
22 17 -16 -176 231 232 -287 0
22 17 -16 -176 231 232 287 288 0
22 17 -16 -176 231 232 -288 0
22 17 -16 -176 -232 287 288 0
22 17 -16 -176 -232 -288 0
22 -17 16 -175 -231 -287 0
22 -17 16 -175 -231 287 288 0
22 -17 16 -175 -231 -288 0
22 -17 16 -175 231 232 -287 0
22 -17 16 -175 231 232 287 288 0
22 -17 16 -175 231 232 -288 0
22 -17 16 -175 -232 287 288 0
22 -17 16 -175 -232 -288 0
22 -17 16 175 176 -231 -287 0
22 -17 16 175 176 -231 287 288 0
22 -17 16 175 176 -231 -288 0
22 -17 16 175 176 231 232 -287 0
22 -17 16 175 176 231 232 -288 0
22 -17 16 175 176 -232 -287 0
22 -17 16 175 176 -232 287 288 0
22 -17 16 175 176 -232 -288 0
22 -17 16 -176 -231 -287 0
22 -17 16 -176 -231 287 288 0
22 -17 16 -176 231 232 -287 0
22 -17 16 -176 231 232 287 288 0
22 -17 16 -176 231 232 -288 0
22 -17 16 -176 -232 -287 0
22 -17 16 -176 -232 287 288 0
22 -17 16 -176 -232 -288 0
22 -17 -16 -175 -231 -287 0
22 -17 -16 -175 -231 287 288 0
22 -17 -16 -175 -231 -288 0
22 -17 -16 -175 231 232 -287 0
22 -17 -16 -175 231 232 287 288 0
22 -17 -16 -175 231 232 -288 0
22 -17 -16 -175 -232 -287 0
22 -17 -16 -175 -232 287 288 0
22 -17 -16 175 176 -231 -287 0
22 -17 -16 175 176 -231 287 288 0
22 -17 -16 175 176 -231 -288 0
22 -17 -16 175 176 231 232 -287 0
22 -17 -16 175 176 231 232 -288 0
22 -17 -16 175 176 -232 -287 0
22 -17 -16 175 176 -232 287 288 0
22 -17 -16 175 176 -232 -288 0
22 -17 -16 -176 -231 287 288 0
22 -17 -16 -176 -231 -288 0
22 -17 -16 -176 231 232 -287 0
22 -17 -16 -176 231 232 287 288 0
22 -17 -16 -176 231 232 -288 0
22 -17 -16 -176 -232 -287 0
22 -17 -16 -176 -232 287 288 0
22 -17 -16 -176 -232 -288 0
-22 17 16 -175 -231 -287 0
-22 17 16 -175 -231 287 288 0
-22 17 16 -175 -231 -288 0
-22 17 16 -175 231 232 -287 0
-22 17 16 -175 231 232 287 288 0
-22 17 16 -175 231 232 -288 0
-22 17 16 -175 -232 -287 0
-22 17 16 -175 -232 287 288 0
-22 17 16 175 176 -231 -287 0
-22 17 16 175 176 -231 287 288 0
-22 17 16 175 176 -231 -288 0
-22 17 16 175 176 231 232 -287 0
-22 17 16 175 176 231 232 -288 0
-22 17 16 175 176 -232 -287 0
-22 17 16 175 176 -232 287 288 0
-22 17 16 175 176 -232 -288 0
-22 17 16 -176 -231 287 288 0
-22 17 16 -176 -231 -288 0
-22 17 16 -176 231 232 -287 0
-22 17 16 -176 231 232 287 288 0
-22 17 16 -176 231 232 -288 0
-22 17 16 -176 -232 -287 0
-22 17 16 -176 -232 287 288 0
-22 17 16 -176 -232 -288 0
-22 17 -16 -175 -231 -287 0
-22 17 -16 -175 -231 287 288 0
-22 17 -16 -175 -231 -288 0
-22 17 -16 -175 231 232 -287 0
-22 17 -16 -175 231 232 287 288 0
-22 17 -16 -175 231 232 -288 0
-22 17 -16 -175 -232 287 288 0
-22 17 -16 -175 -232 -288 0
-22 17 -16 175 176 -231 -287 0
-22 17 -16 175 176 -231 287 288 0
-22 17 -16 175 176 -231 -288 0
-22 17 -16 175 176 231 232 -287 0
-22 17 -16 175 176 231 232 -288 0
-22 17 -16 175 176 -232 -287 0
-22 17 -16 175 176 -232 287 288 0
-22 17 -16 175 176 -232 -288 0
-22 17 -16 -176 -231 -287 0
-22 17 -16 -176 -231 287 288 0
-22 17 -16 -176 231 232 -287 0
-22 17 -16 -176 231 232 287 288 0
-22 17 -16 -176 231 232 -288 0
-22 17 -16 -176 -232 -287 0
-22 17 -16 -176 -232 287 288 0
-22 17 -16 -176 -232 -288 0
-22 -17 16 -175 -231 -287 0
-22 -17 16 -175 -231 287 288 0
-22 -17 16 -175 231 232 -287 0
-22 -17 16 -175 231 232 287 288 0
-22 -17 16 -175 231 232 -288 0
-22 -17 16 -175 -232 -287 0
-22 -17 16 -175 -232 287 288 0
-22 -17 16 -175 -232 -288 0
-22 -17 16 175 176 -231 -287 0
-22 -17 16 175 176 -231 287 288 0
-22 -17 16 175 176 -231 -288 0
-22 -17 16 175 176 231 232 -287 0
-22 -17 16 175 176 231 232 -288 0
-22 -17 16 175 176 -232 -287 0
-22 -17 16 175 176 -232 287 288 0
-22 -17 16 175 176 -232 -288 0
-22 -17 16 -176 -231 -287 0
-22 -17 16 -176 -231 287 288 0
-22 -17 16 -176 -231 -288 0
-22 -17 16 -176 231 232 -287 0
-22 -17 16 -176 231 232 287 288 0
-22 -17 16 -176 231 232 -288 0
-22 -17 16 -176 -232 287 288 0
-22 -17 16 -176 -232 -288 0
-22 -17 -16 -175 -231 287 288 0
-22 -17 -16 -175 -231 -288 0
-22 -17 -16 -175 231 232 -287 0
-22 -17 -16 -175 231 232 287 288 0
-22 -17 -16 -175 231 232 -288 0
-22 -17 -16 -175 -232 -287 0
-22 -17 -16 -175 -232 287 288 0
-22 -17 -16 -175 -232 -288 0
-22 -17 -16 175 176 -231 -287 0
-22 -17 -16 175 176 -231 287 288 0
-22 -17 -16 175 176 -231 -288 0
-22 -17 -16 175 176 231 232 -287 0
-22 -17 -16 175 176 231 232 -288 0
-22 -17 -16 175 176 -232 -287 0
-22 -17 -16 175 176 -232 287 288 0
-22 -17 -16 175 176 -232 -288 0
-22 -17 -16 -176 -231 -287 0
-22 -17 -16 -176 -231 287 288 0
-22 -17 -16 -176 -231 -288 0
-22 -17 -16 -176 231 232 -287 0
-22 -17 -16 -176 231 232 287 288 0
-22 -17 -16 -176 231 232 -288 0
-22 -17 -16 -176 -232 -287 0
-22 -17 -16 -176 -232 287 288 0
23 18 16 -177 -233 343 344 0
23 18 16 -177 -233 -344 0
23 18 16 -177 233 234 -343 0
23 18 16 -177 233 234 343 344 0
23 18 16 -177 233 234 -344 0
23 18 16 -177 -234 -343 0
23 18 16 -177 -234 343 344 0
23 18 16 -177 -234 -344 0
23 18 16 177 178 -233 -343 0
23 18 16 177 178 -233 343 344 0
23 18 16 177 178 -233 -344 0
23 18 16 177 178 233 234 -343 0
23 18 16 177 178 233 234 -344 0
23 18 16 177 178 -234 -343 0
23 18 16 177 178 -234 343 344 0
23 18 16 177 178 -234 -344 0
23 18 16 -178 -233 -343 0
23 18 16 -178 -233 343 344 0
23 18 16 -178 -233 -344 0
23 18 16 -178 233 234 -343 0
23 18 16 -178 233 234 343 344 0
23 18 16 -178 233 234 -344 0
23 18 16 -178 -234 -343 0
23 18 16 -178 -234 343 344 0
23 18 -16 -177 -233 -343 0
23 18 -16 -177 -233 343 344 0
23 18 -16 -177 233 234 -343 0
23 18 -16 -177 233 234 343 344 0
23 18 -16 -177 233 234 -344 0
23 18 -16 -177 -234 -343 0
23 18 -16 -177 -234 343 344 0
23 18 -16 -177 -234 -344 0
23 18 -16 177 178 -233 -343 0
23 18 -16 177 178 -233 343 344 0
23 18 -16 177 178 -233 -344 0
23 18 -16 177 178 233 234 -343 0
23 18 -16 177 178 233 234 -344 0
23 18 -16 177 178 -234 -343 0
23 18 -16 177 178 -234 343 344 0
23 18 -16 177 178 -234 -344 0
23 18 -16 -178 -233 -343 0
23 18 -16 -178 -233 343 344 0
23 18 -16 -178 -233 -344 0
23 18 -16 -178 233 234 -343 0
23 18 -16 -178 233 234 343 344 0
23 18 -16 -178 233 234 -344 0
23 18 -16 -178 -234 343 344 0
23 18 -16 -178 -234 -344 0
23 -18 16 -177 -233 -343 0
23 -18 16 -177 -233 343 344 0
23 -18 16 -177 -233 -344 0
23 -18 16 -177 233 234 -343 0
23 -18 16 -177 233 234 343 344 0
23 -18 16 -177 233 234 -344 0
23 -18 16 -177 -234 343 344 0
23 -18 16 -177 -234 -344 0
23 -18 16 177 178 -233 -343 0
23 -18 16 177 178 -233 343 344 0
23 -18 16 177 178 -233 -344 0
23 -18 16 177 178 233 234 -343 0
23 -18 16 177 178 233 234 -344 0
23 -18 16 177 178 -234 -343 0
23 -18 16 177 178 -234 343 344 0
23 -18 16 177 178 -234 -344 0
23 -18 16 -178 -233 -343 0
23 -18 16 -178 -233 343 344 0
23 -18 16 -178 233 234 -343 0
23 -18 16 -178 233 234 343 344 0
23 -18 16 -178 233 234 -344 0
23 -18 16 -178 -234 -343 0
23 -18 16 -178 -234 343 344 0
23 -18 16 -178 -234 -344 0
23 -18 -16 -177 -233 -343 0
23 -18 -16 -177 -233 343 344 0
23 -18 -16 -177 -233 -344 0
23 -18 -16 -177 233 234 -343 0
23 -18 -16 -177 233 234 343 344 0
23 -18 -16 -177 233 234 -344 0
23 -18 -16 -177 -234 -343 0
23 -18 -16 -177 -234 343 344 0
23 -18 -16 177 178 -233 -343 0
23 -18 -16 177 178 -233 343 344 0
23 -18 -16 177 178 -233 -344 0
23 -18 -16 177 178 233 234 -343 0
23 -18 -16 177 178 233 234 -344 0
23 -18 -16 177 178 -234 -343 0
23 -18 -16 177 178 -234 343 344 0
23 -18 -16 177 178 -234 -344 0
23 -18 -16 -178 -233 343 344 0
23 -18 -16 -178 -233 -344 0
23 -18 -16 -178 233 234 -343 0
23 -18 -16 -178 233 234 343 344 0
23 -18 -16 -178 233 234 -344 0
23 -18 -16 -178 -234 -343 0
23 -18 -16 -178 -234 343 344 0
23 -18 -16 -178 -234 -344 0
-23 18 16 -177 -233 -343 0
-23 18 16 -177 -233 343 344 0
-23 18 16 -177 -233 -344 0
-23 18 16 -177 233 234 -343 0
-23 18 16 -177 233 234 343 344 0
-23 18 16 -177 233 234 -344 0
-23 18 16 -177 -234 -343 0
-23 18 16 -177 -234 343 344 0
-23 18 16 177 178 -233 -343 0
-23 18 16 177 178 -233 343 344 0
-23 18 16 177 178 -233 -344 0
-23 18 16 177 178 233 234 -343 0
-23 18 16 177 178 233 234 -344 0
-23 18 16 177 178 -234 -343 0
-23 18 16 177 178 -234 343 344 0
-23 18 16 177 178 -234 -344 0
-23 18 16 -178 -233 343 344 0
-23 18 16 -178 -233 -344 0
-23 18 16 -178 233 234 -343 0
-23 18 16 -178 233 234 343 344 0
-23 18 16 -178 233 234 -344 0
-23 18 16 -178 -234 -343 0
-23 18 16 -178 -234 343 344 0
-23 18 16 -178 -234 -344 0
-23 18 -16 -177 -233 -343 0
-23 18 -16 -177 -233 343 344 0
-23 18 -16 -177 -233 -344 0
-23 18 -16 -177 233 234 -343 0
-23 18 -16 -177 233 234 343 344 0
-23 18 -16 -177 233 234 -344 0
-23 18 -16 -177 -234 343 344 0
-23 18 -16 -177 -234 -344 0
-23 18 -16 177 178 -233 -343 0
-23 18 -16 177 178 -233 343 344 0
-23 18 -16 177 178 -233 -344 0
-23 18 -16 177 178 233 234 -343 0
-23 18 -16 177 178 233 234 -344 0
-23 18 -16 177 178 -234 -343 0
-23 18 -16 177 178 -234 343 344 0
-23 18 -16 177 178 -234 -344 0
-23 18 -16 -178 -233 -343 0
-23 18 -16 -178 -233 343 344 0
-23 18 -16 -178 233 234 -343 0
-23 18 -16 -178 233 234 343 344 0
-23 18 -16 -178 233 234 -344 0
-23 18 -16 -178 -234 -343 0
-23 18 -16 -178 -234 343 344 0
-23 18 -16 -178 -234 -344 0
-23 -18 16 -177 -233 -343 0
-23 -18 16 -177 -233 343 344 0
-23 -18 16 -177 233 234 -343 0
-23 -18 16 -177 233 234 343 344 0
-23 -18 16 -177 233 234 -344 0
-23 -18 16 -177 -234 -343 0
-23 -18 16 -177 -234 343 344 0
-23 -18 16 -177 -234 -344 0
-23 -18 16 177 178 -233 -343 0
-23 -18 16 177 178 -233 343 344 0
-23 -18 16 177 178 -233 -344 0
-23 -18 16 177 178 233 234 -343 0
-23 -18 16 177 178 233 234 -344 0
-23 -18 16 177 178 -234 -343 0
-23 -18 16 177 178 -234 343 344 0
-23 -18 16 177 178 -234 -344 0
-23 -18 16 -178 -233 -343 0
-23 -18 16 -178 -233 343 344 0
-23 -18 16 -178 -233 -344 0
-23 -18 16 -178 233 234 -343 0
-23 -18 16 -178 233 234 343 344 0
-23 -18 16 -178 233 234 -344 0
-23 -18 16 -178 -234 343 344 0
-23 -18 16 -178 -234 -344 0
-23 -18 -16 -177 -233 343 344 0
-23 -18 -16 -177 -233 -344 0
-23 -18 -16 -177 233 234 -343 0
-23 -18 -16 -177 233 234 343 344 0
-23 -18 -16 -177 233 234 -344 0
-23 -18 -16 -177 -234 -343 0
-23 -18 -16 -177 -234 343 344 0
-23 -18 -16 -177 -234 -344 0
-23 -18 -16 177 178 -233 -343 0
-23 -18 -16 177 178 -233 343 344 0
-23 -18 -16 177 178 -233 -344 0
-23 -18 -16 177 178 233 234 -343 0
-23 -18 -16 177 178 233 234 -344 0
-23 -18 -16 177 178 -234 -343 0
-23 -18 -16 177 178 -234 343 344 0
-23 -18 -16 177 178 -234 -344 0
-23 -18 -16 -178 -233 -343 0
-23 -18 -16 -178 -233 343 344 0
-23 -18 -16 -178 -233 -344 0
-23 -18 -16 -178 233 234 -343 0
-23 -18 -16 -178 233 234 343 344 0
-23 -18 -16 -178 233 234 -344 0
-23 -18 -16 -178 -234 -343 0
-23 -18 -16 -178 -234 343 344 0
24 19 16 -179 -235 399 400 0
24 19 16 -179 -235 -400 0
24 19 16 -179 235 236 -399 0
24 19 16 -179 235 236 399 400 0
24 19 16 -179 235 236 -400 0
24 19 16 -179 -236 -399 0
24 19 16 -179 -236 399 400 0
24 19 16 -179 -236 -400 0
24 19 16 179 180 -235 -399 0
24 19 16 179 180 -235 399 400 0
24 19 16 179 180 -235 -400 0
24 19 16 179 180 235 236 -399 0
24 19 16 179 180 235 236 -400 0
24 19 16 179 180 -236 -399 0
24 19 16 179 180 -236 399 400 0
24 19 16 179 180 -236 -400 0
24 19 16 -180 -235 -399 0
24 19 16 -180 -235 399 400 0
24 19 16 -180 -235 -400 0
24 19 16 -180 235 236 -399 0
24 19 16 -180 235 236 399 400 0
24 19 16 -180 235 236 -400 0
24 19 16 -180 -236 -399 0
24 19 16 -180 -236 399 400 0
24 19 -16 -179 -235 -399 0
24 19 -16 -179 -235 399 400 0
24 19 -16 -179 235 236 -399 0
24 19 -16 -179 235 236 399 400 0
24 19 -16 -179 235 236 -400 0
24 19 -16 -179 -236 -399 0
24 19 -16 -179 -236 399 400 0
24 19 -16 -179 -236 -400 0
24 19 -16 179 180 -235 -399 0
24 19 -16 179 180 -235 399 400 0
24 19 -16 179 180 -235 -400 0
24 19 -16 179 180 235 236 -399 0
24 19 -16 179 180 235 236 -400 0
24 19 -16 179 180 -236 -399 0
24 19 -16 179 180 -236 399 400 0
24 19 -16 179 180 -236 -400 0
24 19 -16 -180 -235 -399 0
24 19 -16 -180 -235 399 400 0
24 19 -16 -180 -235 -400 0
24 19 -16 -180 235 236 -399 0
24 19 -16 -180 235 236 399 400 0
24 19 -16 -180 235 236 -400 0
24 19 -16 -180 -236 399 400 0
24 19 -16 -180 -236 -400 0
24 -19 16 -179 -235 -399 0
24 -19 16 -179 -235 399 400 0
24 -19 16 -179 -235 -400 0
24 -19 16 -179 235 236 -399 0
24 -19 16 -179 235 236 399 400 0
24 -19 16 -179 235 236 -400 0
24 -19 16 -179 -236 399 400 0
24 -19 16 -179 -236 -400 0
24 -19 16 179 180 -235 -399 0
24 -19 16 179 180 -235 399 400 0
24 -19 16 179 180 -235 -400 0
24 -19 16 179 180 235 236 -399 0
24 -19 16 179 180 235 236 -400 0
24 -19 16 179 180 -236 -399 0
24 -19 16 179 180 -236 399 400 0
24 -19 16 179 180 -236 -400 0
24 -19 16 -180 -235 -399 0
24 -19 16 -180 -235 399 400 0
24 -19 16 -180 235 236 -399 0
24 -19 16 -180 235 236 399 400 0
24 -19 16 -180 235 236 -400 0
24 -19 16 -180 -236 -399 0
24 -19 16 -180 -236 399 400 0
24 -19 16 -180 -236 -400 0
24 -19 -16 -179 -235 -399 0
24 -19 -16 -179 -235 399 400 0
24 -19 -16 -179 -235 -400 0
24 -19 -16 -179 235 236 -399 0
24 -19 -16 -179 235 236 399 400 0
24 -19 -16 -179 235 236 -400 0
24 -19 -16 -179 -236 -399 0
24 -19 -16 -179 -236 399 400 0
24 -19 -16 179 180 -235 -399 0
24 -19 -16 179 180 -235 399 400 0
24 -19 -16 179 180 -235 -400 0
24 -19 -16 179 180 235 236 -399 0
24 -19 -16 179 180 235 236 -400 0
24 -19 -16 179 180 -236 -399 0
24 -19 -16 179 180 -236 399 400 0
24 -19 -16 179 180 -236 -400 0
24 -19 -16 -180 -235 399 400 0
24 -19 -16 -180 -235 -400 0
24 -19 -16 -180 235 236 -399 0
24 -19 -16 -180 235 236 399 400 0
24 -19 -16 -180 235 236 -400 0
24 -19 -16 -180 -236 -399 0
24 -19 -16 -180 -236 399 400 0
24 -19 -16 -180 -236 -400 0
-24 19 16 -179 -235 -399 0
-24 19 16 -179 -235 399 400 0
-24 19 16 -179 -235 -400 0
-24 19 16 -179 235 236 -399 0
-24 19 16 -179 235 236 399 400 0
-24 19 16 -179 235 236 -400 0
-24 19 16 -179 -236 -399 0
-24 19 16 -179 -236 399 400 0
-24 19 16 179 180 -235 -399 0
-24 19 16 179 180 -235 399 400 0
-24 19 16 179 180 -235 -400 0
-24 19 16 179 180 235 236 -399 0
-24 19 16 179 180 235 236 -400 0
-24 19 16 179 180 -236 -399 0
-24 19 16 179 180 -236 399 400 0
-24 19 16 179 180 -236 -400 0
-24 19 16 -180 -235 399 400 0
-24 19 16 -180 -235 -400 0
-24 19 16 -180 235 236 -399 0
-24 19 16 -180 235 236 399 400 0
-24 19 16 -180 235 236 -400 0
-24 19 16 -180 -236 -399 0
-24 19 16 -180 -236 399 400 0
-24 19 16 -180 -236 -400 0
-24 19 -16 -179 -235 -399 0
-24 19 -16 -179 -235 399 400 0
-24 19 -16 -179 -235 -400 0
-24 19 -16 -179 235 236 -399 0
-24 19 -16 -179 235 236 399 400 0
-24 19 -16 -179 235 236 -400 0
-24 19 -16 -179 -236 399 400 0
-24 19 -16 -179 -236 -400 0
-24 19 -16 179 180 -235 -399 0
-24 19 -16 179 180 -235 399 400 0
-24 19 -16 179 180 -235 -400 0
-24 19 -16 179 180 235 236 -399 0
-24 19 -16 179 180 235 236 -400 0
-24 19 -16 179 180 -236 -399 0
-24 19 -16 179 180 -236 399 400 0
-24 19 -16 179 180 -236 -400 0
-24 19 -16 -180 -235 -399 0
-24 19 -16 -180 -235 399 400 0
-24 19 -16 -180 235 236 -399 0
-24 19 -16 -180 235 236 399 400 0
-24 19 -16 -180 235 236 -400 0
-24 19 -16 -180 -236 -399 0
-24 19 -16 -180 -236 399 400 0
-24 19 -16 -180 -236 -400 0
-24 -19 16 -179 -235 -399 0
-24 -19 16 -179 -235 399 400 0
-24 -19 16 -179 235 236 -399 0
-24 -19 16 -179 235 236 399 400 0
-24 -19 16 -179 235 236 -400 0
-24 -19 16 -179 -236 -399 0
-24 -19 16 -179 -236 399 400 0
-24 -19 16 -179 -236 -400 0
-24 -19 16 179 180 -235 -399 0
-24 -19 16 179 180 -235 399 400 0
-24 -19 16 179 180 -235 -400 0
-24 -19 16 179 180 235 236 -399 0
-24 -19 16 179 180 235 236 -400 0
-24 -19 16 179 180 -236 -399 0
-24 -19 16 179 180 -236 399 400 0
-24 -19 16 179 180 -236 -400 0
-24 -19 16 -180 -235 -399 0
-24 -19 16 -180 -235 399 400 0
-24 -19 16 -180 -235 -400 0
-24 -19 16 -180 235 236 -399 0
-24 -19 16 -180 235 236 399 400 0
-24 -19 16 -180 235 236 -400 0
-24 -19 16 -180 -236 399 400 0
-24 -19 16 -180 -236 -400 0
-24 -19 -16 -179 -235 399 400 0
-24 -19 -16 -179 -235 -400 0
-24 -19 -16 -179 235 236 -399 0
-24 -19 -16 -179 235 236 399 400 0
-24 -19 -16 -179 235 236 -400 0
-24 -19 -16 -179 -236 -399 0
-24 -19 -16 -179 -236 399 400 0
-24 -19 -16 -179 -236 -400 0
-24 -19 -16 179 180 -235 -399 0
-24 -19 -16 179 180 -235 399 400 0
-24 -19 -16 179 180 -235 -400 0
-24 -19 -16 179 180 235 236 -399 0
-24 -19 -16 179 180 235 236 -400 0
-24 -19 -16 179 180 -236 -399 0
-24 -19 -16 179 180 -236 399 400 0
-24 -19 -16 179 180 -236 -400 0
-24 -19 -16 -180 -235 -399 0
-24 -19 -16 -180 -235 399 400 0
-24 -19 -16 -180 -235 -400 0
-24 -19 -16 -180 235 236 -399 0
-24 -19 -16 -180 235 236 399 400 0
-24 -19 -16 -180 235 236 -400 0
-24 -19 -16 -180 -236 -399 0
-24 -19 -16 -180 -236 399 400 0
25 20 16 -181 -237 455 456 0
25 20 16 -181 -237 -456 0
25 20 16 -181 237 238 -455 0
25 20 16 -181 237 238 455 456 0
25 20 16 -181 237 238 -456 0
25 20 16 -181 -238 -455 0
25 20 16 -181 -238 455 456 0
25 20 16 -181 -238 -456 0
25 20 16 181 182 -237 -455 0
25 20 16 181 182 -237 455 456 0
25 20 16 181 182 -237 -456 0
25 20 16 181 182 237 238 -455 0
25 20 16 181 182 237 238 -456 0
25 20 16 181 182 -238 -455 0
25 20 16 181 182 -238 455 456 0
25 20 16 181 182 -238 -456 0
25 20 16 -182 -237 -455 0
25 20 16 -182 -237 455 456 0
25 20 16 -182 -237 -456 0
25 20 16 -182 237 238 -455 0
25 20 16 -182 237 238 455 456 0
25 20 16 -182 237 238 -456 0
25 20 16 -182 -238 -455 0
25 20 16 -182 -238 455 456 0
25 20 -16 -181 -237 -455 0
25 20 -16 -181 -237 455 456 0
25 20 -16 -181 237 238 -455 0
25 20 -16 -181 237 238 455 456 0
25 20 -16 -181 237 238 -456 0
25 20 -16 -181 -238 -455 0
25 20 -16 -181 -238 455 456 0
25 20 -16 -181 -238 -456 0
25 20 -16 181 182 -237 -455 0
25 20 -16 181 182 -237 455 456 0
25 20 -16 181 182 -237 -456 0
25 20 -16 181 182 237 238 -455 0
25 20 -16 181 182 237 238 -456 0
25 20 -16 181 182 -238 -455 0
25 20 -16 181 182 -238 455 456 0
25 20 -16 181 182 -238 -456 0
25 20 -16 -182 -237 -455 0
25 20 -16 -182 -237 455 456 0
25 20 -16 -182 -237 -456 0
25 20 -16 -182 237 238 -455 0
25 20 -16 -182 237 238 455 456 0
25 20 -16 -182 237 238 -456 0
25 20 -16 -182 -238 455 456 0
25 20 -16 -182 -238 -456 0
25 -20 16 -181 -237 -455 0
25 -20 16 -181 -237 455 456 0
25 -20 16 -181 -237 -456 0
25 -20 16 -181 237 238 -455 0
25 -20 16 -181 237 238 455 456 0
25 -20 16 -181 237 238 -456 0
25 -20 16 -181 -238 455 456 0
25 -20 16 -181 -238 -456 0
25 -20 16 181 182 -237 -455 0
25 -20 16 181 182 -237 455 456 0
25 -20 16 181 182 -237 -456 0
25 -20 16 181 182 237 238 -455 0
25 -20 16 181 182 237 238 -456 0
25 -20 16 181 182 -238 -455 0
25 -20 16 181 182 -238 455 456 0
25 -20 16 181 182 -238 -456 0
25 -20 16 -182 -237 -455 0
25 -20 16 -182 -237 455 456 0
25 -20 16 -182 237 238 -455 0
25 -20 16 -182 237 238 455 456 0
25 -20 16 -182 237 238 -456 0
25 -20 16 -182 -238 -455 0
25 -20 16 -182 -238 455 456 0
25 -20 16 -182 -238 -456 0
25 -20 -16 -181 -237 -455 0
25 -20 -16 -181 -237 455 456 0
25 -20 -16 -181 -237 -456 0
25 -20 -16 -181 237 238 -455 0
25 -20 -16 -181 237 238 455 456 0
25 -20 -16 -181 237 238 -456 0
25 -20 -16 -181 -238 -455 0
25 -20 -16 -181 -238 455 456 0
25 -20 -16 181 182 -237 -455 0
25 -20 -16 181 182 -237 455 456 0
25 -20 -16 181 182 -237 -456 0
25 -20 -16 181 182 237 238 -455 0
25 -20 -16 181 182 237 238 -456 0
25 -20 -16 181 182 -238 -455 0
25 -20 -16 181 182 -238 455 456 0
25 -20 -16 181 182 -238 -456 0
25 -20 -16 -182 -237 455 456 0
25 -20 -16 -182 -237 -456 0
25 -20 -16 -182 237 238 -455 0
25 -20 -16 -182 237 238 455 456 0
25 -20 -16 -182 237 238 -456 0
25 -20 -16 -182 -238 -455 0
25 -20 -16 -182 -238 455 456 0
25 -20 -16 -182 -238 -456 0
-25 20 16 -181 -237 -455 0
-25 20 16 -181 -237 455 456 0
-25 20 16 -181 -237 -456 0
-25 20 16 -181 237 238 -455 0
-25 20 16 -181 237 238 455 456 0
-25 20 16 -181 237 238 -456 0
-25 20 16 -181 -238 -455 0
-25 20 16 -181 -238 455 456 0
-25 20 16 181 182 -237 -455 0
-25 20 16 181 182 -237 455 456 0
-25 20 16 181 182 -237 -456 0
-25 20 16 181 182 237 238 -455 0
-25 20 16 181 182 237 238 -456 0
-25 20 16 181 182 -238 -455 0
-25 20 16 181 182 -238 455 456 0
-25 20 16 181 182 -238 -456 0
-25 20 16 -182 -237 455 456 0
-25 20 16 -182 -237 -456 0
-25 20 16 -182 237 238 -455 0
-25 20 16 -182 237 238 455 456 0
-25 20 16 -182 237 238 -456 0
-25 20 16 -182 -238 -455 0
-25 20 16 -182 -238 455 456 0
-25 20 16 -182 -238 -456 0
-25 20 -16 -181 -237 -455 0
-25 20 -16 -181 -237 455 456 0
-25 20 -16 -181 -237 -456 0
-25 20 -16 -181 237 238 -455 0
-25 20 -16 -181 237 238 455 456 0
-25 20 -16 -181 237 238 -456 0
-25 20 -16 -181 -238 455 456 0
-25 20 -16 -181 -238 -456 0
-25 20 -16 181 182 -237 -455 0
-25 20 -16 181 182 -237 455 456 0
-25 20 -16 181 182 -237 -456 0
-25 20 -16 181 182 237 238 -455 0
-25 20 -16 181 182 237 238 -456 0
-25 20 -16 181 182 -238 -455 0
-25 20 -16 181 182 -238 455 456 0
-25 20 -16 181 182 -238 -456 0
-25 20 -16 -182 -237 -455 0
-25 20 -16 -182 -237 455 456 0
-25 20 -16 -182 237 238 -455 0
-25 20 -16 -182 237 238 455 456 0
-25 20 -16 -182 237 238 -456 0
-25 20 -16 -182 -238 -455 0
-25 20 -16 -182 -238 455 456 0
-25 20 -16 -182 -238 -456 0
-25 -20 16 -181 -237 -455 0
-25 -20 16 -181 -237 455 456 0
-25 -20 16 -181 237 238 -455 0
-25 -20 16 -181 237 238 455 456 0
-25 -20 16 -181 237 238 -456 0
-25 -20 16 -181 -238 -455 0
-25 -20 16 -181 -238 455 456 0
-25 -20 16 -181 -238 -456 0
-25 -20 16 181 182 -237 -455 0
-25 -20 16 181 182 -237 455 456 0
-25 -20 16 181 182 -237 -456 0
-25 -20 16 181 182 237 238 -455 0
-25 -20 16 181 182 237 238 -456 0
-25 -20 16 181 182 -238 -455 0
-25 -20 16 181 182 -238 455 456 0
-25 -20 16 181 182 -238 -456 0
-25 -20 16 -182 -237 -455 0
-25 -20 16 -182 -237 455 456 0
-25 -20 16 -182 -237 -456 0
-25 -20 16 -182 237 238 -455 0
-25 -20 16 -182 237 238 455 456 0
-25 -20 16 -182 237 238 -456 0
-25 -20 16 -182 -238 455 456 0
-25 -20 16 -182 -238 -456 0
-25 -20 -16 -181 -237 455 456 0
-25 -20 -16 -181 -237 -456 0
-25 -20 -16 -181 237 238 -455 0
-25 -20 -16 -181 237 238 455 456 0
-25 -20 -16 -181 237 238 -456 0
-25 -20 -16 -181 -238 -455 0
-25 -20 -16 -181 -238 455 456 0
-25 -20 -16 -181 -238 -456 0
-25 -20 -16 181 182 -237 -455 0
-25 -20 -16 181 182 -237 455 456 0
-25 -20 -16 181 182 -237 -456 0
-25 -20 -16 181 182 237 238 -455 0
-25 -20 -16 181 182 237 238 -456 0
-25 -20 -16 181 182 -238 -455 0
-25 -20 -16 181 182 -238 455 456 0
-25 -20 -16 181 182 -238 -456 0
-25 -20 -16 -182 -237 -455 0
-25 -20 -16 -182 -237 455 456 0
-25 -20 -16 -182 -237 -456 0
-25 -20 -16 -182 237 238 -455 0
-25 -20 -16 -182 237 238 455 456 0
-25 -20 -16 -182 237 238 -456 0
-25 -20 -16 -182 -238 -455 0
-25 -20 -16 -182 -238 455 456 0
26 21 16 -183 -239 511 512 0
26 21 16 -183 -239 -512 0
26 21 16 -183 239 240 -511 0
26 21 16 -183 239 240 511 512 0
26 21 16 -183 239 240 -512 0
26 21 16 -183 -240 -511 0
26 21 16 -183 -240 511 512 0
26 21 16 -183 -240 -512 0
26 21 16 183 184 -239 -511 0
26 21 16 183 184 -239 511 512 0
26 21 16 183 184 -239 -512 0
26 21 16 183 184 239 240 -511 0
26 21 16 183 184 239 240 -512 0
26 21 16 183 184 -240 -511 0
26 21 16 183 184 -240 511 512 0
26 21 16 183 184 -240 -512 0
26 21 16 -184 -239 -511 0
26 21 16 -184 -239 511 512 0
26 21 16 -184 -239 -512 0
26 21 16 -184 239 240 -511 0
26 21 16 -184 239 240 511 512 0
26 21 16 -184 239 240 -512 0
26 21 16 -184 -240 -511 0
26 21 16 -184 -240 511 512 0
26 21 -16 -183 -239 -511 0
26 21 -16 -183 -239 511 512 0
26 21 -16 -183 239 240 -511 0
26 21 -16 -183 239 240 511 512 0
26 21 -16 -183 239 240 -512 0
26 21 -16 -183 -240 -511 0
26 21 -16 -183 -240 511 512 0
26 21 -16 -183 -240 -512 0
26 21 -16 183 184 -239 -511 0
26 21 -16 183 184 -239 511 512 0
26 21 -16 183 184 -239 -512 0
26 21 -16 183 184 239 240 -511 0
26 21 -16 183 184 239 240 -512 0
26 21 -16 183 184 -240 -511 0
26 21 -16 183 184 -240 511 512 0
26 21 -16 183 184 -240 -512 0
26 21 -16 -184 -239 -511 0
26 21 -16 -184 -239 511 512 0
26 21 -16 -184 -239 -512 0
26 21 -16 -184 239 240 -511 0
26 21 -16 -184 239 240 511 512 0
26 21 -16 -184 239 240 -512 0
26 21 -16 -184 -240 511 512 0
26 21 -16 -184 -240 -512 0
26 -21 16 -183 -239 -511 0
26 -21 16 -183 -239 511 512 0
26 -21 16 -183 -239 -512 0
26 -21 16 -183 239 240 -511 0
26 -21 16 -183 239 240 511 512 0
26 -21 16 -183 239 240 -512 0
26 -21 16 -183 -240 511 512 0
26 -21 16 -183 -240 -512 0
26 -21 16 183 184 -239 -511 0
26 -21 16 183 184 -239 511 512 0
26 -21 16 183 184 -239 -512 0
26 -21 16 183 184 239 240 -511 0
26 -21 16 183 184 239 240 -512 0
26 -21 16 183 184 -240 -511 0
26 -21 16 183 184 -240 511 512 0
26 -21 16 183 184 -240 -512 0
26 -21 16 -184 -239 -511 0
26 -21 16 -184 -239 511 512 0
26 -21 16 -184 239 240 -511 0
26 -21 16 -184 239 240 511 512 0
26 -21 16 -184 239 240 -512 0
26 -21 16 -184 -240 -511 0
26 -21 16 -184 -240 511 512 0
26 -21 16 -184 -240 -512 0
26 -21 -16 -183 -239 -511 0
26 -21 -16 -183 -239 511 512 0
26 -21 -16 -183 -239 -512 0
26 -21 -16 -183 239 240 -511 0
26 -21 -16 -183 239 240 511 512 0
26 -21 -16 -183 239 240 -512 0
26 -21 -16 -183 -240 -511 0
26 -21 -16 -183 -240 511 512 0
26 -21 -16 183 184 -239 -511 0
26 -21 -16 183 184 -239 511 512 0
26 -21 -16 183 184 -239 -512 0
26 -21 -16 183 184 239 240 -511 0
26 -21 -16 183 184 239 240 -512 0
26 -21 -16 183 184 -240 -511 0
26 -21 -16 183 184 -240 511 512 0
26 -21 -16 183 184 -240 -512 0
26 -21 -16 -184 -239 511 512 0
26 -21 -16 -184 -239 -512 0
26 -21 -16 -184 239 240 -511 0
26 -21 -16 -184 239 240 511 512 0
26 -21 -16 -184 239 240 -512 0
26 -21 -16 -184 -240 -511 0
26 -21 -16 -184 -240 511 512 0
26 -21 -16 -184 -240 -512 0
-26 21 16 -183 -239 -511 0
-26 21 16 -183 -239 511 512 0
-26 21 16 -183 -239 -512 0
-26 21 16 -183 239 240 -511 0
-26 21 16 -183 239 240 511 512 0
-26 21 16 -183 239 240 -512 0
-26 21 16 -183 -240 -511 0
-26 21 16 -183 -240 511 512 0
-26 21 16 183 184 -239 -511 0
-26 21 16 183 184 -239 511 512 0
-26 21 16 183 184 -239 -512 0
-26 21 16 183 184 239 240 -511 0
-26 21 16 183 184 239 240 -512 0
-26 21 16 183 184 -240 -511 0
-26 21 16 183 184 -240 511 512 0
-26 21 16 183 184 -240 -512 0
-26 21 16 -184 -239 511 512 0
-26 21 16 -184 -239 -512 0
-26 21 16 -184 239 240 -511 0
-26 21 16 -184 239 240 511 512 0
-26 21 16 -184 239 240 -512 0
-26 21 16 -184 -240 -511 0
-26 21 16 -184 -240 511 512 0
-26 21 16 -184 -240 -512 0
-26 21 -16 -183 -239 -511 0
-26 21 -16 -183 -239 511 512 0
-26 21 -16 -183 -239 -512 0
-26 21 -16 -183 239 240 -511 0
-26 21 -16 -183 239 240 511 512 0
-26 21 -16 -183 239 240 -512 0
-26 21 -16 -183 -240 511 512 0
-26 21 -16 -183 -240 -512 0
-26 21 -16 183 184 -239 -511 0
-26 21 -16 183 184 -239 511 512 0
-26 21 -16 183 184 -239 -512 0
-26 21 -16 183 184 239 240 -511 0
-26 21 -16 183 184 239 240 -512 0
-26 21 -16 183 184 -240 -511 0
-26 21 -16 183 184 -240 511 512 0
-26 21 -16 183 184 -240 -512 0
-26 21 -16 -184 -239 -511 0
-26 21 -16 -184 -239 511 512 0
-26 21 -16 -184 239 240 -511 0
-26 21 -16 -184 239 240 511 512 0
-26 21 -16 -184 239 240 -512 0
-26 21 -16 -184 -240 -511 0
-26 21 -16 -184 -240 511 512 0
-26 21 -16 -184 -240 -512 0
-26 -21 16 -183 -239 -511 0
-26 -21 16 -183 -239 511 512 0
-26 -21 16 -183 239 240 -511 0
-26 -21 16 -183 239 240 511 512 0
-26 -21 16 -183 239 240 -512 0
-26 -21 16 -183 -240 -511 0
-26 -21 16 -183 -240 511 512 0
-26 -21 16 -183 -240 -512 0
-26 -21 16 183 184 -239 -511 0
-26 -21 16 183 184 -239 511 512 0
-26 -21 16 183 184 -239 -512 0
-26 -21 16 183 184 239 240 -511 0
-26 -21 16 183 184 239 240 -512 0
-26 -21 16 183 184 -240 -511 0
-26 -21 16 183 184 -240 511 512 0
-26 -21 16 183 184 -240 -512 0
-26 -21 16 -184 -239 -511 0
-26 -21 16 -184 -239 511 512 0
-26 -21 16 -184 -239 -512 0
-26 -21 16 -184 239 240 -511 0
-26 -21 16 -184 239 240 511 512 0
-26 -21 16 -184 239 240 -512 0
-26 -21 16 -184 -240 511 512 0
-26 -21 16 -184 -240 -512 0
-26 -21 -16 -183 -239 511 512 0
-26 -21 -16 -183 -239 -512 0
-26 -21 -16 -183 239 240 -511 0
-26 -21 -16 -183 239 240 511 512 0
-26 -21 -16 -183 239 240 -512 0
-26 -21 -16 -183 -240 -511 0
-26 -21 -16 -183 -240 511 512 0
-26 -21 -16 -183 -240 -512 0
-26 -21 -16 183 184 -239 -511 0
-26 -21 -16 183 184 -239 511 512 0
-26 -21 -16 183 184 -239 -512 0
-26 -21 -16 183 184 239 240 -511 0
-26 -21 -16 183 184 239 240 -512 0
-26 -21 -16 183 184 -240 -511 0
-26 -21 -16 183 184 -240 511 512 0
-26 -21 -16 183 184 -240 -512 0
-26 -21 -16 -184 -239 -511 0
-26 -21 -16 -184 -239 511 512 0
-26 -21 -16 -184 -239 -512 0
-26 -21 -16 -184 239 240 -511 0
-26 -21 -16 -184 239 240 511 512 0
-26 -21 -16 -184 239 240 -512 0
-26 -21 -16 -184 -240 -511 0
-26 -21 -16 -184 -240 511 512 0
27 18 17 -185 -289 345 346 0
27 18 17 -185 -289 -346 0
27 18 17 -185 289 290 -345 0
27 18 17 -185 289 290 345 346 0
27 18 17 -185 289 290 -346 0
27 18 17 -185 -290 -345 0
27 18 17 -185 -290 345 346 0
27 18 17 -185 -290 -346 0
27 18 17 185 186 -289 -345 0
27 18 17 185 186 -289 345 346 0
27 18 17 185 186 -289 -346 0
27 18 17 185 186 289 290 -345 0
27 18 17 185 186 289 290 -346 0
27 18 17 185 186 -290 -345 0
27 18 17 185 186 -290 345 346 0
27 18 17 185 186 -290 -346 0
27 18 17 -186 -289 -345 0
27 18 17 -186 -289 345 346 0
27 18 17 -186 -289 -346 0
27 18 17 -186 289 290 -345 0
27 18 17 -186 289 290 345 346 0
27 18 17 -186 289 290 -346 0
27 18 17 -186 -290 -345 0
27 18 17 -186 -290 345 346 0
27 18 -17 -185 -289 -345 0
27 18 -17 -185 -289 345 346 0
27 18 -17 -185 289 290 -345 0
27 18 -17 -185 289 290 345 346 0
27 18 -17 -185 289 290 -346 0
27 18 -17 -185 -290 -345 0
27 18 -17 -185 -290 345 346 0
27 18 -17 -185 -290 -346 0
27 18 -17 185 186 -289 -345 0
27 18 -17 185 186 -289 345 346 0
27 18 -17 185 186 -289 -346 0
27 18 -17 185 186 289 290 -345 0
27 18 -17 185 186 289 290 -346 0
27 18 -17 185 186 -290 -345 0
27 18 -17 185 186 -290 345 346 0
27 18 -17 185 186 -290 -346 0
27 18 -17 -186 -289 -345 0
27 18 -17 -186 -289 345 346 0
27 18 -17 -186 -289 -346 0
27 18 -17 -186 289 290 -345 0
27 18 -17 -186 289 290 345 346 0
27 18 -17 -186 289 290 -346 0
27 18 -17 -186 -290 345 346 0
27 18 -17 -186 -290 -346 0
27 -18 17 -185 -289 -345 0
27 -18 17 -185 -289 345 346 0
27 -18 17 -185 -289 -346 0
27 -18 17 -185 289 290 -345 0
27 -18 17 -185 289 290 345 346 0
27 -18 17 -185 289 290 -346 0
27 -18 17 -185 -290 345 346 0
27 -18 17 -185 -290 -346 0
27 -18 17 185 186 -289 -345 0
27 -18 17 185 186 -289 345 346 0
27 -18 17 185 186 -289 -346 0
27 -18 17 185 186 289 290 -345 0
27 -18 17 185 186 289 290 -346 0
27 -18 17 185 186 -290 -345 0
27 -18 17 185 186 -290 345 346 0
27 -18 17 185 186 -290 -346 0
27 -18 17 -186 -289 -345 0
27 -18 17 -186 -289 345 346 0
27 -18 17 -186 289 290 -345 0
27 -18 17 -186 289 290 345 346 0
27 -18 17 -186 289 290 -346 0
27 -18 17 -186 -290 -345 0
27 -18 17 -186 -290 345 346 0
27 -18 17 -186 -290 -346 0
27 -18 -17 -185 -289 -345 0
27 -18 -17 -185 -289 345 346 0
27 -18 -17 -185 -289 -346 0
27 -18 -17 -185 289 290 -345 0
27 -18 -17 -185 289 290 345 346 0
27 -18 -17 -185 289 290 -346 0
27 -18 -17 -185 -290 -345 0
27 -18 -17 -185 -290 345 346 0
27 -18 -17 185 186 -289 -345 0
27 -18 -17 185 186 -289 345 346 0
27 -18 -17 185 186 -289 -346 0
27 -18 -17 185 186 289 290 -345 0
27 -18 -17 185 186 289 290 -346 0
27 -18 -17 185 186 -290 -345 0
27 -18 -17 185 186 -290 345 346 0
27 -18 -17 185 186 -290 -346 0
27 -18 -17 -186 -289 345 346 0
27 -18 -17 -186 -289 -346 0
27 -18 -17 -186 289 290 -345 0
27 -18 -17 -186 289 290 345 346 0
27 -18 -17 -186 289 290 -346 0
27 -18 -17 -186 -290 -345 0
27 -18 -17 -186 -290 345 346 0
27 -18 -17 -186 -290 -346 0
-27 18 17 -185 -289 -345 0
-27 18 17 -185 -289 345 346 0
-27 18 17 -185 -289 -346 0
-27 18 17 -185 289 290 -345 0
-27 18 17 -185 289 290 345 346 0
-27 18 17 -185 289 290 -346 0
-27 18 17 -185 -290 -345 0
-27 18 17 -185 -290 345 346 0
-27 18 17 185 186 -289 -345 0
-27 18 17 185 186 -289 345 346 0
-27 18 17 185 186 -289 -346 0
-27 18 17 185 186 289 290 -345 0
-27 18 17 185 186 289 290 -346 0
-27 18 17 185 186 -290 -345 0
-27 18 17 185 186 -290 345 346 0
-27 18 17 185 186 -290 -346 0
-27 18 17 -186 -289 345 346 0
-27 18 17 -186 -289 -346 0
-27 18 17 -186 289 290 -345 0
-27 18 17 -186 289 290 345 346 0
-27 18 17 -186 289 290 -346 0
-27 18 17 -186 -290 -345 0
-27 18 17 -186 -290 345 346 0
-27 18 17 -186 -290 -346 0
-27 18 -17 -185 -289 -345 0
-27 18 -17 -185 -289 345 346 0
-27 18 -17 -185 -289 -346 0
-27 18 -17 -185 289 290 -345 0
-27 18 -17 -185 289 290 345 346 0
-27 18 -17 -185 289 290 -346 0
-27 18 -17 -185 -290 345 346 0
-27 18 -17 -185 -290 -346 0
-27 18 -17 185 186 -289 -345 0
-27 18 -17 185 186 -289 345 346 0
-27 18 -17 185 186 -289 -346 0
-27 18 -17 185 186 289 290 -345 0
-27 18 -17 185 186 289 290 -346 0
-27 18 -17 185 186 -290 -345 0
-27 18 -17 185 186 -290 345 346 0
-27 18 -17 185 186 -290 -346 0
-27 18 -17 -186 -289 -345 0
-27 18 -17 -186 -289 345 346 0
-27 18 -17 -186 289 290 -345 0
-27 18 -17 -186 289 290 345 346 0
-27 18 -17 -186 289 290 -346 0
-27 18 -17 -186 -290 -345 0
-27 18 -17 -186 -290 345 346 0
-27 18 -17 -186 -290 -346 0
-27 -18 17 -185 -289 -345 0
-27 -18 17 -185 -289 345 346 0
-27 -18 17 -185 289 290 -345 0
-27 -18 17 -185 289 290 345 346 0
-27 -18 17 -185 289 290 -346 0
-27 -18 17 -185 -290 -345 0
-27 -18 17 -185 -290 345 346 0
-27 -18 17 -185 -290 -346 0
-27 -18 17 185 186 -289 -345 0
-27 -18 17 185 186 -289 345 346 0
-27 -18 17 185 186 -289 -346 0
-27 -18 17 185 186 289 290 -345 0
-27 -18 17 185 186 289 290 -346 0
-27 -18 17 185 186 -290 -345 0
-27 -18 17 185 186 -290 345 346 0
-27 -18 17 185 186 -290 -346 0
-27 -18 17 -186 -289 -345 0
-27 -18 17 -186 -289 345 346 0
-27 -18 17 -186 -289 -346 0
-27 -18 17 -186 289 290 -345 0
-27 -18 17 -186 289 290 345 346 0
-27 -18 17 -186 289 290 -346 0
-27 -18 17 -186 -290 345 346 0
-27 -18 17 -186 -290 -346 0
-27 -18 -17 -185 -289 345 346 0
-27 -18 -17 -185 -289 -346 0
-27 -18 -17 -185 289 290 -345 0
-27 -18 -17 -185 289 290 345 346 0
-27 -18 -17 -185 289 290 -346 0
-27 -18 -17 -185 -290 -345 0
-27 -18 -17 -185 -290 345 346 0
-27 -18 -17 -185 -290 -346 0
-27 -18 -17 185 186 -289 -345 0
-27 -18 -17 185 186 -289 345 346 0
-27 -18 -17 185 186 -289 -346 0
-27 -18 -17 185 186 289 290 -345 0
-27 -18 -17 185 186 289 290 -346 0
-27 -18 -17 185 186 -290 -345 0
-27 -18 -17 185 186 -290 345 346 0
-27 -18 -17 185 186 -290 -346 0
-27 -18 -17 -186 -289 -345 0
-27 -18 -17 -186 -289 345 346 0
-27 -18 -17 -186 -289 -346 0
-27 -18 -17 -186 289 290 -345 0
-27 -18 -17 -186 289 290 345 346 0
-27 -18 -17 -186 289 290 -346 0
-27 -18 -17 -186 -290 -345 0
-27 -18 -17 -186 -290 345 346 0
28 19 17 -187 -291 401 402 0
28 19 17 -187 -291 -402 0
28 19 17 -187 291 292 -401 0
28 19 17 -187 291 292 401 402 0
28 19 17 -187 291 292 -402 0
28 19 17 -187 -292 -401 0
28 19 17 -187 -292 401 402 0
28 19 17 -187 -292 -402 0
28 19 17 187 188 -291 -401 0
28 19 17 187 188 -291 401 402 0
28 19 17 187 188 -291 -402 0
28 19 17 187 188 291 292 -401 0
28 19 17 187 188 291 292 -402 0
28 19 17 187 188 -292 -401 0
28 19 17 187 188 -292 401 402 0
28 19 17 187 188 -292 -402 0
28 19 17 -188 -291 -401 0
28 19 17 -188 -291 401 402 0
28 19 17 -188 -291 -402 0
28 19 17 -188 291 292 -401 0
28 19 17 -188 291 292 401 402 0
28 19 17 -188 291 292 -402 0
28 19 17 -188 -292 -401 0
28 19 17 -188 -292 401 402 0
28 19 -17 -187 -291 -401 0
28 19 -17 -187 -291 401 402 0
28 19 -17 -187 291 292 -401 0
28 19 -17 -187 291 292 401 402 0
28 19 -17 -187 291 292 -402 0
28 19 -17 -187 -292 -401 0
28 19 -17 -187 -292 401 402 0
28 19 -17 -187 -292 -402 0
28 19 -17 187 188 -291 -401 0
28 19 -17 187 188 -291 401 402 0
28 19 -17 187 188 -291 -402 0
28 19 -17 187 188 291 292 -401 0
28 19 -17 187 188 291 292 -402 0
28 19 -17 187 188 -292 -401 0
28 19 -17 187 188 -292 401 402 0
28 19 -17 187 188 -292 -402 0
28 19 -17 -188 -291 -401 0
28 19 -17 -188 -291 401 402 0
28 19 -17 -188 -291 -402 0
28 19 -17 -188 291 292 -401 0
28 19 -17 -188 291 292 401 402 0
28 19 -17 -188 291 292 -402 0
28 19 -17 -188 -292 401 402 0
28 19 -17 -188 -292 -402 0
28 -19 17 -187 -291 -401 0
28 -19 17 -187 -291 401 402 0
28 -19 17 -187 -291 -402 0
28 -19 17 -187 291 292 -401 0
28 -19 17 -187 291 292 401 402 0
28 -19 17 -187 291 292 -402 0
28 -19 17 -187 -292 401 402 0
28 -19 17 -187 -292 -402 0
28 -19 17 187 188 -291 -401 0
28 -19 17 187 188 -291 401 402 0
28 -19 17 187 188 -291 -402 0
28 -19 17 187 188 291 292 -401 0
28 -19 17 187 188 291 292 -402 0
28 -19 17 187 188 -292 -401 0
28 -19 17 187 188 -292 401 402 0
28 -19 17 187 188 -292 -402 0
28 -19 17 -188 -291 -401 0
28 -19 17 -188 -291 401 402 0
28 -19 17 -188 291 292 -401 0
28 -19 17 -188 291 292 401 402 0
28 -19 17 -188 291 292 -402 0
28 -19 17 -188 -292 -401 0
28 -19 17 -188 -292 401 402 0
28 -19 17 -188 -292 -402 0
28 -19 -17 -187 -291 -401 0
28 -19 -17 -187 -291 401 402 0
28 -19 -17 -187 -291 -402 0
28 -19 -17 -187 291 292 -401 0
28 -19 -17 -187 291 292 401 402 0
28 -19 -17 -187 291 292 -402 0
28 -19 -17 -187 -292 -401 0
28 -19 -17 -187 -292 401 402 0
28 -19 -17 187 188 -291 -401 0
28 -19 -17 187 188 -291 401 402 0
28 -19 -17 187 188 -291 -402 0
28 -19 -17 187 188 291 292 -401 0
28 -19 -17 187 188 291 292 -402 0
28 -19 -17 187 188 -292 -401 0
28 -19 -17 187 188 -292 401 402 0
28 -19 -17 187 188 -292 -402 0
28 -19 -17 -188 -291 401 402 0
28 -19 -17 -188 -291 -402 0
28 -19 -17 -188 291 292 -401 0
28 -19 -17 -188 291 292 401 402 0
28 -19 -17 -188 291 292 -402 0
28 -19 -17 -188 -292 -401 0
28 -19 -17 -188 -292 401 402 0
28 -19 -17 -188 -292 -402 0
-28 19 17 -187 -291 -401 0
-28 19 17 -187 -291 401 402 0
-28 19 17 -187 -291 -402 0
-28 19 17 -187 291 292 -401 0
-28 19 17 -187 291 292 401 402 0
-28 19 17 -187 291 292 -402 0
-28 19 17 -187 -292 -401 0
-28 19 17 -187 -292 401 402 0
-28 19 17 187 188 -291 -401 0
-28 19 17 187 188 -291 401 402 0
-28 19 17 187 188 -291 -402 0
-28 19 17 187 188 291 292 -401 0
-28 19 17 187 188 291 292 -402 0
-28 19 17 187 188 -292 -401 0
-28 19 17 187 188 -292 401 402 0
-28 19 17 187 188 -292 -402 0
-28 19 17 -188 -291 401 402 0
-28 19 17 -188 -291 -402 0
-28 19 17 -188 291 292 -401 0
-28 19 17 -188 291 292 401 402 0
-28 19 17 -188 291 292 -402 0
-28 19 17 -188 -292 -401 0
-28 19 17 -188 -292 401 402 0
-28 19 17 -188 -292 -402 0
-28 19 -17 -187 -291 -401 0
-28 19 -17 -187 -291 401 402 0
-28 19 -17 -187 -291 -402 0
-28 19 -17 -187 291 292 -401 0
-28 19 -17 -187 291 292 401 402 0
-28 19 -17 -187 291 292 -402 0
-28 19 -17 -187 -292 401 402 0
-28 19 -17 -187 -292 -402 0
-28 19 -17 187 188 -291 -401 0
-28 19 -17 187 188 -291 401 402 0
-28 19 -17 187 188 -291 -402 0
-28 19 -17 187 188 291 292 -401 0
-28 19 -17 187 188 291 292 -402 0
-28 19 -17 187 188 -292 -401 0
-28 19 -17 187 188 -292 401 402 0
-28 19 -17 187 188 -292 -402 0
-28 19 -17 -188 -291 -401 0
-28 19 -17 -188 -291 401 402 0
-28 19 -17 -188 291 292 -401 0
-28 19 -17 -188 291 292 401 402 0
-28 19 -17 -188 291 292 -402 0
-28 19 -17 -188 -292 -401 0
-28 19 -17 -188 -292 401 402 0
-28 19 -17 -188 -292 -402 0
-28 -19 17 -187 -291 -401 0
-28 -19 17 -187 -291 401 402 0
-28 -19 17 -187 291 292 -401 0
-28 -19 17 -187 291 292 401 402 0
-28 -19 17 -187 291 292 -402 0
-28 -19 17 -187 -292 -401 0
-28 -19 17 -187 -292 401 402 0
-28 -19 17 -187 -292 -402 0
-28 -19 17 187 188 -291 -401 0
-28 -19 17 187 188 -291 401 402 0
-28 -19 17 187 188 -291 -402 0
-28 -19 17 187 188 291 292 -401 0
-28 -19 17 187 188 291 292 -402 0
-28 -19 17 187 188 -292 -401 0
-28 -19 17 187 188 -292 401 402 0
-28 -19 17 187 188 -292 -402 0
-28 -19 17 -188 -291 -401 0
-28 -19 17 -188 -291 401 402 0
-28 -19 17 -188 -291 -402 0
-28 -19 17 -188 291 292 -401 0
-28 -19 17 -188 291 292 401 402 0
-28 -19 17 -188 291 292 -402 0
-28 -19 17 -188 -292 401 402 0
-28 -19 17 -188 -292 -402 0
-28 -19 -17 -187 -291 401 402 0
-28 -19 -17 -187 -291 -402 0
-28 -19 -17 -187 291 292 -401 0
-28 -19 -17 -187 291 292 401 402 0
-28 -19 -17 -187 291 292 -402 0
-28 -19 -17 -187 -292 -401 0
-28 -19 -17 -187 -292 401 402 0
-28 -19 -17 -187 -292 -402 0
-28 -19 -17 187 188 -291 -401 0
-28 -19 -17 187 188 -291 401 402 0
-28 -19 -17 187 188 -291 -402 0
-28 -19 -17 187 188 291 292 -401 0
-28 -19 -17 187 188 291 292 -402 0
-28 -19 -17 187 188 -292 -401 0
-28 -19 -17 187 188 -292 401 402 0
-28 -19 -17 187 188 -292 -402 0
-28 -19 -17 -188 -291 -401 0
-28 -19 -17 -188 -291 401 402 0
-28 -19 -17 -188 -291 -402 0
-28 -19 -17 -188 291 292 -401 0
-28 -19 -17 -188 291 292 401 402 0
-28 -19 -17 -188 291 292 -402 0
-28 -19 -17 -188 -292 -401 0
-28 -19 -17 -188 -292 401 402 0
29 20 17 -189 -293 457 458 0
29 20 17 -189 -293 -458 0
29 20 17 -189 293 294 -457 0
29 20 17 -189 293 294 457 458 0
29 20 17 -189 293 294 -458 0
29 20 17 -189 -294 -457 0
29 20 17 -189 -294 457 458 0
29 20 17 -189 -294 -458 0
29 20 17 189 190 -293 -457 0
29 20 17 189 190 -293 457 458 0
29 20 17 189 190 -293 -458 0
29 20 17 189 190 293 294 -457 0
29 20 17 189 190 293 294 -458 0
29 20 17 189 190 -294 -457 0
29 20 17 189 190 -294 457 458 0
29 20 17 189 190 -294 -458 0
29 20 17 -190 -293 -457 0
29 20 17 -190 -293 457 458 0
29 20 17 -190 -293 -458 0
29 20 17 -190 293 294 -457 0
29 20 17 -190 293 294 457 458 0
29 20 17 -190 293 294 -458 0
29 20 17 -190 -294 -457 0
29 20 17 -190 -294 457 458 0
29 20 -17 -189 -293 -457 0
29 20 -17 -189 -293 457 458 0
29 20 -17 -189 293 294 -457 0
29 20 -17 -189 293 294 457 458 0
29 20 -17 -189 293 294 -458 0
29 20 -17 -189 -294 -457 0
29 20 -17 -189 -294 457 458 0
29 20 -17 -189 -294 -458 0
29 20 -17 189 190 -293 -457 0
29 20 -17 189 190 -293 457 458 0
29 20 -17 189 190 -293 -458 0
29 20 -17 189 190 293 294 -457 0
29 20 -17 189 190 293 294 -458 0
29 20 -17 189 190 -294 -457 0
29 20 -17 189 190 -294 457 458 0
29 20 -17 189 190 -294 -458 0
29 20 -17 -190 -293 -457 0
29 20 -17 -190 -293 457 458 0
29 20 -17 -190 -293 -458 0
29 20 -17 -190 293 294 -457 0
29 20 -17 -190 293 294 457 458 0
29 20 -17 -190 293 294 -458 0
29 20 -17 -190 -294 457 458 0
29 20 -17 -190 -294 -458 0
29 -20 17 -189 -293 -457 0
29 -20 17 -189 -293 457 458 0
29 -20 17 -189 -293 -458 0
29 -20 17 -189 293 294 -457 0
29 -20 17 -189 293 294 457 458 0
29 -20 17 -189 293 294 -458 0
29 -20 17 -189 -294 457 458 0
29 -20 17 -189 -294 -458 0
29 -20 17 189 190 -293 -457 0
29 -20 17 189 190 -293 457 458 0
29 -20 17 189 190 -293 -458 0
29 -20 17 189 190 293 294 -457 0
29 -20 17 189 190 293 294 -458 0
29 -20 17 189 190 -294 -457 0
29 -20 17 189 190 -294 457 458 0
29 -20 17 189 190 -294 -458 0
29 -20 17 -190 -293 -457 0
29 -20 17 -190 -293 457 458 0
29 -20 17 -190 293 294 -457 0
29 -20 17 -190 293 294 457 458 0
29 -20 17 -190 293 294 -458 0
29 -20 17 -190 -294 -457 0
29 -20 17 -190 -294 457 458 0
29 -20 17 -190 -294 -458 0
29 -20 -17 -189 -293 -457 0
29 -20 -17 -189 -293 457 458 0
29 -20 -17 -189 -293 -458 0
29 -20 -17 -189 293 294 -457 0
29 -20 -17 -189 293 294 457 458 0
29 -20 -17 -189 293 294 -458 0
29 -20 -17 -189 -294 -457 0
29 -20 -17 -189 -294 457 458 0
29 -20 -17 189 190 -293 -457 0
29 -20 -17 189 190 -293 457 458 0
29 -20 -17 189 190 -293 -458 0
29 -20 -17 189 190 293 294 -457 0
29 -20 -17 189 190 293 294 -458 0
29 -20 -17 189 190 -294 -457 0
29 -20 -17 189 190 -294 457 458 0
29 -20 -17 189 190 -294 -458 0
29 -20 -17 -190 -293 457 458 0
29 -20 -17 -190 -293 -458 0
29 -20 -17 -190 293 294 -457 0
29 -20 -17 -190 293 294 457 458 0
29 -20 -17 -190 293 294 -458 0
29 -20 -17 -190 -294 -457 0
29 -20 -17 -190 -294 457 458 0
29 -20 -17 -190 -294 -458 0
-29 20 17 -189 -293 -457 0
-29 20 17 -189 -293 457 458 0
-29 20 17 -189 -293 -458 0
-29 20 17 -189 293 294 -457 0
-29 20 17 -189 293 294 457 458 0
-29 20 17 -189 293 294 -458 0
-29 20 17 -189 -294 -457 0
-29 20 17 -189 -294 457 458 0
-29 20 17 189 190 -293 -457 0
-29 20 17 189 190 -293 457 458 0
-29 20 17 189 190 -293 -458 0
-29 20 17 189 190 293 294 -457 0
-29 20 17 189 190 293 294 -458 0
-29 20 17 189 190 -294 -457 0
-29 20 17 189 190 -294 457 458 0
-29 20 17 189 190 -294 -458 0
-29 20 17 -190 -293 457 458 0
-29 20 17 -190 -293 -458 0
-29 20 17 -190 293 294 -457 0
-29 20 17 -190 293 294 457 458 0
-29 20 17 -190 293 294 -458 0
-29 20 17 -190 -294 -457 0
-29 20 17 -190 -294 457 458 0
-29 20 17 -190 -294 -458 0
-29 20 -17 -189 -293 -457 0
-29 20 -17 -189 -293 457 458 0
-29 20 -17 -189 -293 -458 0
-29 20 -17 -189 293 294 -457 0
-29 20 -17 -189 293 294 457 458 0
-29 20 -17 -189 293 294 -458 0
-29 20 -17 -189 -294 457 458 0
-29 20 -17 -189 -294 -458 0
-29 20 -17 189 190 -293 -457 0
-29 20 -17 189 190 -293 457 458 0
-29 20 -17 189 190 -293 -458 0
-29 20 -17 189 190 293 294 -457 0
-29 20 -17 189 190 293 294 -458 0
-29 20 -17 189 190 -294 -457 0
-29 20 -17 189 190 -294 457 458 0
-29 20 -17 189 190 -294 -458 0
-29 20 -17 -190 -293 -457 0
-29 20 -17 -190 -293 457 458 0
-29 20 -17 -190 293 294 -457 0
-29 20 -17 -190 293 294 457 458 0
-29 20 -17 -190 293 294 -458 0
-29 20 -17 -190 -294 -457 0
-29 20 -17 -190 -294 457 458 0
-29 20 -17 -190 -294 -458 0
-29 -20 17 -189 -293 -457 0
-29 -20 17 -189 -293 457 458 0
-29 -20 17 -189 293 294 -457 0
-29 -20 17 -189 293 294 457 458 0
-29 -20 17 -189 293 294 -458 0
-29 -20 17 -189 -294 -457 0
-29 -20 17 -189 -294 457 458 0
-29 -20 17 -189 -294 -458 0
-29 -20 17 189 190 -293 -457 0
-29 -20 17 189 190 -293 457 458 0
-29 -20 17 189 190 -293 -458 0
-29 -20 17 189 190 293 294 -457 0
-29 -20 17 189 190 293 294 -458 0
-29 -20 17 189 190 -294 -457 0
-29 -20 17 189 190 -294 457 458 0
-29 -20 17 189 190 -294 -458 0
-29 -20 17 -190 -293 -457 0
-29 -20 17 -190 -293 457 458 0
-29 -20 17 -190 -293 -458 0
-29 -20 17 -190 293 294 -457 0
-29 -20 17 -190 293 294 457 458 0
-29 -20 17 -190 293 294 -458 0
-29 -20 17 -190 -294 457 458 0
-29 -20 17 -190 -294 -458 0
-29 -20 -17 -189 -293 457 458 0
-29 -20 -17 -189 -293 -458 0
-29 -20 -17 -189 293 294 -457 0
-29 -20 -17 -189 293 294 457 458 0
-29 -20 -17 -189 293 294 -458 0
-29 -20 -17 -189 -294 -457 0
-29 -20 -17 -189 -294 457 458 0
-29 -20 -17 -189 -294 -458 0
-29 -20 -17 189 190 -293 -457 0
-29 -20 -17 189 190 -293 457 458 0
-29 -20 -17 189 190 -293 -458 0
-29 -20 -17 189 190 293 294 -457 0
-29 -20 -17 189 190 293 294 -458 0
-29 -20 -17 189 190 -294 -457 0
-29 -20 -17 189 190 -294 457 458 0
-29 -20 -17 189 190 -294 -458 0
-29 -20 -17 -190 -293 -457 0
-29 -20 -17 -190 -293 457 458 0
-29 -20 -17 -190 -293 -458 0
-29 -20 -17 -190 293 294 -457 0
-29 -20 -17 -190 293 294 457 458 0
-29 -20 -17 -190 293 294 -458 0
-29 -20 -17 -190 -294 -457 0
-29 -20 -17 -190 -294 457 458 0
30 21 17 -191 -295 513 514 0
30 21 17 -191 -295 -514 0
30 21 17 -191 295 296 -513 0
30 21 17 -191 295 296 513 514 0
30 21 17 -191 295 296 -514 0
30 21 17 -191 -296 -513 0
30 21 17 -191 -296 513 514 0
30 21 17 -191 -296 -514 0
30 21 17 191 192 -295 -513 0
30 21 17 191 192 -295 513 514 0
30 21 17 191 192 -295 -514 0
30 21 17 191 192 295 296 -513 0
30 21 17 191 192 295 296 -514 0
30 21 17 191 192 -296 -513 0
30 21 17 191 192 -296 513 514 0
30 21 17 191 192 -296 -514 0
30 21 17 -192 -295 -513 0
30 21 17 -192 -295 513 514 0
30 21 17 -192 -295 -514 0
30 21 17 -192 295 296 -513 0
30 21 17 -192 295 296 513 514 0
30 21 17 -192 295 296 -514 0
30 21 17 -192 -296 -513 0
30 21 17 -192 -296 513 514 0
30 21 -17 -191 -295 -513 0
30 21 -17 -191 -295 513 514 0
30 21 -17 -191 295 296 -513 0
30 21 -17 -191 295 296 513 514 0
30 21 -17 -191 295 296 -514 0
30 21 -17 -191 -296 -513 0
30 21 -17 -191 -296 513 514 0
30 21 -17 -191 -296 -514 0
30 21 -17 191 192 -295 -513 0
30 21 -17 191 192 -295 513 514 0
30 21 -17 191 192 -295 -514 0
30 21 -17 191 192 295 296 -513 0
30 21 -17 191 192 295 296 -514 0
30 21 -17 191 192 -296 -513 0
30 21 -17 191 192 -296 513 514 0
30 21 -17 191 192 -296 -514 0
30 21 -17 -192 -295 -513 0
30 21 -17 -192 -295 513 514 0
30 21 -17 -192 -295 -514 0
30 21 -17 -192 295 296 -513 0
30 21 -17 -192 295 296 513 514 0
30 21 -17 -192 295 296 -514 0
30 21 -17 -192 -296 513 514 0
30 21 -17 -192 -296 -514 0
30 -21 17 -191 -295 -513 0
30 -21 17 -191 -295 513 514 0
30 -21 17 -191 -295 -514 0
30 -21 17 -191 295 296 -513 0
30 -21 17 -191 295 296 513 514 0
30 -21 17 -191 295 296 -514 0
30 -21 17 -191 -296 513 514 0
30 -21 17 -191 -296 -514 0
30 -21 17 191 192 -295 -513 0
30 -21 17 191 192 -295 513 514 0
30 -21 17 191 192 -295 -514 0
30 -21 17 191 192 295 296 -513 0
30 -21 17 191 192 295 296 -514 0
30 -21 17 191 192 -296 -513 0
30 -21 17 191 192 -296 513 514 0
30 -21 17 191 192 -296 -514 0
30 -21 17 -192 -295 -513 0
30 -21 17 -192 -295 513 514 0
30 -21 17 -192 295 296 -513 0
30 -21 17 -192 295 296 513 514 0
30 -21 17 -192 295 296 -514 0
30 -21 17 -192 -296 -513 0
30 -21 17 -192 -296 513 514 0
30 -21 17 -192 -296 -514 0
30 -21 -17 -191 -295 -513 0
30 -21 -17 -191 -295 513 514 0
30 -21 -17 -191 -295 -514 0
30 -21 -17 -191 295 296 -513 0
30 -21 -17 -191 295 296 513 514 0
30 -21 -17 -191 295 296 -514 0
30 -21 -17 -191 -296 -513 0
30 -21 -17 -191 -296 513 514 0
30 -21 -17 191 192 -295 -513 0
30 -21 -17 191 192 -295 513 514 0
30 -21 -17 191 192 -295 -514 0
30 -21 -17 191 192 295 296 -513 0
30 -21 -17 191 192 295 296 -514 0
30 -21 -17 191 192 -296 -513 0
30 -21 -17 191 192 -296 513 514 0
30 -21 -17 191 192 -296 -514 0
30 -21 -17 -192 -295 513 514 0
30 -21 -17 -192 -295 -514 0
30 -21 -17 -192 295 296 -513 0
30 -21 -17 -192 295 296 513 514 0
30 -21 -17 -192 295 296 -514 0
30 -21 -17 -192 -296 -513 0
30 -21 -17 -192 -296 513 514 0
30 -21 -17 -192 -296 -514 0
-30 21 17 -191 -295 -513 0
-30 21 17 -191 -295 513 514 0
-30 21 17 -191 -295 -514 0
-30 21 17 -191 295 296 -513 0
-30 21 17 -191 295 296 513 514 0
-30 21 17 -191 295 296 -514 0
-30 21 17 -191 -296 -513 0
-30 21 17 -191 -296 513 514 0
-30 21 17 191 192 -295 -513 0
-30 21 17 191 192 -295 513 514 0
-30 21 17 191 192 -295 -514 0
-30 21 17 191 192 295 296 -513 0
-30 21 17 191 192 295 296 -514 0
-30 21 17 191 192 -296 -513 0
-30 21 17 191 192 -296 513 514 0
-30 21 17 191 192 -296 -514 0
-30 21 17 -192 -295 513 514 0
-30 21 17 -192 -295 -514 0
-30 21 17 -192 295 296 -513 0
-30 21 17 -192 295 296 513 514 0
-30 21 17 -192 295 296 -514 0
-30 21 17 -192 -296 -513 0
-30 21 17 -192 -296 513 514 0
-30 21 17 -192 -296 -514 0
-30 21 -17 -191 -295 -513 0
-30 21 -17 -191 -295 513 514 0
-30 21 -17 -191 -295 -514 0
-30 21 -17 -191 295 296 -513 0
-30 21 -17 -191 295 296 513 514 0
-30 21 -17 -191 295 296 -514 0
-30 21 -17 -191 -296 513 514 0
-30 21 -17 -191 -296 -514 0
-30 21 -17 191 192 -295 -513 0
-30 21 -17 191 192 -295 513 514 0
-30 21 -17 191 192 -295 -514 0
-30 21 -17 191 192 295 296 -513 0
-30 21 -17 191 192 295 296 -514 0
-30 21 -17 191 192 -296 -513 0
-30 21 -17 191 192 -296 513 514 0
-30 21 -17 191 192 -296 -514 0
-30 21 -17 -192 -295 -513 0
-30 21 -17 -192 -295 513 514 0
-30 21 -17 -192 295 296 -513 0
-30 21 -17 -192 295 296 513 514 0
-30 21 -17 -192 295 296 -514 0
-30 21 -17 -192 -296 -513 0
-30 21 -17 -192 -296 513 514 0
-30 21 -17 -192 -296 -514 0
-30 -21 17 -191 -295 -513 0
-30 -21 17 -191 -295 513 514 0
-30 -21 17 -191 295 296 -513 0
-30 -21 17 -191 295 296 513 514 0
-30 -21 17 -191 295 296 -514 0
-30 -21 17 -191 -296 -513 0
-30 -21 17 -191 -296 513 514 0
-30 -21 17 -191 -296 -514 0
-30 -21 17 191 192 -295 -513 0
-30 -21 17 191 192 -295 513 514 0
-30 -21 17 191 192 -295 -514 0
-30 -21 17 191 192 295 296 -513 0
-30 -21 17 191 192 295 296 -514 0
-30 -21 17 191 192 -296 -513 0
-30 -21 17 191 192 -296 513 514 0
-30 -21 17 191 192 -296 -514 0
-30 -21 17 -192 -295 -513 0
-30 -21 17 -192 -295 513 514 0
-30 -21 17 -192 -295 -514 0
-30 -21 17 -192 295 296 -513 0
-30 -21 17 -192 295 296 513 514 0
-30 -21 17 -192 295 296 -514 0
-30 -21 17 -192 -296 513 514 0
-30 -21 17 -192 -296 -514 0
-30 -21 -17 -191 -295 513 514 0
-30 -21 -17 -191 -295 -514 0
-30 -21 -17 -191 295 296 -513 0
-30 -21 -17 -191 295 296 513 514 0
-30 -21 -17 -191 295 296 -514 0
-30 -21 -17 -191 -296 -513 0
-30 -21 -17 -191 -296 513 514 0
-30 -21 -17 -191 -296 -514 0
-30 -21 -17 191 192 -295 -513 0
-30 -21 -17 191 192 -295 513 514 0
-30 -21 -17 191 192 -295 -514 0
-30 -21 -17 191 192 295 296 -513 0
-30 -21 -17 191 192 295 296 -514 0
-30 -21 -17 191 192 -296 -513 0
-30 -21 -17 191 192 -296 513 514 0
-30 -21 -17 191 192 -296 -514 0
-30 -21 -17 -192 -295 -513 0
-30 -21 -17 -192 -295 513 514 0
-30 -21 -17 -192 -295 -514 0
-30 -21 -17 -192 295 296 -513 0
-30 -21 -17 -192 295 296 513 514 0
-30 -21 -17 -192 295 296 -514 0
-30 -21 -17 -192 -296 -513 0
-30 -21 -17 -192 -296 513 514 0
31 19 18 -193 -347 403 404 0
31 19 18 -193 -347 -404 0
31 19 18 -193 347 348 -403 0
31 19 18 -193 347 348 403 404 0
31 19 18 -193 347 348 -404 0
31 19 18 -193 -348 -403 0
31 19 18 -193 -348 403 404 0
31 19 18 -193 -348 -404 0
31 19 18 193 194 -347 -403 0
31 19 18 193 194 -347 403 404 0
31 19 18 193 194 -347 -404 0
31 19 18 193 194 347 348 -403 0
31 19 18 193 194 347 348 -404 0
31 19 18 193 194 -348 -403 0
31 19 18 193 194 -348 403 404 0
31 19 18 193 194 -348 -404 0
31 19 18 -194 -347 -403 0
31 19 18 -194 -347 403 404 0
31 19 18 -194 -347 -404 0
31 19 18 -194 347 348 -403 0
31 19 18 -194 347 348 403 404 0
31 19 18 -194 347 348 -404 0
31 19 18 -194 -348 -403 0
31 19 18 -194 -348 403 404 0
31 19 -18 -193 -347 -403 0
31 19 -18 -193 -347 403 404 0
31 19 -18 -193 347 348 -403 0
31 19 -18 -193 347 348 403 404 0
31 19 -18 -193 347 348 -404 0
31 19 -18 -193 -348 -403 0
31 19 -18 -193 -348 403 404 0
31 19 -18 -193 -348 -404 0
31 19 -18 193 194 -347 -403 0
31 19 -18 193 194 -347 403 404 0
31 19 -18 193 194 -347 -404 0
31 19 -18 193 194 347 348 -403 0
31 19 -18 193 194 347 348 -404 0
31 19 -18 193 194 -348 -403 0
31 19 -18 193 194 -348 403 404 0
31 19 -18 193 194 -348 -404 0
31 19 -18 -194 -347 -403 0
31 19 -18 -194 -347 403 404 0
31 19 -18 -194 -347 -404 0
31 19 -18 -194 347 348 -403 0
31 19 -18 -194 347 348 403 404 0
31 19 -18 -194 347 348 -404 0
31 19 -18 -194 -348 403 404 0
31 19 -18 -194 -348 -404 0
31 -19 18 -193 -347 -403 0
31 -19 18 -193 -347 403 404 0
31 -19 18 -193 -347 -404 0
31 -19 18 -193 347 348 -403 0
31 -19 18 -193 347 348 403 404 0
31 -19 18 -193 347 348 -404 0
31 -19 18 -193 -348 403 404 0
31 -19 18 -193 -348 -404 0
31 -19 18 193 194 -347 -403 0
31 -19 18 193 194 -347 403 404 0
31 -19 18 193 194 -347 -404 0
31 -19 18 193 194 347 348 -403 0
31 -19 18 193 194 347 348 -404 0
31 -19 18 193 194 -348 -403 0
31 -19 18 193 194 -348 403 404 0
31 -19 18 193 194 -348 -404 0
31 -19 18 -194 -347 -403 0
31 -19 18 -194 -347 403 404 0
31 -19 18 -194 347 348 -403 0
31 -19 18 -194 347 348 403 404 0
31 -19 18 -194 347 348 -404 0
31 -19 18 -194 -348 -403 0
31 -19 18 -194 -348 403 404 0
31 -19 18 -194 -348 -404 0
31 -19 -18 -193 -347 -403 0
31 -19 -18 -193 -347 403 404 0
31 -19 -18 -193 -347 -404 0
31 -19 -18 -193 347 348 -403 0
31 -19 -18 -193 347 348 403 404 0
31 -19 -18 -193 347 348 -404 0
31 -19 -18 -193 -348 -403 0
31 -19 -18 -193 -348 403 404 0
31 -19 -18 193 194 -347 -403 0
31 -19 -18 193 194 -347 403 404 0
31 -19 -18 193 194 -347 -404 0
31 -19 -18 193 194 347 348 -403 0
31 -19 -18 193 194 347 348 -404 0
31 -19 -18 193 194 -348 -403 0
31 -19 -18 193 194 -348 403 404 0
31 -19 -18 193 194 -348 -404 0
31 -19 -18 -194 -347 403 404 0
31 -19 -18 -194 -347 -404 0
31 -19 -18 -194 347 348 -403 0
31 -19 -18 -194 347 348 403 404 0
31 -19 -18 -194 347 348 -404 0
31 -19 -18 -194 -348 -403 0
31 -19 -18 -194 -348 403 404 0
31 -19 -18 -194 -348 -404 0
-31 19 18 -193 -347 -403 0
-31 19 18 -193 -347 403 404 0
-31 19 18 -193 -347 -404 0
-31 19 18 -193 347 348 -403 0
-31 19 18 -193 347 348 403 404 0
-31 19 18 -193 347 348 -404 0
-31 19 18 -193 -348 -403 0
-31 19 18 -193 -348 403 404 0
-31 19 18 193 194 -347 -403 0
-31 19 18 193 194 -347 403 404 0
-31 19 18 193 194 -347 -404 0
-31 19 18 193 194 347 348 -403 0
-31 19 18 193 194 347 348 -404 0
-31 19 18 193 194 -348 -403 0
-31 19 18 193 194 -348 403 404 0
-31 19 18 193 194 -348 -404 0
-31 19 18 -194 -347 403 404 0
-31 19 18 -194 -347 -404 0
-31 19 18 -194 347 348 -403 0
-31 19 18 -194 347 348 403 404 0
-31 19 18 -194 347 348 -404 0
-31 19 18 -194 -348 -403 0
-31 19 18 -194 -348 403 404 0
-31 19 18 -194 -348 -404 0
-31 19 -18 -193 -347 -403 0
-31 19 -18 -193 -347 403 404 0
-31 19 -18 -193 -347 -404 0
-31 19 -18 -193 347 348 -403 0
-31 19 -18 -193 347 348 403 404 0
-31 19 -18 -193 347 348 -404 0
-31 19 -18 -193 -348 403 404 0
-31 19 -18 -193 -348 -404 0
-31 19 -18 193 194 -347 -403 0
-31 19 -18 193 194 -347 403 404 0
-31 19 -18 193 194 -347 -404 0
-31 19 -18 193 194 347 348 -403 0
-31 19 -18 193 194 347 348 -404 0
-31 19 -18 193 194 -348 -403 0
-31 19 -18 193 194 -348 403 404 0
-31 19 -18 193 194 -348 -404 0
-31 19 -18 -194 -347 -403 0
-31 19 -18 -194 -347 403 404 0
-31 19 -18 -194 347 348 -403 0
-31 19 -18 -194 347 348 403 404 0
-31 19 -18 -194 347 348 -404 0
-31 19 -18 -194 -348 -403 0
-31 19 -18 -194 -348 403 404 0
-31 19 -18 -194 -348 -404 0
-31 -19 18 -193 -347 -403 0
-31 -19 18 -193 -347 403 404 0
-31 -19 18 -193 347 348 -403 0
-31 -19 18 -193 347 348 403 404 0
-31 -19 18 -193 347 348 -404 0
-31 -19 18 -193 -348 -403 0
-31 -19 18 -193 -348 403 404 0
-31 -19 18 -193 -348 -404 0
-31 -19 18 193 194 -347 -403 0
-31 -19 18 193 194 -347 403 404 0
-31 -19 18 193 194 -347 -404 0
-31 -19 18 193 194 347 348 -403 0
-31 -19 18 193 194 347 348 -404 0
-31 -19 18 193 194 -348 -403 0
-31 -19 18 193 194 -348 403 404 0
-31 -19 18 193 194 -348 -404 0
-31 -19 18 -194 -347 -403 0
-31 -19 18 -194 -347 403 404 0
-31 -19 18 -194 -347 -404 0
-31 -19 18 -194 347 348 -403 0
-31 -19 18 -194 347 348 403 404 0
-31 -19 18 -194 347 348 -404 0
-31 -19 18 -194 -348 403 404 0
-31 -19 18 -194 -348 -404 0
-31 -19 -18 -193 -347 403 404 0
-31 -19 -18 -193 -347 -404 0
-31 -19 -18 -193 347 348 -403 0
-31 -19 -18 -193 347 348 403 404 0
-31 -19 -18 -193 347 348 -404 0
-31 -19 -18 -193 -348 -403 0
-31 -19 -18 -193 -348 403 404 0
-31 -19 -18 -193 -348 -404 0
-31 -19 -18 193 194 -347 -403 0
-31 -19 -18 193 194 -347 403 404 0
-31 -19 -18 193 194 -347 -404 0
-31 -19 -18 193 194 347 348 -403 0
-31 -19 -18 193 194 347 348 -404 0
-31 -19 -18 193 194 -348 -403 0
-31 -19 -18 193 194 -348 403 404 0
-31 -19 -18 193 194 -348 -404 0
-31 -19 -18 -194 -347 -403 0
-31 -19 -18 -194 -347 403 404 0
-31 -19 -18 -194 -347 -404 0
-31 -19 -18 -194 347 348 -403 0
-31 -19 -18 -194 347 348 403 404 0
-31 -19 -18 -194 347 348 -404 0
-31 -19 -18 -194 -348 -403 0
-31 -19 -18 -194 -348 403 404 0
32 20 18 -195 -349 459 460 0
32 20 18 -195 -349 -460 0
32 20 18 -195 349 350 -459 0
32 20 18 -195 349 350 459 460 0
32 20 18 -195 349 350 -460 0
32 20 18 -195 -350 -459 0
32 20 18 -195 -350 459 460 0
32 20 18 -195 -350 -460 0
32 20 18 195 196 -349 -459 0
32 20 18 195 196 -349 459 460 0
32 20 18 195 196 -349 -460 0
32 20 18 195 196 349 350 -459 0
32 20 18 195 196 349 350 -460 0
32 20 18 195 196 -350 -459 0
32 20 18 195 196 -350 459 460 0
32 20 18 195 196 -350 -460 0
32 20 18 -196 -349 -459 0
32 20 18 -196 -349 459 460 0
32 20 18 -196 -349 -460 0
32 20 18 -196 349 350 -459 0
32 20 18 -196 349 350 459 460 0
32 20 18 -196 349 350 -460 0
32 20 18 -196 -350 -459 0
32 20 18 -196 -350 459 460 0
32 20 -18 -195 -349 -459 0
32 20 -18 -195 -349 459 460 0
32 20 -18 -195 349 350 -459 0
32 20 -18 -195 349 350 459 460 0
32 20 -18 -195 349 350 -460 0
32 20 -18 -195 -350 -459 0
32 20 -18 -195 -350 459 460 0
32 20 -18 -195 -350 -460 0
32 20 -18 195 196 -349 -459 0
32 20 -18 195 196 -349 459 460 0
32 20 -18 195 196 -349 -460 0
32 20 -18 195 196 349 350 -459 0
32 20 -18 195 196 349 350 -460 0
32 20 -18 195 196 -350 -459 0
32 20 -18 195 196 -350 459 460 0
32 20 -18 195 196 -350 -460 0
32 20 -18 -196 -349 -459 0
32 20 -18 -196 -349 459 460 0
32 20 -18 -196 -349 -460 0
32 20 -18 -196 349 350 -459 0
32 20 -18 -196 349 350 459 460 0
32 20 -18 -196 349 350 -460 0
32 20 -18 -196 -350 459 460 0
32 20 -18 -196 -350 -460 0
32 -20 18 -195 -349 -459 0
32 -20 18 -195 -349 459 460 0
32 -20 18 -195 -349 -460 0
32 -20 18 -195 349 350 -459 0
32 -20 18 -195 349 350 459 460 0
32 -20 18 -195 349 350 -460 0
32 -20 18 -195 -350 459 460 0
32 -20 18 -195 -350 -460 0
32 -20 18 195 196 -349 -459 0
32 -20 18 195 196 -349 459 460 0
32 -20 18 195 196 -349 -460 0
32 -20 18 195 196 349 350 -459 0
32 -20 18 195 196 349 350 -460 0
32 -20 18 195 196 -350 -459 0
32 -20 18 195 196 -350 459 460 0
32 -20 18 195 196 -350 -460 0
32 -20 18 -196 -349 -459 0
32 -20 18 -196 -349 459 460 0
32 -20 18 -196 349 350 -459 0
32 -20 18 -196 349 350 459 460 0
32 -20 18 -196 349 350 -460 0
32 -20 18 -196 -350 -459 0
32 -20 18 -196 -350 459 460 0
32 -20 18 -196 -350 -460 0
32 -20 -18 -195 -349 -459 0
32 -20 -18 -195 -349 459 460 0
32 -20 -18 -195 -349 -460 0
32 -20 -18 -195 349 350 -459 0
32 -20 -18 -195 349 350 459 460 0
32 -20 -18 -195 349 350 -460 0
32 -20 -18 -195 -350 -459 0
32 -20 -18 -195 -350 459 460 0
32 -20 -18 195 196 -349 -459 0
32 -20 -18 195 196 -349 459 460 0
32 -20 -18 195 196 -349 -460 0
32 -20 -18 195 196 349 350 -459 0
32 -20 -18 195 196 349 350 -460 0
32 -20 -18 195 196 -350 -459 0
32 -20 -18 195 196 -350 459 460 0
32 -20 -18 195 196 -350 -460 0
32 -20 -18 -196 -349 459 460 0
32 -20 -18 -196 -349 -460 0
32 -20 -18 -196 349 350 -459 0
32 -20 -18 -196 349 350 459 460 0
32 -20 -18 -196 349 350 -460 0
32 -20 -18 -196 -350 -459 0
32 -20 -18 -196 -350 459 460 0
32 -20 -18 -196 -350 -460 0
-32 20 18 -195 -349 -459 0
-32 20 18 -195 -349 459 460 0
-32 20 18 -195 -349 -460 0
-32 20 18 -195 349 350 -459 0
-32 20 18 -195 349 350 459 460 0
-32 20 18 -195 349 350 -460 0
-32 20 18 -195 -350 -459 0
-32 20 18 -195 -350 459 460 0
-32 20 18 195 196 -349 -459 0
-32 20 18 195 196 -349 459 460 0
-32 20 18 195 196 -349 -460 0
-32 20 18 195 196 349 350 -459 0
-32 20 18 195 196 349 350 -460 0
-32 20 18 195 196 -350 -459 0
-32 20 18 195 196 -350 459 460 0
-32 20 18 195 196 -350 -460 0
-32 20 18 -196 -349 459 460 0
-32 20 18 -196 -349 -460 0
-32 20 18 -196 349 350 -459 0
-32 20 18 -196 349 350 459 460 0
-32 20 18 -196 349 350 -460 0
-32 20 18 -196 -350 -459 0
-32 20 18 -196 -350 459 460 0
-32 20 18 -196 -350 -460 0
-32 20 -18 -195 -349 -459 0
-32 20 -18 -195 -349 459 460 0
-32 20 -18 -195 -349 -460 0
-32 20 -18 -195 349 350 -459 0
-32 20 -18 -195 349 350 459 460 0
-32 20 -18 -195 349 350 -460 0
-32 20 -18 -195 -350 459 460 0
-32 20 -18 -195 -350 -460 0
-32 20 -18 195 196 -349 -459 0
-32 20 -18 195 196 -349 459 460 0
-32 20 -18 195 196 -349 -460 0
-32 20 -18 195 196 349 350 -459 0
-32 20 -18 195 196 349 350 -460 0
-32 20 -18 195 196 -350 -459 0
-32 20 -18 195 196 -350 459 460 0
-32 20 -18 195 196 -350 -460 0
-32 20 -18 -196 -349 -459 0
-32 20 -18 -196 -349 459 460 0
-32 20 -18 -196 349 350 -459 0
-32 20 -18 -196 349 350 459 460 0
-32 20 -18 -196 349 350 -460 0
-32 20 -18 -196 -350 -459 0
-32 20 -18 -196 -350 459 460 0
-32 20 -18 -196 -350 -460 0
-32 -20 18 -195 -349 -459 0
-32 -20 18 -195 -349 459 460 0
-32 -20 18 -195 349 350 -459 0
-32 -20 18 -195 349 350 459 460 0
-32 -20 18 -195 349 350 -460 0
-32 -20 18 -195 -350 -459 0
-32 -20 18 -195 -350 459 460 0
-32 -20 18 -195 -350 -460 0
-32 -20 18 195 196 -349 -459 0
-32 -20 18 195 196 -349 459 460 0
-32 -20 18 195 196 -349 -460 0
-32 -20 18 195 196 349 350 -459 0
-32 -20 18 195 196 349 350 -460 0
-32 -20 18 195 196 -350 -459 0
-32 -20 18 195 196 -350 459 460 0
-32 -20 18 195 196 -350 -460 0
-32 -20 18 -196 -349 -459 0
-32 -20 18 -196 -349 459 460 0
-32 -20 18 -196 -349 -460 0
-32 -20 18 -196 349 350 -459 0
-32 -20 18 -196 349 350 459 460 0
-32 -20 18 -196 349 350 -460 0
-32 -20 18 -196 -350 459 460 0
-32 -20 18 -196 -350 -460 0
-32 -20 -18 -195 -349 459 460 0
-32 -20 -18 -195 -349 -460 0
-32 -20 -18 -195 349 350 -459 0
-32 -20 -18 -195 349 350 459 460 0
-32 -20 -18 -195 349 350 -460 0
-32 -20 -18 -195 -350 -459 0
-32 -20 -18 -195 -350 459 460 0
-32 -20 -18 -195 -350 -460 0
-32 -20 -18 195 196 -349 -459 0
-32 -20 -18 195 196 -349 459 460 0
-32 -20 -18 195 196 -349 -460 0
-32 -20 -18 195 196 349 350 -459 0
-32 -20 -18 195 196 349 350 -460 0
-32 -20 -18 195 196 -350 -459 0
-32 -20 -18 195 196 -350 459 460 0
-32 -20 -18 195 196 -350 -460 0
-32 -20 -18 -196 -349 -459 0
-32 -20 -18 -196 -349 459 460 0
-32 -20 -18 -196 -349 -460 0
-32 -20 -18 -196 349 350 -459 0
-32 -20 -18 -196 349 350 459 460 0
-32 -20 -18 -196 349 350 -460 0
-32 -20 -18 -196 -350 -459 0
-32 -20 -18 -196 -350 459 460 0
33 21 18 -197 -351 515 516 0
33 21 18 -197 -351 -516 0
33 21 18 -197 351 352 -515 0
33 21 18 -197 351 352 515 516 0
33 21 18 -197 351 352 -516 0
33 21 18 -197 -352 -515 0
33 21 18 -197 -352 515 516 0
33 21 18 -197 -352 -516 0
33 21 18 197 198 -351 -515 0
33 21 18 197 198 -351 515 516 0
33 21 18 197 198 -351 -516 0
33 21 18 197 198 351 352 -515 0
33 21 18 197 198 351 352 -516 0
33 21 18 197 198 -352 -515 0
33 21 18 197 198 -352 515 516 0
33 21 18 197 198 -352 -516 0
33 21 18 -198 -351 -515 0
33 21 18 -198 -351 515 516 0
33 21 18 -198 -351 -516 0
33 21 18 -198 351 352 -515 0
33 21 18 -198 351 352 515 516 0
33 21 18 -198 351 352 -516 0
33 21 18 -198 -352 -515 0
33 21 18 -198 -352 515 516 0
33 21 -18 -197 -351 -515 0
33 21 -18 -197 -351 515 516 0
33 21 -18 -197 351 352 -515 0
33 21 -18 -197 351 352 515 516 0
33 21 -18 -197 351 352 -516 0
33 21 -18 -197 -352 -515 0
33 21 -18 -197 -352 515 516 0
33 21 -18 -197 -352 -516 0
33 21 -18 197 198 -351 -515 0
33 21 -18 197 198 -351 515 516 0
33 21 -18 197 198 -351 -516 0
33 21 -18 197 198 351 352 -515 0
33 21 -18 197 198 351 352 -516 0
33 21 -18 197 198 -352 -515 0
33 21 -18 197 198 -352 515 516 0
33 21 -18 197 198 -352 -516 0
33 21 -18 -198 -351 -515 0
33 21 -18 -198 -351 515 516 0
33 21 -18 -198 -351 -516 0
33 21 -18 -198 351 352 -515 0
33 21 -18 -198 351 352 515 516 0
33 21 -18 -198 351 352 -516 0
33 21 -18 -198 -352 515 516 0
33 21 -18 -198 -352 -516 0
33 -21 18 -197 -351 -515 0
33 -21 18 -197 -351 515 516 0
33 -21 18 -197 -351 -516 0
33 -21 18 -197 351 352 -515 0
33 -21 18 -197 351 352 515 516 0
33 -21 18 -197 351 352 -516 0
33 -21 18 -197 -352 515 516 0
33 -21 18 -197 -352 -516 0
33 -21 18 197 198 -351 -515 0
33 -21 18 197 198 -351 515 516 0
33 -21 18 197 198 -351 -516 0
33 -21 18 197 198 351 352 -515 0
33 -21 18 197 198 351 352 -516 0
33 -21 18 197 198 -352 -515 0
33 -21 18 197 198 -352 515 516 0
33 -21 18 197 198 -352 -516 0
33 -21 18 -198 -351 -515 0
33 -21 18 -198 -351 515 516 0
33 -21 18 -198 351 352 -515 0
33 -21 18 -198 351 352 515 516 0
33 -21 18 -198 351 352 -516 0
33 -21 18 -198 -352 -515 0
33 -21 18 -198 -352 515 516 0
33 -21 18 -198 -352 -516 0
33 -21 -18 -197 -351 -515 0
33 -21 -18 -197 -351 515 516 0
33 -21 -18 -197 -351 -516 0
33 -21 -18 -197 351 352 -515 0
33 -21 -18 -197 351 352 515 516 0
33 -21 -18 -197 351 352 -516 0
33 -21 -18 -197 -352 -515 0
33 -21 -18 -197 -352 515 516 0
33 -21 -18 197 198 -351 -515 0
33 -21 -18 197 198 -351 515 516 0
33 -21 -18 197 198 -351 -516 0
33 -21 -18 197 198 351 352 -515 0
33 -21 -18 197 198 351 352 -516 0
33 -21 -18 197 198 -352 -515 0
33 -21 -18 197 198 -352 515 516 0
33 -21 -18 197 198 -352 -516 0
33 -21 -18 -198 -351 515 516 0
33 -21 -18 -198 -351 -516 0
33 -21 -18 -198 351 352 -515 0
33 -21 -18 -198 351 352 515 516 0
33 -21 -18 -198 351 352 -516 0
33 -21 -18 -198 -352 -515 0
33 -21 -18 -198 -352 515 516 0
33 -21 -18 -198 -352 -516 0
-33 21 18 -197 -351 -515 0
-33 21 18 -197 -351 515 516 0
-33 21 18 -197 -351 -516 0
-33 21 18 -197 351 352 -515 0
-33 21 18 -197 351 352 515 516 0
-33 21 18 -197 351 352 -516 0
-33 21 18 -197 -352 -515 0
-33 21 18 -197 -352 515 516 0
-33 21 18 197 198 -351 -515 0
-33 21 18 197 198 -351 515 516 0
-33 21 18 197 198 -351 -516 0
-33 21 18 197 198 351 352 -515 0
-33 21 18 197 198 351 352 -516 0
-33 21 18 197 198 -352 -515 0
-33 21 18 197 198 -352 515 516 0
-33 21 18 197 198 -352 -516 0
-33 21 18 -198 -351 515 516 0
-33 21 18 -198 -351 -516 0
-33 21 18 -198 351 352 -515 0
-33 21 18 -198 351 352 515 516 0
-33 21 18 -198 351 352 -516 0
-33 21 18 -198 -352 -515 0
-33 21 18 -198 -352 515 516 0
-33 21 18 -198 -352 -516 0
-33 21 -18 -197 -351 -515 0
-33 21 -18 -197 -351 515 516 0
-33 21 -18 -197 -351 -516 0
-33 21 -18 -197 351 352 -515 0
-33 21 -18 -197 351 352 515 516 0
-33 21 -18 -197 351 352 -516 0
-33 21 -18 -197 -352 515 516 0
-33 21 -18 -197 -352 -516 0
-33 21 -18 197 198 -351 -515 0
-33 21 -18 197 198 -351 515 516 0
-33 21 -18 197 198 -351 -516 0
-33 21 -18 197 198 351 352 -515 0
-33 21 -18 197 198 351 352 -516 0
-33 21 -18 197 198 -352 -515 0
-33 21 -18 197 198 -352 515 516 0
-33 21 -18 197 198 -352 -516 0
-33 21 -18 -198 -351 -515 0
-33 21 -18 -198 -351 515 516 0
-33 21 -18 -198 351 352 -515 0
-33 21 -18 -198 351 352 515 516 0
-33 21 -18 -198 351 352 -516 0
-33 21 -18 -198 -352 -515 0
-33 21 -18 -198 -352 515 516 0
-33 21 -18 -198 -352 -516 0
-33 -21 18 -197 -351 -515 0
-33 -21 18 -197 -351 515 516 0
-33 -21 18 -197 351 352 -515 0
-33 -21 18 -197 351 352 515 516 0
-33 -21 18 -197 351 352 -516 0
-33 -21 18 -197 -352 -515 0
-33 -21 18 -197 -352 515 516 0
-33 -21 18 -197 -352 -516 0
-33 -21 18 197 198 -351 -515 0
-33 -21 18 197 198 -351 515 516 0
-33 -21 18 197 198 -351 -516 0
-33 -21 18 197 198 351 352 -515 0
-33 -21 18 197 198 351 352 -516 0
-33 -21 18 197 198 -352 -515 0
-33 -21 18 197 198 -352 515 516 0
-33 -21 18 197 198 -352 -516 0
-33 -21 18 -198 -351 -515 0
-33 -21 18 -198 -351 515 516 0
-33 -21 18 -198 -351 -516 0
-33 -21 18 -198 351 352 -515 0
-33 -21 18 -198 351 352 515 516 0
-33 -21 18 -198 351 352 -516 0
-33 -21 18 -198 -352 515 516 0
-33 -21 18 -198 -352 -516 0
-33 -21 -18 -197 -351 515 516 0
-33 -21 -18 -197 -351 -516 0
-33 -21 -18 -197 351 352 -515 0
-33 -21 -18 -197 351 352 515 516 0
-33 -21 -18 -197 351 352 -516 0
-33 -21 -18 -197 -352 -515 0
-33 -21 -18 -197 -352 515 516 0
-33 -21 -18 -197 -352 -516 0
-33 -21 -18 197 198 -351 -515 0
-33 -21 -18 197 198 -351 515 516 0
-33 -21 -18 197 198 -351 -516 0
-33 -21 -18 197 198 351 352 -515 0
-33 -21 -18 197 198 351 352 -516 0
-33 -21 -18 197 198 -352 -515 0
-33 -21 -18 197 198 -352 515 516 0
-33 -21 -18 197 198 -352 -516 0
-33 -21 -18 -198 -351 -515 0
-33 -21 -18 -198 -351 515 516 0
-33 -21 -18 -198 -351 -516 0
-33 -21 -18 -198 351 352 -515 0
-33 -21 -18 -198 351 352 515 516 0
-33 -21 -18 -198 351 352 -516 0
-33 -21 -18 -198 -352 -515 0
-33 -21 -18 -198 -352 515 516 0
34 20 19 -199 -405 461 462 0
34 20 19 -199 -405 -462 0
34 20 19 -199 405 406 -461 0
34 20 19 -199 405 406 461 462 0
34 20 19 -199 405 406 -462 0
34 20 19 -199 -406 -461 0
34 20 19 -199 -406 461 462 0
34 20 19 -199 -406 -462 0
34 20 19 199 200 -405 -461 0
34 20 19 199 200 -405 461 462 0
34 20 19 199 200 -405 -462 0
34 20 19 199 200 405 406 -461 0
34 20 19 199 200 405 406 -462 0
34 20 19 199 200 -406 -461 0
34 20 19 199 200 -406 461 462 0
34 20 19 199 200 -406 -462 0
34 20 19 -200 -405 -461 0
34 20 19 -200 -405 461 462 0
34 20 19 -200 -405 -462 0
34 20 19 -200 405 406 -461 0
34 20 19 -200 405 406 461 462 0
34 20 19 -200 405 406 -462 0
34 20 19 -200 -406 -461 0
34 20 19 -200 -406 461 462 0
34 20 -19 -199 -405 -461 0
34 20 -19 -199 -405 461 462 0
34 20 -19 -199 405 406 -461 0
34 20 -19 -199 405 406 461 462 0
34 20 -19 -199 405 406 -462 0
34 20 -19 -199 -406 -461 0
34 20 -19 -199 -406 461 462 0
34 20 -19 -199 -406 -462 0
34 20 -19 199 200 -405 -461 0
34 20 -19 199 200 -405 461 462 0
34 20 -19 199 200 -405 -462 0
34 20 -19 199 200 405 406 -461 0
34 20 -19 199 200 405 406 -462 0
34 20 -19 199 200 -406 -461 0
34 20 -19 199 200 -406 461 462 0
34 20 -19 199 200 -406 -462 0
34 20 -19 -200 -405 -461 0
34 20 -19 -200 -405 461 462 0
34 20 -19 -200 -405 -462 0
34 20 -19 -200 405 406 -461 0
34 20 -19 -200 405 406 461 462 0
34 20 -19 -200 405 406 -462 0
34 20 -19 -200 -406 461 462 0
34 20 -19 -200 -406 -462 0
34 -20 19 -199 -405 -461 0
34 -20 19 -199 -405 461 462 0
34 -20 19 -199 -405 -462 0
34 -20 19 -199 405 406 -461 0
34 -20 19 -199 405 406 461 462 0
34 -20 19 -199 405 406 -462 0
34 -20 19 -199 -406 461 462 0
34 -20 19 -199 -406 -462 0
34 -20 19 199 200 -405 -461 0
34 -20 19 199 200 -405 461 462 0
34 -20 19 199 200 -405 -462 0
34 -20 19 199 200 405 406 -461 0
34 -20 19 199 200 405 406 -462 0
34 -20 19 199 200 -406 -461 0
34 -20 19 199 200 -406 461 462 0
34 -20 19 199 200 -406 -462 0
34 -20 19 -200 -405 -461 0
34 -20 19 -200 -405 461 462 0
34 -20 19 -200 405 406 -461 0
34 -20 19 -200 405 406 461 462 0
34 -20 19 -200 405 406 -462 0
34 -20 19 -200 -406 -461 0
34 -20 19 -200 -406 461 462 0
34 -20 19 -200 -406 -462 0
34 -20 -19 -199 -405 -461 0
34 -20 -19 -199 -405 461 462 0
34 -20 -19 -199 -405 -462 0
34 -20 -19 -199 405 406 -461 0
34 -20 -19 -199 405 406 461 462 0
34 -20 -19 -199 405 406 -462 0
34 -20 -19 -199 -406 -461 0
34 -20 -19 -199 -406 461 462 0
34 -20 -19 199 200 -405 -461 0
34 -20 -19 199 200 -405 461 462 0
34 -20 -19 199 200 -405 -462 0
34 -20 -19 199 200 405 406 -461 0
34 -20 -19 199 200 405 406 -462 0
34 -20 -19 199 200 -406 -461 0
34 -20 -19 199 200 -406 461 462 0
34 -20 -19 199 200 -406 -462 0
34 -20 -19 -200 -405 461 462 0
34 -20 -19 -200 -405 -462 0
34 -20 -19 -200 405 406 -461 0
34 -20 -19 -200 405 406 461 462 0
34 -20 -19 -200 405 406 -462 0
34 -20 -19 -200 -406 -461 0
34 -20 -19 -200 -406 461 462 0
34 -20 -19 -200 -406 -462 0
-34 20 19 -199 -405 -461 0
-34 20 19 -199 -405 461 462 0
-34 20 19 -199 -405 -462 0
-34 20 19 -199 405 406 -461 0
-34 20 19 -199 405 406 461 462 0
-34 20 19 -199 405 406 -462 0
-34 20 19 -199 -406 -461 0
-34 20 19 -199 -406 461 462 0
-34 20 19 199 200 -405 -461 0
-34 20 19 199 200 -405 461 462 0
-34 20 19 199 200 -405 -462 0
-34 20 19 199 200 405 406 -461 0
-34 20 19 199 200 405 406 -462 0
-34 20 19 199 200 -406 -461 0
-34 20 19 199 200 -406 461 462 0
-34 20 19 199 200 -406 -462 0
-34 20 19 -200 -405 461 462 0
-34 20 19 -200 -405 -462 0
-34 20 19 -200 405 406 -461 0
-34 20 19 -200 405 406 461 462 0
-34 20 19 -200 405 406 -462 0
-34 20 19 -200 -406 -461 0
-34 20 19 -200 -406 461 462 0
-34 20 19 -200 -406 -462 0
-34 20 -19 -199 -405 -461 0
-34 20 -19 -199 -405 461 462 0
-34 20 -19 -199 -405 -462 0
-34 20 -19 -199 405 406 -461 0
-34 20 -19 -199 405 406 461 462 0
-34 20 -19 -199 405 406 -462 0
-34 20 -19 -199 -406 461 462 0
-34 20 -19 -199 -406 -462 0
-34 20 -19 199 200 -405 -461 0
-34 20 -19 199 200 -405 461 462 0
-34 20 -19 199 200 -405 -462 0
-34 20 -19 199 200 405 406 -461 0
-34 20 -19 199 200 405 406 -462 0
-34 20 -19 199 200 -406 -461 0
-34 20 -19 199 200 -406 461 462 0
-34 20 -19 199 200 -406 -462 0
-34 20 -19 -200 -405 -461 0
-34 20 -19 -200 -405 461 462 0
-34 20 -19 -200 405 406 -461 0
-34 20 -19 -200 405 406 461 462 0
-34 20 -19 -200 405 406 -462 0
-34 20 -19 -200 -406 -461 0
-34 20 -19 -200 -406 461 462 0
-34 20 -19 -200 -406 -462 0
-34 -20 19 -199 -405 -461 0
-34 -20 19 -199 -405 461 462 0
-34 -20 19 -199 405 406 -461 0
-34 -20 19 -199 405 406 461 462 0
-34 -20 19 -199 405 406 -462 0
-34 -20 19 -199 -406 -461 0
-34 -20 19 -199 -406 461 462 0
-34 -20 19 -199 -406 -462 0
-34 -20 19 199 200 -405 -461 0
-34 -20 19 199 200 -405 461 462 0
-34 -20 19 199 200 -405 -462 0
-34 -20 19 199 200 405 406 -461 0
-34 -20 19 199 200 405 406 -462 0
-34 -20 19 199 200 -406 -461 0
-34 -20 19 199 200 -406 461 462 0
-34 -20 19 199 200 -406 -462 0
-34 -20 19 -200 -405 -461 0
-34 -20 19 -200 -405 461 462 0
-34 -20 19 -200 -405 -462 0
-34 -20 19 -200 405 406 -461 0
-34 -20 19 -200 405 406 461 462 0
-34 -20 19 -200 405 406 -462 0
-34 -20 19 -200 -406 461 462 0
-34 -20 19 -200 -406 -462 0
-34 -20 -19 -199 -405 461 462 0
-34 -20 -19 -199 -405 -462 0
-34 -20 -19 -199 405 406 -461 0
-34 -20 -19 -199 405 406 461 462 0
-34 -20 -19 -199 405 406 -462 0
-34 -20 -19 -199 -406 -461 0
-34 -20 -19 -199 -406 461 462 0
-34 -20 -19 -199 -406 -462 0
-34 -20 -19 199 200 -405 -461 0
-34 -20 -19 199 200 -405 461 462 0
-34 -20 -19 199 200 -405 -462 0
-34 -20 -19 199 200 405 406 -461 0
-34 -20 -19 199 200 405 406 -462 0
-34 -20 -19 199 200 -406 -461 0
-34 -20 -19 199 200 -406 461 462 0
-34 -20 -19 199 200 -406 -462 0
-34 -20 -19 -200 -405 -461 0
-34 -20 -19 -200 -405 461 462 0
-34 -20 -19 -200 -405 -462 0
-34 -20 -19 -200 405 406 -461 0
-34 -20 -19 -200 405 406 461 462 0
-34 -20 -19 -200 405 406 -462 0
-34 -20 -19 -200 -406 -461 0
-34 -20 -19 -200 -406 461 462 0
35 21 19 -201 -407 517 518 0
35 21 19 -201 -407 -518 0
35 21 19 -201 407 408 -517 0
35 21 19 -201 407 408 517 518 0
35 21 19 -201 407 408 -518 0
35 21 19 -201 -408 -517 0
35 21 19 -201 -408 517 518 0
35 21 19 -201 -408 -518 0
35 21 19 201 202 -407 -517 0
35 21 19 201 202 -407 517 518 0
35 21 19 201 202 -407 -518 0
35 21 19 201 202 407 408 -517 0
35 21 19 201 202 407 408 -518 0
35 21 19 201 202 -408 -517 0
35 21 19 201 202 -408 517 518 0
35 21 19 201 202 -408 -518 0
35 21 19 -202 -407 -517 0
35 21 19 -202 -407 517 518 0
35 21 19 -202 -407 -518 0
35 21 19 -202 407 408 -517 0
35 21 19 -202 407 408 517 518 0
35 21 19 -202 407 408 -518 0
35 21 19 -202 -408 -517 0
35 21 19 -202 -408 517 518 0
35 21 -19 -201 -407 -517 0
35 21 -19 -201 -407 517 518 0
35 21 -19 -201 407 408 -517 0
35 21 -19 -201 407 408 517 518 0
35 21 -19 -201 407 408 -518 0
35 21 -19 -201 -408 -517 0
35 21 -19 -201 -408 517 518 0
35 21 -19 -201 -408 -518 0
35 21 -19 201 202 -407 -517 0
35 21 -19 201 202 -407 517 518 0
35 21 -19 201 202 -407 -518 0
35 21 -19 201 202 407 408 -517 0
35 21 -19 201 202 407 408 -518 0
35 21 -19 201 202 -408 -517 0
35 21 -19 201 202 -408 517 518 0
35 21 -19 201 202 -408 -518 0
35 21 -19 -202 -407 -517 0
35 21 -19 -202 -407 517 518 0
35 21 -19 -202 -407 -518 0
35 21 -19 -202 407 408 -517 0
35 21 -19 -202 407 408 517 518 0
35 21 -19 -202 407 408 -518 0
35 21 -19 -202 -408 517 518 0
35 21 -19 -202 -408 -518 0
35 -21 19 -201 -407 -517 0
35 -21 19 -201 -407 517 518 0
35 -21 19 -201 -407 -518 0
35 -21 19 -201 407 408 -517 0
35 -21 19 -201 407 408 517 518 0
35 -21 19 -201 407 408 -518 0
35 -21 19 -201 -408 517 518 0
35 -21 19 -201 -408 -518 0
35 -21 19 201 202 -407 -517 0
35 -21 19 201 202 -407 517 518 0
35 -21 19 201 202 -407 -518 0
35 -21 19 201 202 407 408 -517 0
35 -21 19 201 202 407 408 -518 0
35 -21 19 201 202 -408 -517 0
35 -21 19 201 202 -408 517 518 0
35 -21 19 201 202 -408 -518 0
35 -21 19 -202 -407 -517 0
35 -21 19 -202 -407 517 518 0
35 -21 19 -202 407 408 -517 0
35 -21 19 -202 407 408 517 518 0
35 -21 19 -202 407 408 -518 0
35 -21 19 -202 -408 -517 0
35 -21 19 -202 -408 517 518 0
35 -21 19 -202 -408 -518 0
35 -21 -19 -201 -407 -517 0
35 -21 -19 -201 -407 517 518 0
35 -21 -19 -201 -407 -518 0
35 -21 -19 -201 407 408 -517 0
35 -21 -19 -201 407 408 517 518 0
35 -21 -19 -201 407 408 -518 0
35 -21 -19 -201 -408 -517 0
35 -21 -19 -201 -408 517 518 0
35 -21 -19 201 202 -407 -517 0
35 -21 -19 201 202 -407 517 518 0
35 -21 -19 201 202 -407 -518 0
35 -21 -19 201 202 407 408 -517 0
35 -21 -19 201 202 407 408 -518 0
35 -21 -19 201 202 -408 -517 0
35 -21 -19 201 202 -408 517 518 0
35 -21 -19 201 202 -408 -518 0
35 -21 -19 -202 -407 517 518 0
35 -21 -19 -202 -407 -518 0
35 -21 -19 -202 407 408 -517 0
35 -21 -19 -202 407 408 517 518 0
35 -21 -19 -202 407 408 -518 0
35 -21 -19 -202 -408 -517 0
35 -21 -19 -202 -408 517 518 0
35 -21 -19 -202 -408 -518 0
-35 21 19 -201 -407 -517 0
-35 21 19 -201 -407 517 518 0
-35 21 19 -201 -407 -518 0
-35 21 19 -201 407 408 -517 0
-35 21 19 -201 407 408 517 518 0
-35 21 19 -201 407 408 -518 0
-35 21 19 -201 -408 -517 0
-35 21 19 -201 -408 517 518 0
-35 21 19 201 202 -407 -517 0
-35 21 19 201 202 -407 517 518 0
-35 21 19 201 202 -407 -518 0
-35 21 19 201 202 407 408 -517 0
-35 21 19 201 202 407 408 -518 0
-35 21 19 201 202 -408 -517 0
-35 21 19 201 202 -408 517 518 0
-35 21 19 201 202 -408 -518 0
-35 21 19 -202 -407 517 518 0
-35 21 19 -202 -407 -518 0
-35 21 19 -202 407 408 -517 0
-35 21 19 -202 407 408 517 518 0
-35 21 19 -202 407 408 -518 0
-35 21 19 -202 -408 -517 0
-35 21 19 -202 -408 517 518 0
-35 21 19 -202 -408 -518 0
-35 21 -19 -201 -407 -517 0
-35 21 -19 -201 -407 517 518 0
-35 21 -19 -201 -407 -518 0
-35 21 -19 -201 407 408 -517 0
-35 21 -19 -201 407 408 517 518 0
-35 21 -19 -201 407 408 -518 0
-35 21 -19 -201 -408 517 518 0
-35 21 -19 -201 -408 -518 0
-35 21 -19 201 202 -407 -517 0
-35 21 -19 201 202 -407 517 518 0
-35 21 -19 201 202 -407 -518 0
-35 21 -19 201 202 407 408 -517 0
-35 21 -19 201 202 407 408 -518 0
-35 21 -19 201 202 -408 -517 0
-35 21 -19 201 202 -408 517 518 0
-35 21 -19 201 202 -408 -518 0
-35 21 -19 -202 -407 -517 0
-35 21 -19 -202 -407 517 518 0
-35 21 -19 -202 407 408 -517 0
-35 21 -19 -202 407 408 517 518 0
-35 21 -19 -202 407 408 -518 0
-35 21 -19 -202 -408 -517 0
-35 21 -19 -202 -408 517 518 0
-35 21 -19 -202 -408 -518 0
-35 -21 19 -201 -407 -517 0
-35 -21 19 -201 -407 517 518 0
-35 -21 19 -201 407 408 -517 0
-35 -21 19 -201 407 408 517 518 0
-35 -21 19 -201 407 408 -518 0
-35 -21 19 -201 -408 -517 0
-35 -21 19 -201 -408 517 518 0
-35 -21 19 -201 -408 -518 0
-35 -21 19 201 202 -407 -517 0
-35 -21 19 201 202 -407 517 518 0
-35 -21 19 201 202 -407 -518 0
-35 -21 19 201 202 407 408 -517 0
-35 -21 19 201 202 407 408 -518 0
-35 -21 19 201 202 -408 -517 0
-35 -21 19 201 202 -408 517 518 0
-35 -21 19 201 202 -408 -518 0
-35 -21 19 -202 -407 -517 0
-35 -21 19 -202 -407 517 518 0
-35 -21 19 -202 -407 -518 0
-35 -21 19 -202 407 408 -517 0
-35 -21 19 -202 407 408 517 518 0
-35 -21 19 -202 407 408 -518 0
-35 -21 19 -202 -408 517 518 0
-35 -21 19 -202 -408 -518 0
-35 -21 -19 -201 -407 517 518 0
-35 -21 -19 -201 -407 -518 0
-35 -21 -19 -201 407 408 -517 0
-35 -21 -19 -201 407 408 517 518 0
-35 -21 -19 -201 407 408 -518 0
-35 -21 -19 -201 -408 -517 0
-35 -21 -19 -201 -408 517 518 0
-35 -21 -19 -201 -408 -518 0
-35 -21 -19 201 202 -407 -517 0
-35 -21 -19 201 202 -407 517 518 0
-35 -21 -19 201 202 -407 -518 0
-35 -21 -19 201 202 407 408 -517 0
-35 -21 -19 201 202 407 408 -518 0
-35 -21 -19 201 202 -408 -517 0
-35 -21 -19 201 202 -408 517 518 0
-35 -21 -19 201 202 -408 -518 0
-35 -21 -19 -202 -407 -517 0
-35 -21 -19 -202 -407 517 518 0
-35 -21 -19 -202 -407 -518 0
-35 -21 -19 -202 407 408 -517 0
-35 -21 -19 -202 407 408 517 518 0
-35 -21 -19 -202 407 408 -518 0
-35 -21 -19 -202 -408 -517 0
-35 -21 -19 -202 -408 517 518 0
36 21 20 -203 -463 519 520 0
36 21 20 -203 -463 -520 0
36 21 20 -203 463 464 -519 0
36 21 20 -203 463 464 519 520 0
36 21 20 -203 463 464 -520 0
36 21 20 -203 -464 -519 0
36 21 20 -203 -464 519 520 0
36 21 20 -203 -464 -520 0
36 21 20 203 204 -463 -519 0
36 21 20 203 204 -463 519 520 0
36 21 20 203 204 -463 -520 0
36 21 20 203 204 463 464 -519 0
36 21 20 203 204 463 464 -520 0
36 21 20 203 204 -464 -519 0
36 21 20 203 204 -464 519 520 0
36 21 20 203 204 -464 -520 0
36 21 20 -204 -463 -519 0
36 21 20 -204 -463 519 520 0
36 21 20 -204 -463 -520 0
36 21 20 -204 463 464 -519 0
36 21 20 -204 463 464 519 520 0
36 21 20 -204 463 464 -520 0
36 21 20 -204 -464 -519 0
36 21 20 -204 -464 519 520 0
36 21 -20 -203 -463 -519 0
36 21 -20 -203 -463 519 520 0
36 21 -20 -203 463 464 -519 0
36 21 -20 -203 463 464 519 520 0
36 21 -20 -203 463 464 -520 0
36 21 -20 -203 -464 -519 0
36 21 -20 -203 -464 519 520 0
36 21 -20 -203 -464 -520 0
36 21 -20 203 204 -463 -519 0
36 21 -20 203 204 -463 519 520 0
36 21 -20 203 204 -463 -520 0
36 21 -20 203 204 463 464 -519 0
36 21 -20 203 204 463 464 -520 0
36 21 -20 203 204 -464 -519 0
36 21 -20 203 204 -464 519 520 0
36 21 -20 203 204 -464 -520 0
36 21 -20 -204 -463 -519 0
36 21 -20 -204 -463 519 520 0
36 21 -20 -204 -463 -520 0
36 21 -20 -204 463 464 -519 0
36 21 -20 -204 463 464 519 520 0
36 21 -20 -204 463 464 -520 0
36 21 -20 -204 -464 519 520 0
36 21 -20 -204 -464 -520 0
36 -21 20 -203 -463 -519 0
36 -21 20 -203 -463 519 520 0
36 -21 20 -203 -463 -520 0
36 -21 20 -203 463 464 -519 0
36 -21 20 -203 463 464 519 520 0
36 -21 20 -203 463 464 -520 0
36 -21 20 -203 -464 519 520 0
36 -21 20 -203 -464 -520 0
36 -21 20 203 204 -463 -519 0
36 -21 20 203 204 -463 519 520 0
36 -21 20 203 204 -463 -520 0
36 -21 20 203 204 463 464 -519 0
36 -21 20 203 204 463 464 -520 0
36 -21 20 203 204 -464 -519 0
36 -21 20 203 204 -464 519 520 0
36 -21 20 203 204 -464 -520 0
36 -21 20 -204 -463 -519 0
36 -21 20 -204 -463 519 520 0
36 -21 20 -204 463 464 -519 0
36 -21 20 -204 463 464 519 520 0
36 -21 20 -204 463 464 -520 0
36 -21 20 -204 -464 -519 0
36 -21 20 -204 -464 519 520 0
36 -21 20 -204 -464 -520 0
36 -21 -20 -203 -463 -519 0
36 -21 -20 -203 -463 519 520 0
36 -21 -20 -203 -463 -520 0
36 -21 -20 -203 463 464 -519 0
36 -21 -20 -203 463 464 519 520 0
36 -21 -20 -203 463 464 -520 0
36 -21 -20 -203 -464 -519 0
36 -21 -20 -203 -464 519 520 0
36 -21 -20 203 204 -463 -519 0
36 -21 -20 203 204 -463 519 520 0
36 -21 -20 203 204 -463 -520 0
36 -21 -20 203 204 463 464 -519 0
36 -21 -20 203 204 463 464 -520 0
36 -21 -20 203 204 -464 -519 0
36 -21 -20 203 204 -464 519 520 0
36 -21 -20 203 204 -464 -520 0
36 -21 -20 -204 -463 519 520 0
36 -21 -20 -204 -463 -520 0
36 -21 -20 -204 463 464 -519 0
36 -21 -20 -204 463 464 519 520 0
36 -21 -20 -204 463 464 -520 0
36 -21 -20 -204 -464 -519 0
36 -21 -20 -204 -464 519 520 0
36 -21 -20 -204 -464 -520 0
-36 21 20 -203 -463 -519 0
-36 21 20 -203 -463 519 520 0
-36 21 20 -203 -463 -520 0
-36 21 20 -203 463 464 -519 0
-36 21 20 -203 463 464 519 520 0
-36 21 20 -203 463 464 -520 0
-36 21 20 -203 -464 -519 0
-36 21 20 -203 -464 519 520 0
-36 21 20 203 204 -463 -519 0
-36 21 20 203 204 -463 519 520 0
-36 21 20 203 204 -463 -520 0
-36 21 20 203 204 463 464 -519 0
-36 21 20 203 204 463 464 -520 0
-36 21 20 203 204 -464 -519 0
-36 21 20 203 204 -464 519 520 0
-36 21 20 203 204 -464 -520 0
-36 21 20 -204 -463 519 520 0
-36 21 20 -204 -463 -520 0
-36 21 20 -204 463 464 -519 0
-36 21 20 -204 463 464 519 520 0
-36 21 20 -204 463 464 -520 0
-36 21 20 -204 -464 -519 0
-36 21 20 -204 -464 519 520 0
-36 21 20 -204 -464 -520 0
-36 21 -20 -203 -463 -519 0
-36 21 -20 -203 -463 519 520 0
-36 21 -20 -203 -463 -520 0
-36 21 -20 -203 463 464 -519 0
-36 21 -20 -203 463 464 519 520 0
-36 21 -20 -203 463 464 -520 0
-36 21 -20 -203 -464 519 520 0
-36 21 -20 -203 -464 -520 0
-36 21 -20 203 204 -463 -519 0
-36 21 -20 203 204 -463 519 520 0
-36 21 -20 203 204 -463 -520 0
-36 21 -20 203 204 463 464 -519 0
-36 21 -20 203 204 463 464 -520 0
-36 21 -20 203 204 -464 -519 0
-36 21 -20 203 204 -464 519 520 0
-36 21 -20 203 204 -464 -520 0
-36 21 -20 -204 -463 -519 0
-36 21 -20 -204 -463 519 520 0
-36 21 -20 -204 463 464 -519 0
-36 21 -20 -204 463 464 519 520 0
-36 21 -20 -204 463 464 -520 0
-36 21 -20 -204 -464 -519 0
-36 21 -20 -204 -464 519 520 0
-36 21 -20 -204 -464 -520 0
-36 -21 20 -203 -463 -519 0
-36 -21 20 -203 -463 519 520 0
-36 -21 20 -203 463 464 -519 0
-36 -21 20 -203 463 464 519 520 0
-36 -21 20 -203 463 464 -520 0
-36 -21 20 -203 -464 -519 0
-36 -21 20 -203 -464 519 520 0
-36 -21 20 -203 -464 -520 0
-36 -21 20 203 204 -463 -519 0
-36 -21 20 203 204 -463 519 520 0
-36 -21 20 203 204 -463 -520 0
-36 -21 20 203 204 463 464 -519 0
-36 -21 20 203 204 463 464 -520 0
-36 -21 20 203 204 -464 -519 0
-36 -21 20 203 204 -464 519 520 0
-36 -21 20 203 204 -464 -520 0
-36 -21 20 -204 -463 -519 0
-36 -21 20 -204 -463 519 520 0
-36 -21 20 -204 -463 -520 0
-36 -21 20 -204 463 464 -519 0
-36 -21 20 -204 463 464 519 520 0
-36 -21 20 -204 463 464 -520 0
-36 -21 20 -204 -464 519 520 0
-36 -21 20 -204 -464 -520 0
-36 -21 -20 -203 -463 519 520 0
-36 -21 -20 -203 -463 -520 0
-36 -21 -20 -203 463 464 -519 0
-36 -21 -20 -203 463 464 519 520 0
-36 -21 -20 -203 463 464 -520 0
-36 -21 -20 -203 -464 -519 0
-36 -21 -20 -203 -464 519 520 0
-36 -21 -20 -203 -464 -520 0
-36 -21 -20 203 204 -463 -519 0
-36 -21 -20 203 204 -463 519 520 0
-36 -21 -20 203 204 -463 -520 0
-36 -21 -20 203 204 463 464 -519 0
-36 -21 -20 203 204 463 464 -520 0
-36 -21 -20 203 204 -464 -519 0
-36 -21 -20 203 204 -464 519 520 0
-36 -21 -20 203 204 -464 -520 0
-36 -21 -20 -204 -463 -519 0
-36 -21 -20 -204 -463 519 520 0
-36 -21 -20 -204 -463 -520 0
-36 -21 -20 -204 463 464 -519 0
-36 -21 -20 -204 463 464 519 520 0
-36 -21 -20 -204 463 464 -520 0
-36 -21 -20 -204 -464 -519 0
-36 -21 -20 -204 -464 519 520 0
27 23 22 -241 -297 353 354 0
27 23 22 -241 -297 -354 0
27 23 22 -241 297 298 -353 0
27 23 22 -241 297 298 353 354 0
27 23 22 -241 297 298 -354 0
27 23 22 -241 -298 -353 0
27 23 22 -241 -298 353 354 0
27 23 22 -241 -298 -354 0
27 23 22 241 242 -297 -353 0
27 23 22 241 242 -297 353 354 0
27 23 22 241 242 -297 -354 0
27 23 22 241 242 297 298 -353 0
27 23 22 241 242 297 298 -354 0
27 23 22 241 242 -298 -353 0
27 23 22 241 242 -298 353 354 0
27 23 22 241 242 -298 -354 0
27 23 22 -242 -297 -353 0
27 23 22 -242 -297 353 354 0
27 23 22 -242 -297 -354 0
27 23 22 -242 297 298 -353 0
27 23 22 -242 297 298 353 354 0
27 23 22 -242 297 298 -354 0
27 23 22 -242 -298 -353 0
27 23 22 -242 -298 353 354 0
27 23 -22 -241 -297 -353 0
27 23 -22 -241 -297 353 354 0
27 23 -22 -241 297 298 -353 0
27 23 -22 -241 297 298 353 354 0
27 23 -22 -241 297 298 -354 0
27 23 -22 -241 -298 -353 0
27 23 -22 -241 -298 353 354 0
27 23 -22 -241 -298 -354 0
27 23 -22 241 242 -297 -353 0
27 23 -22 241 242 -297 353 354 0
27 23 -22 241 242 -297 -354 0
27 23 -22 241 242 297 298 -353 0
27 23 -22 241 242 297 298 -354 0
27 23 -22 241 242 -298 -353 0
27 23 -22 241 242 -298 353 354 0
27 23 -22 241 242 -298 -354 0
27 23 -22 -242 -297 -353 0
27 23 -22 -242 -297 353 354 0
27 23 -22 -242 -297 -354 0
27 23 -22 -242 297 298 -353 0
27 23 -22 -242 297 298 353 354 0
27 23 -22 -242 297 298 -354 0
27 23 -22 -242 -298 353 354 0
27 23 -22 -242 -298 -354 0
27 -23 22 -241 -297 -353 0
27 -23 22 -241 -297 353 354 0
27 -23 22 -241 -297 -354 0
27 -23 22 -241 297 298 -353 0
27 -23 22 -241 297 298 353 354 0
27 -23 22 -241 297 298 -354 0
27 -23 22 -241 -298 353 354 0
27 -23 22 -241 -298 -354 0
27 -23 22 241 242 -297 -353 0
27 -23 22 241 242 -297 353 354 0
27 -23 22 241 242 -297 -354 0
27 -23 22 241 242 297 298 -353 0
27 -23 22 241 242 297 298 -354 0
27 -23 22 241 242 -298 -353 0
27 -23 22 241 242 -298 353 354 0
27 -23 22 241 242 -298 -354 0
27 -23 22 -242 -297 -353 0
27 -23 22 -242 -297 353 354 0
27 -23 22 -242 297 298 -353 0
27 -23 22 -242 297 298 353 354 0
27 -23 22 -242 297 298 -354 0
27 -23 22 -242 -298 -353 0
27 -23 22 -242 -298 353 354 0
27 -23 22 -242 -298 -354 0
27 -23 -22 -241 -297 -353 0
27 -23 -22 -241 -297 353 354 0
27 -23 -22 -241 -297 -354 0
27 -23 -22 -241 297 298 -353 0
27 -23 -22 -241 297 298 353 354 0
27 -23 -22 -241 297 298 -354 0
27 -23 -22 -241 -298 -353 0
27 -23 -22 -241 -298 353 354 0
27 -23 -22 241 242 -297 -353 0
27 -23 -22 241 242 -297 353 354 0
27 -23 -22 241 242 -297 -354 0
27 -23 -22 241 242 297 298 -353 0
27 -23 -22 241 242 297 298 -354 0
27 -23 -22 241 242 -298 -353 0
27 -23 -22 241 242 -298 353 354 0
27 -23 -22 241 242 -298 -354 0
27 -23 -22 -242 -297 353 354 0
27 -23 -22 -242 -297 -354 0
27 -23 -22 -242 297 298 -353 0
27 -23 -22 -242 297 298 353 354 0
27 -23 -22 -242 297 298 -354 0
27 -23 -22 -242 -298 -353 0
27 -23 -22 -242 -298 353 354 0
27 -23 -22 -242 -298 -354 0
-27 23 22 -241 -297 -353 0
-27 23 22 -241 -297 353 354 0
-27 23 22 -241 -297 -354 0
-27 23 22 -241 297 298 -353 0
-27 23 22 -241 297 298 353 354 0
-27 23 22 -241 297 298 -354 0
-27 23 22 -241 -298 -353 0
-27 23 22 -241 -298 353 354 0
-27 23 22 241 242 -297 -353 0
-27 23 22 241 242 -297 353 354 0
-27 23 22 241 242 -297 -354 0
-27 23 22 241 242 297 298 -353 0
-27 23 22 241 242 297 298 -354 0
-27 23 22 241 242 -298 -353 0
-27 23 22 241 242 -298 353 354 0
-27 23 22 241 242 -298 -354 0
-27 23 22 -242 -297 353 354 0
-27 23 22 -242 -297 -354 0
-27 23 22 -242 297 298 -353 0
-27 23 22 -242 297 298 353 354 0
-27 23 22 -242 297 298 -354 0
-27 23 22 -242 -298 -353 0
-27 23 22 -242 -298 353 354 0
-27 23 22 -242 -298 -354 0
-27 23 -22 -241 -297 -353 0
-27 23 -22 -241 -297 353 354 0
-27 23 -22 -241 -297 -354 0
-27 23 -22 -241 297 298 -353 0
-27 23 -22 -241 297 298 353 354 0
-27 23 -22 -241 297 298 -354 0
-27 23 -22 -241 -298 353 354 0
-27 23 -22 -241 -298 -354 0
-27 23 -22 241 242 -297 -353 0
-27 23 -22 241 242 -297 353 354 0
-27 23 -22 241 242 -297 -354 0
-27 23 -22 241 242 297 298 -353 0
-27 23 -22 241 242 297 298 -354 0
-27 23 -22 241 242 -298 -353 0
-27 23 -22 241 242 -298 353 354 0
-27 23 -22 241 242 -298 -354 0
-27 23 -22 -242 -297 -353 0
-27 23 -22 -242 -297 353 354 0
-27 23 -22 -242 297 298 -353 0
-27 23 -22 -242 297 298 353 354 0
-27 23 -22 -242 297 298 -354 0
-27 23 -22 -242 -298 -353 0
-27 23 -22 -242 -298 353 354 0
-27 23 -22 -242 -298 -354 0
-27 -23 22 -241 -297 -353 0
-27 -23 22 -241 -297 353 354 0
-27 -23 22 -241 297 298 -353 0
-27 -23 22 -241 297 298 353 354 0
-27 -23 22 -241 297 298 -354 0
-27 -23 22 -241 -298 -353 0
-27 -23 22 -241 -298 353 354 0
-27 -23 22 -241 -298 -354 0
-27 -23 22 241 242 -297 -353 0
-27 -23 22 241 242 -297 353 354 0
-27 -23 22 241 242 -297 -354 0
-27 -23 22 241 242 297 298 -353 0
-27 -23 22 241 242 297 298 -354 0
-27 -23 22 241 242 -298 -353 0
-27 -23 22 241 242 -298 353 354 0
-27 -23 22 241 242 -298 -354 0
-27 -23 22 -242 -297 -353 0
-27 -23 22 -242 -297 353 354 0
-27 -23 22 -242 -297 -354 0
-27 -23 22 -242 297 298 -353 0
-27 -23 22 -242 297 298 353 354 0
-27 -23 22 -242 297 298 -354 0
-27 -23 22 -242 -298 353 354 0
-27 -23 22 -242 -298 -354 0
-27 -23 -22 -241 -297 353 354 0
-27 -23 -22 -241 -297 -354 0
-27 -23 -22 -241 297 298 -353 0
-27 -23 -22 -241 297 298 353 354 0
-27 -23 -22 -241 297 298 -354 0
-27 -23 -22 -241 -298 -353 0
-27 -23 -22 -241 -298 353 354 0
-27 -23 -22 -241 -298 -354 0
-27 -23 -22 241 242 -297 -353 0
-27 -23 -22 241 242 -297 353 354 0
-27 -23 -22 241 242 -297 -354 0
-27 -23 -22 241 242 297 298 -353 0
-27 -23 -22 241 242 297 298 -354 0
-27 -23 -22 241 242 -298 -353 0
-27 -23 -22 241 242 -298 353 354 0
-27 -23 -22 241 242 -298 -354 0
-27 -23 -22 -242 -297 -353 0
-27 -23 -22 -242 -297 353 354 0
-27 -23 -22 -242 -297 -354 0
-27 -23 -22 -242 297 298 -353 0
-27 -23 -22 -242 297 298 353 354 0
-27 -23 -22 -242 297 298 -354 0
-27 -23 -22 -242 -298 -353 0
-27 -23 -22 -242 -298 353 354 0
28 24 22 -243 -299 409 410 0
28 24 22 -243 -299 -410 0
28 24 22 -243 299 300 -409 0
28 24 22 -243 299 300 409 410 0
28 24 22 -243 299 300 -410 0
28 24 22 -243 -300 -409 0
28 24 22 -243 -300 409 410 0
28 24 22 -243 -300 -410 0
28 24 22 243 244 -299 -409 0
28 24 22 243 244 -299 409 410 0
28 24 22 243 244 -299 -410 0
28 24 22 243 244 299 300 -409 0
28 24 22 243 244 299 300 -410 0
28 24 22 243 244 -300 -409 0
28 24 22 243 244 -300 409 410 0
28 24 22 243 244 -300 -410 0
28 24 22 -244 -299 -409 0
28 24 22 -244 -299 409 410 0
28 24 22 -244 -299 -410 0
28 24 22 -244 299 300 -409 0
28 24 22 -244 299 300 409 410 0
28 24 22 -244 299 300 -410 0
28 24 22 -244 -300 -409 0
28 24 22 -244 -300 409 410 0
28 24 -22 -243 -299 -409 0
28 24 -22 -243 -299 409 410 0
28 24 -22 -243 299 300 -409 0
28 24 -22 -243 299 300 409 410 0
28 24 -22 -243 299 300 -410 0
28 24 -22 -243 -300 -409 0
28 24 -22 -243 -300 409 410 0
28 24 -22 -243 -300 -410 0
28 24 -22 243 244 -299 -409 0
28 24 -22 243 244 -299 409 410 0
28 24 -22 243 244 -299 -410 0
28 24 -22 243 244 299 300 -409 0
28 24 -22 243 244 299 300 -410 0
28 24 -22 243 244 -300 -409 0
28 24 -22 243 244 -300 409 410 0
28 24 -22 243 244 -300 -410 0
28 24 -22 -244 -299 -409 0
28 24 -22 -244 -299 409 410 0
28 24 -22 -244 -299 -410 0
28 24 -22 -244 299 300 -409 0
28 24 -22 -244 299 300 409 410 0
28 24 -22 -244 299 300 -410 0
28 24 -22 -244 -300 409 410 0
28 24 -22 -244 -300 -410 0
28 -24 22 -243 -299 -409 0
28 -24 22 -243 -299 409 410 0
28 -24 22 -243 -299 -410 0
28 -24 22 -243 299 300 -409 0
28 -24 22 -243 299 300 409 410 0
28 -24 22 -243 299 300 -410 0
28 -24 22 -243 -300 409 410 0
28 -24 22 -243 -300 -410 0
28 -24 22 243 244 -299 -409 0
28 -24 22 243 244 -299 409 410 0
28 -24 22 243 244 -299 -410 0
28 -24 22 243 244 299 300 -409 0
28 -24 22 243 244 299 300 -410 0
28 -24 22 243 244 -300 -409 0
28 -24 22 243 244 -300 409 410 0
28 -24 22 243 244 -300 -410 0
28 -24 22 -244 -299 -409 0
28 -24 22 -244 -299 409 410 0
28 -24 22 -244 299 300 -409 0
28 -24 22 -244 299 300 409 410 0
28 -24 22 -244 299 300 -410 0
28 -24 22 -244 -300 -409 0
28 -24 22 -244 -300 409 410 0
28 -24 22 -244 -300 -410 0
28 -24 -22 -243 -299 -409 0
28 -24 -22 -243 -299 409 410 0
28 -24 -22 -243 -299 -410 0
28 -24 -22 -243 299 300 -409 0
28 -24 -22 -243 299 300 409 410 0
28 -24 -22 -243 299 300 -410 0
28 -24 -22 -243 -300 -409 0
28 -24 -22 -243 -300 409 410 0
28 -24 -22 243 244 -299 -409 0
28 -24 -22 243 244 -299 409 410 0
28 -24 -22 243 244 -299 -410 0
28 -24 -22 243 244 299 300 -409 0
28 -24 -22 243 244 299 300 -410 0
28 -24 -22 243 244 -300 -409 0
28 -24 -22 243 244 -300 409 410 0
28 -24 -22 243 244 -300 -410 0
28 -24 -22 -244 -299 409 410 0
28 -24 -22 -244 -299 -410 0
28 -24 -22 -244 299 300 -409 0
28 -24 -22 -244 299 300 409 410 0
28 -24 -22 -244 299 300 -410 0
28 -24 -22 -244 -300 -409 0
28 -24 -22 -244 -300 409 410 0
28 -24 -22 -244 -300 -410 0
-28 24 22 -243 -299 -409 0
-28 24 22 -243 -299 409 410 0
-28 24 22 -243 -299 -410 0
-28 24 22 -243 299 300 -409 0
-28 24 22 -243 299 300 409 410 0
-28 24 22 -243 299 300 -410 0
-28 24 22 -243 -300 -409 0
-28 24 22 -243 -300 409 410 0
-28 24 22 243 244 -299 -409 0
-28 24 22 243 244 -299 409 410 0
-28 24 22 243 244 -299 -410 0
-28 24 22 243 244 299 300 -409 0
-28 24 22 243 244 299 300 -410 0
-28 24 22 243 244 -300 -409 0
-28 24 22 243 244 -300 409 410 0
-28 24 22 243 244 -300 -410 0
-28 24 22 -244 -299 409 410 0
-28 24 22 -244 -299 -410 0
-28 24 22 -244 299 300 -409 0
-28 24 22 -244 299 300 409 410 0
-28 24 22 -244 299 300 -410 0
-28 24 22 -244 -300 -409 0
-28 24 22 -244 -300 409 410 0
-28 24 22 -244 -300 -410 0
-28 24 -22 -243 -299 -409 0
-28 24 -22 -243 -299 409 410 0
-28 24 -22 -243 -299 -410 0
-28 24 -22 -243 299 300 -409 0
-28 24 -22 -243 299 300 409 410 0
-28 24 -22 -243 299 300 -410 0
-28 24 -22 -243 -300 409 410 0
-28 24 -22 -243 -300 -410 0
-28 24 -22 243 244 -299 -409 0
-28 24 -22 243 244 -299 409 410 0
-28 24 -22 243 244 -299 -410 0
-28 24 -22 243 244 299 300 -409 0
-28 24 -22 243 244 299 300 -410 0
-28 24 -22 243 244 -300 -409 0
-28 24 -22 243 244 -300 409 410 0
-28 24 -22 243 244 -300 -410 0
-28 24 -22 -244 -299 -409 0
-28 24 -22 -244 -299 409 410 0
-28 24 -22 -244 299 300 -409 0
-28 24 -22 -244 299 300 409 410 0
-28 24 -22 -244 299 300 -410 0
-28 24 -22 -244 -300 -409 0
-28 24 -22 -244 -300 409 410 0
-28 24 -22 -244 -300 -410 0
-28 -24 22 -243 -299 -409 0
-28 -24 22 -243 -299 409 410 0
-28 -24 22 -243 299 300 -409 0
-28 -24 22 -243 299 300 409 410 0
-28 -24 22 -243 299 300 -410 0
-28 -24 22 -243 -300 -409 0
-28 -24 22 -243 -300 409 410 0
-28 -24 22 -243 -300 -410 0
-28 -24 22 243 244 -299 -409 0
-28 -24 22 243 244 -299 409 410 0
-28 -24 22 243 244 -299 -410 0
-28 -24 22 243 244 299 300 -409 0
-28 -24 22 243 244 299 300 -410 0
-28 -24 22 243 244 -300 -409 0
-28 -24 22 243 244 -300 409 410 0
-28 -24 22 243 244 -300 -410 0
-28 -24 22 -244 -299 -409 0
-28 -24 22 -244 -299 409 410 0
-28 -24 22 -244 -299 -410 0
-28 -24 22 -244 299 300 -409 0
-28 -24 22 -244 299 300 409 410 0
-28 -24 22 -244 299 300 -410 0
-28 -24 22 -244 -300 409 410 0
-28 -24 22 -244 -300 -410 0
-28 -24 -22 -243 -299 409 410 0
-28 -24 -22 -243 -299 -410 0
-28 -24 -22 -243 299 300 -409 0
-28 -24 -22 -243 299 300 409 410 0
-28 -24 -22 -243 299 300 -410 0
-28 -24 -22 -243 -300 -409 0
-28 -24 -22 -243 -300 409 410 0
-28 -24 -22 -243 -300 -410 0
-28 -24 -22 243 244 -299 -409 0
-28 -24 -22 243 244 -299 409 410 0
-28 -24 -22 243 244 -299 -410 0
-28 -24 -22 243 244 299 300 -409 0
-28 -24 -22 243 244 299 300 -410 0
-28 -24 -22 243 244 -300 -409 0
-28 -24 -22 243 244 -300 409 410 0
-28 -24 -22 243 244 -300 -410 0
-28 -24 -22 -244 -299 -409 0
-28 -24 -22 -244 -299 409 410 0
-28 -24 -22 -244 -299 -410 0
-28 -24 -22 -244 299 300 -409 0
-28 -24 -22 -244 299 300 409 410 0
-28 -24 -22 -244 299 300 -410 0
-28 -24 -22 -244 -300 -409 0
-28 -24 -22 -244 -300 409 410 0
29 25 22 -245 -301 465 466 0
29 25 22 -245 -301 -466 0
29 25 22 -245 301 302 -465 0
29 25 22 -245 301 302 465 466 0
29 25 22 -245 301 302 -466 0
29 25 22 -245 -302 -465 0
29 25 22 -245 -302 465 466 0
29 25 22 -245 -302 -466 0
29 25 22 245 246 -301 -465 0
29 25 22 245 246 -301 465 466 0
29 25 22 245 246 -301 -466 0
29 25 22 245 246 301 302 -465 0
29 25 22 245 246 301 302 -466 0
29 25 22 245 246 -302 -465 0
29 25 22 245 246 -302 465 466 0
29 25 22 245 246 -302 -466 0
29 25 22 -246 -301 -465 0
29 25 22 -246 -301 465 466 0
29 25 22 -246 -301 -466 0
29 25 22 -246 301 302 -465 0
29 25 22 -246 301 302 465 466 0
29 25 22 -246 301 302 -466 0
29 25 22 -246 -302 -465 0
29 25 22 -246 -302 465 466 0
29 25 -22 -245 -301 -465 0
29 25 -22 -245 -301 465 466 0
29 25 -22 -245 301 302 -465 0
29 25 -22 -245 301 302 465 466 0
29 25 -22 -245 301 302 -466 0
29 25 -22 -245 -302 -465 0
29 25 -22 -245 -302 465 466 0
29 25 -22 -245 -302 -466 0
29 25 -22 245 246 -301 -465 0
29 25 -22 245 246 -301 465 466 0
29 25 -22 245 246 -301 -466 0
29 25 -22 245 246 301 302 -465 0
29 25 -22 245 246 301 302 -466 0
29 25 -22 245 246 -302 -465 0
29 25 -22 245 246 -302 465 466 0
29 25 -22 245 246 -302 -466 0
29 25 -22 -246 -301 -465 0
29 25 -22 -246 -301 465 466 0
29 25 -22 -246 -301 -466 0
29 25 -22 -246 301 302 -465 0
29 25 -22 -246 301 302 465 466 0
29 25 -22 -246 301 302 -466 0
29 25 -22 -246 -302 465 466 0
29 25 -22 -246 -302 -466 0
29 -25 22 -245 -301 -465 0
29 -25 22 -245 -301 465 466 0
29 -25 22 -245 -301 -466 0
29 -25 22 -245 301 302 -465 0
29 -25 22 -245 301 302 465 466 0
29 -25 22 -245 301 302 -466 0
29 -25 22 -245 -302 465 466 0
29 -25 22 -245 -302 -466 0
29 -25 22 245 246 -301 -465 0
29 -25 22 245 246 -301 465 466 0
29 -25 22 245 246 -301 -466 0
29 -25 22 245 246 301 302 -465 0
29 -25 22 245 246 301 302 -466 0
29 -25 22 245 246 -302 -465 0
29 -25 22 245 246 -302 465 466 0
29 -25 22 245 246 -302 -466 0
29 -25 22 -246 -301 -465 0
29 -25 22 -246 -301 465 466 0
29 -25 22 -246 301 302 -465 0
29 -25 22 -246 301 302 465 466 0
29 -25 22 -246 301 302 -466 0
29 -25 22 -246 -302 -465 0
29 -25 22 -246 -302 465 466 0
29 -25 22 -246 -302 -466 0
29 -25 -22 -245 -301 -465 0
29 -25 -22 -245 -301 465 466 0
29 -25 -22 -245 -301 -466 0
29 -25 -22 -245 301 302 -465 0
29 -25 -22 -245 301 302 465 466 0
29 -25 -22 -245 301 302 -466 0
29 -25 -22 -245 -302 -465 0
29 -25 -22 -245 -302 465 466 0
29 -25 -22 245 246 -301 -465 0
29 -25 -22 245 246 -301 465 466 0
29 -25 -22 245 246 -301 -466 0
29 -25 -22 245 246 301 302 -465 0
29 -25 -22 245 246 301 302 -466 0
29 -25 -22 245 246 -302 -465 0
29 -25 -22 245 246 -302 465 466 0
29 -25 -22 245 246 -302 -466 0
29 -25 -22 -246 -301 465 466 0
29 -25 -22 -246 -301 -466 0
29 -25 -22 -246 301 302 -465 0
29 -25 -22 -246 301 302 465 466 0
29 -25 -22 -246 301 302 -466 0
29 -25 -22 -246 -302 -465 0
29 -25 -22 -246 -302 465 466 0
29 -25 -22 -246 -302 -466 0
-29 25 22 -245 -301 -465 0
-29 25 22 -245 -301 465 466 0
-29 25 22 -245 -301 -466 0
-29 25 22 -245 301 302 -465 0
-29 25 22 -245 301 302 465 466 0
-29 25 22 -245 301 302 -466 0
-29 25 22 -245 -302 -465 0
-29 25 22 -245 -302 465 466 0
-29 25 22 245 246 -301 -465 0
-29 25 22 245 246 -301 465 466 0
-29 25 22 245 246 -301 -466 0
-29 25 22 245 246 301 302 -465 0
-29 25 22 245 246 301 302 -466 0
-29 25 22 245 246 -302 -465 0
-29 25 22 245 246 -302 465 466 0
-29 25 22 245 246 -302 -466 0
-29 25 22 -246 -301 465 466 0
-29 25 22 -246 -301 -466 0
-29 25 22 -246 301 302 -465 0
-29 25 22 -246 301 302 465 466 0
-29 25 22 -246 301 302 -466 0
-29 25 22 -246 -302 -465 0
-29 25 22 -246 -302 465 466 0
-29 25 22 -246 -302 -466 0
-29 25 -22 -245 -301 -465 0
-29 25 -22 -245 -301 465 466 0
-29 25 -22 -245 -301 -466 0
-29 25 -22 -245 301 302 -465 0
-29 25 -22 -245 301 302 465 466 0
-29 25 -22 -245 301 302 -466 0
-29 25 -22 -245 -302 465 466 0
-29 25 -22 -245 -302 -466 0
-29 25 -22 245 246 -301 -465 0
-29 25 -22 245 246 -301 465 466 0
-29 25 -22 245 246 -301 -466 0
-29 25 -22 245 246 301 302 -465 0
-29 25 -22 245 246 301 302 -466 0
-29 25 -22 245 246 -302 -465 0
-29 25 -22 245 246 -302 465 466 0
-29 25 -22 245 246 -302 -466 0
-29 25 -22 -246 -301 -465 0
-29 25 -22 -246 -301 465 466 0
-29 25 -22 -246 301 302 -465 0
-29 25 -22 -246 301 302 465 466 0
-29 25 -22 -246 301 302 -466 0
-29 25 -22 -246 -302 -465 0
-29 25 -22 -246 -302 465 466 0
-29 25 -22 -246 -302 -466 0
-29 -25 22 -245 -301 -465 0
-29 -25 22 -245 -301 465 466 0
-29 -25 22 -245 301 302 -465 0
-29 -25 22 -245 301 302 465 466 0
-29 -25 22 -245 301 302 -466 0
-29 -25 22 -245 -302 -465 0
-29 -25 22 -245 -302 465 466 0
-29 -25 22 -245 -302 -466 0
-29 -25 22 245 246 -301 -465 0
-29 -25 22 245 246 -301 465 466 0
-29 -25 22 245 246 -301 -466 0
-29 -25 22 245 246 301 302 -465 0
-29 -25 22 245 246 301 302 -466 0
-29 -25 22 245 246 -302 -465 0
-29 -25 22 245 246 -302 465 466 0
-29 -25 22 245 246 -302 -466 0
-29 -25 22 -246 -301 -465 0
-29 -25 22 -246 -301 465 466 0
-29 -25 22 -246 -301 -466 0
-29 -25 22 -246 301 302 -465 0
-29 -25 22 -246 301 302 465 466 0
-29 -25 22 -246 301 302 -466 0
-29 -25 22 -246 -302 465 466 0
-29 -25 22 -246 -302 -466 0
-29 -25 -22 -245 -301 465 466 0
-29 -25 -22 -245 -301 -466 0
-29 -25 -22 -245 301 302 -465 0
-29 -25 -22 -245 301 302 465 466 0
-29 -25 -22 -245 301 302 -466 0
-29 -25 -22 -245 -302 -465 0
-29 -25 -22 -245 -302 465 466 0
-29 -25 -22 -245 -302 -466 0
-29 -25 -22 245 246 -301 -465 0
-29 -25 -22 245 246 -301 465 466 0
-29 -25 -22 245 246 -301 -466 0
-29 -25 -22 245 246 301 302 -465 0
-29 -25 -22 245 246 301 302 -466 0
-29 -25 -22 245 246 -302 -465 0
-29 -25 -22 245 246 -302 465 466 0
-29 -25 -22 245 246 -302 -466 0
-29 -25 -22 -246 -301 -465 0
-29 -25 -22 -246 -301 465 466 0
-29 -25 -22 -246 -301 -466 0
-29 -25 -22 -246 301 302 -465 0
-29 -25 -22 -246 301 302 465 466 0
-29 -25 -22 -246 301 302 -466 0
-29 -25 -22 -246 -302 -465 0
-29 -25 -22 -246 -302 465 466 0
30 26 22 -247 -303 521 522 0
30 26 22 -247 -303 -522 0
30 26 22 -247 303 304 -521 0
30 26 22 -247 303 304 521 522 0
30 26 22 -247 303 304 -522 0
30 26 22 -247 -304 -521 0
30 26 22 -247 -304 521 522 0
30 26 22 -247 -304 -522 0
30 26 22 247 248 -303 -521 0
30 26 22 247 248 -303 521 522 0
30 26 22 247 248 -303 -522 0
30 26 22 247 248 303 304 -521 0
30 26 22 247 248 303 304 -522 0
30 26 22 247 248 -304 -521 0
30 26 22 247 248 -304 521 522 0
30 26 22 247 248 -304 -522 0
30 26 22 -248 -303 -521 0
30 26 22 -248 -303 521 522 0
30 26 22 -248 -303 -522 0
30 26 22 -248 303 304 -521 0
30 26 22 -248 303 304 521 522 0
30 26 22 -248 303 304 -522 0
30 26 22 -248 -304 -521 0
30 26 22 -248 -304 521 522 0
30 26 -22 -247 -303 -521 0
30 26 -22 -247 -303 521 522 0
30 26 -22 -247 303 304 -521 0
30 26 -22 -247 303 304 521 522 0
30 26 -22 -247 303 304 -522 0
30 26 -22 -247 -304 -521 0
30 26 -22 -247 -304 521 522 0
30 26 -22 -247 -304 -522 0
30 26 -22 247 248 -303 -521 0
30 26 -22 247 248 -303 521 522 0
30 26 -22 247 248 -303 -522 0
30 26 -22 247 248 303 304 -521 0
30 26 -22 247 248 303 304 -522 0
30 26 -22 247 248 -304 -521 0
30 26 -22 247 248 -304 521 522 0
30 26 -22 247 248 -304 -522 0
30 26 -22 -248 -303 -521 0
30 26 -22 -248 -303 521 522 0
30 26 -22 -248 -303 -522 0
30 26 -22 -248 303 304 -521 0
30 26 -22 -248 303 304 521 522 0
30 26 -22 -248 303 304 -522 0
30 26 -22 -248 -304 521 522 0
30 26 -22 -248 -304 -522 0
30 -26 22 -247 -303 -521 0
30 -26 22 -247 -303 521 522 0
30 -26 22 -247 -303 -522 0
30 -26 22 -247 303 304 -521 0
30 -26 22 -247 303 304 521 522 0
30 -26 22 -247 303 304 -522 0
30 -26 22 -247 -304 521 522 0
30 -26 22 -247 -304 -522 0
30 -26 22 247 248 -303 -521 0
30 -26 22 247 248 -303 521 522 0
30 -26 22 247 248 -303 -522 0
30 -26 22 247 248 303 304 -521 0
30 -26 22 247 248 303 304 -522 0
30 -26 22 247 248 -304 -521 0
30 -26 22 247 248 -304 521 522 0
30 -26 22 247 248 -304 -522 0
30 -26 22 -248 -303 -521 0
30 -26 22 -248 -303 521 522 0
30 -26 22 -248 303 304 -521 0
30 -26 22 -248 303 304 521 522 0
30 -26 22 -248 303 304 -522 0
30 -26 22 -248 -304 -521 0
30 -26 22 -248 -304 521 522 0
30 -26 22 -248 -304 -522 0
30 -26 -22 -247 -303 -521 0
30 -26 -22 -247 -303 521 522 0
30 -26 -22 -247 -303 -522 0
30 -26 -22 -247 303 304 -521 0
30 -26 -22 -247 303 304 521 522 0
30 -26 -22 -247 303 304 -522 0
30 -26 -22 -247 -304 -521 0
30 -26 -22 -247 -304 521 522 0
30 -26 -22 247 248 -303 -521 0
30 -26 -22 247 248 -303 521 522 0
30 -26 -22 247 248 -303 -522 0
30 -26 -22 247 248 303 304 -521 0
30 -26 -22 247 248 303 304 -522 0
30 -26 -22 247 248 -304 -521 0
30 -26 -22 247 248 -304 521 522 0
30 -26 -22 247 248 -304 -522 0
30 -26 -22 -248 -303 521 522 0
30 -26 -22 -248 -303 -522 0
30 -26 -22 -248 303 304 -521 0
30 -26 -22 -248 303 304 521 522 0
30 -26 -22 -248 303 304 -522 0
30 -26 -22 -248 -304 -521 0
30 -26 -22 -248 -304 521 522 0
30 -26 -22 -248 -304 -522 0
-30 26 22 -247 -303 -521 0
-30 26 22 -247 -303 521 522 0
-30 26 22 -247 -303 -522 0
-30 26 22 -247 303 304 -521 0
-30 26 22 -247 303 304 521 522 0
-30 26 22 -247 303 304 -522 0
-30 26 22 -247 -304 -521 0
-30 26 22 -247 -304 521 522 0
-30 26 22 247 248 -303 -521 0
-30 26 22 247 248 -303 521 522 0
-30 26 22 247 248 -303 -522 0
-30 26 22 247 248 303 304 -521 0
-30 26 22 247 248 303 304 -522 0
-30 26 22 247 248 -304 -521 0
-30 26 22 247 248 -304 521 522 0
-30 26 22 247 248 -304 -522 0
-30 26 22 -248 -303 521 522 0
-30 26 22 -248 -303 -522 0
-30 26 22 -248 303 304 -521 0
-30 26 22 -248 303 304 521 522 0
-30 26 22 -248 303 304 -522 0
-30 26 22 -248 -304 -521 0
-30 26 22 -248 -304 521 522 0
-30 26 22 -248 -304 -522 0
-30 26 -22 -247 -303 -521 0
-30 26 -22 -247 -303 521 522 0
-30 26 -22 -247 -303 -522 0
-30 26 -22 -247 303 304 -521 0
-30 26 -22 -247 303 304 521 522 0
-30 26 -22 -247 303 304 -522 0
-30 26 -22 -247 -304 521 522 0
-30 26 -22 -247 -304 -522 0
-30 26 -22 247 248 -303 -521 0
-30 26 -22 247 248 -303 521 522 0
-30 26 -22 247 248 -303 -522 0
-30 26 -22 247 248 303 304 -521 0
-30 26 -22 247 248 303 304 -522 0
-30 26 -22 247 248 -304 -521 0
-30 26 -22 247 248 -304 521 522 0
-30 26 -22 247 248 -304 -522 0
-30 26 -22 -248 -303 -521 0
-30 26 -22 -248 -303 521 522 0
-30 26 -22 -248 303 304 -521 0
-30 26 -22 -248 303 304 521 522 0
-30 26 -22 -248 303 304 -522 0
-30 26 -22 -248 -304 -521 0
-30 26 -22 -248 -304 521 522 0
-30 26 -22 -248 -304 -522 0
-30 -26 22 -247 -303 -521 0
-30 -26 22 -247 -303 521 522 0
-30 -26 22 -247 303 304 -521 0
-30 -26 22 -247 303 304 521 522 0
-30 -26 22 -247 303 304 -522 0
-30 -26 22 -247 -304 -521 0
-30 -26 22 -247 -304 521 522 0
-30 -26 22 -247 -304 -522 0
-30 -26 22 247 248 -303 -521 0
-30 -26 22 247 248 -303 521 522 0
-30 -26 22 247 248 -303 -522 0
-30 -26 22 247 248 303 304 -521 0
-30 -26 22 247 248 303 304 -522 0
-30 -26 22 247 248 -304 -521 0
-30 -26 22 247 248 -304 521 522 0
-30 -26 22 247 248 -304 -522 0
-30 -26 22 -248 -303 -521 0
-30 -26 22 -248 -303 521 522 0
-30 -26 22 -248 -303 -522 0
-30 -26 22 -248 303 304 -521 0
-30 -26 22 -248 303 304 521 522 0
-30 -26 22 -248 303 304 -522 0
-30 -26 22 -248 -304 521 522 0
-30 -26 22 -248 -304 -522 0
-30 -26 -22 -247 -303 521 522 0
-30 -26 -22 -247 -303 -522 0
-30 -26 -22 -247 303 304 -521 0
-30 -26 -22 -247 303 304 521 522 0
-30 -26 -22 -247 303 304 -522 0
-30 -26 -22 -247 -304 -521 0
-30 -26 -22 -247 -304 521 522 0
-30 -26 -22 -247 -304 -522 0
-30 -26 -22 247 248 -303 -521 0
-30 -26 -22 247 248 -303 521 522 0
-30 -26 -22 247 248 -303 -522 0
-30 -26 -22 247 248 303 304 -521 0
-30 -26 -22 247 248 303 304 -522 0
-30 -26 -22 247 248 -304 -521 0
-30 -26 -22 247 248 -304 521 522 0
-30 -26 -22 247 248 -304 -522 0
-30 -26 -22 -248 -303 -521 0
-30 -26 -22 -248 -303 521 522 0
-30 -26 -22 -248 -303 -522 0
-30 -26 -22 -248 303 304 -521 0
-30 -26 -22 -248 303 304 521 522 0
-30 -26 -22 -248 303 304 -522 0
-30 -26 -22 -248 -304 -521 0
-30 -26 -22 -248 -304 521 522 0
31 24 23 -249 -355 411 412 0
31 24 23 -249 -355 -412 0
31 24 23 -249 355 356 -411 0
31 24 23 -249 355 356 411 412 0
31 24 23 -249 355 356 -412 0
31 24 23 -249 -356 -411 0
31 24 23 -249 -356 411 412 0
31 24 23 -249 -356 -412 0
31 24 23 249 250 -355 -411 0
31 24 23 249 250 -355 411 412 0
31 24 23 249 250 -355 -412 0
31 24 23 249 250 355 356 -411 0
31 24 23 249 250 355 356 -412 0
31 24 23 249 250 -356 -411 0
31 24 23 249 250 -356 411 412 0
31 24 23 249 250 -356 -412 0
31 24 23 -250 -355 -411 0
31 24 23 -250 -355 411 412 0
31 24 23 -250 -355 -412 0
31 24 23 -250 355 356 -411 0
31 24 23 -250 355 356 411 412 0
31 24 23 -250 355 356 -412 0
31 24 23 -250 -356 -411 0
31 24 23 -250 -356 411 412 0
31 24 -23 -249 -355 -411 0
31 24 -23 -249 -355 411 412 0
31 24 -23 -249 355 356 -411 0
31 24 -23 -249 355 356 411 412 0
31 24 -23 -249 355 356 -412 0
31 24 -23 -249 -356 -411 0
31 24 -23 -249 -356 411 412 0
31 24 -23 -249 -356 -412 0
31 24 -23 249 250 -355 -411 0
31 24 -23 249 250 -355 411 412 0
31 24 -23 249 250 -355 -412 0
31 24 -23 249 250 355 356 -411 0
31 24 -23 249 250 355 356 -412 0
31 24 -23 249 250 -356 -411 0
31 24 -23 249 250 -356 411 412 0
31 24 -23 249 250 -356 -412 0
31 24 -23 -250 -355 -411 0
31 24 -23 -250 -355 411 412 0
31 24 -23 -250 -355 -412 0
31 24 -23 -250 355 356 -411 0
31 24 -23 -250 355 356 411 412 0
31 24 -23 -250 355 356 -412 0
31 24 -23 -250 -356 411 412 0
31 24 -23 -250 -356 -412 0
31 -24 23 -249 -355 -411 0
31 -24 23 -249 -355 411 412 0
31 -24 23 -249 -355 -412 0
31 -24 23 -249 355 356 -411 0
31 -24 23 -249 355 356 411 412 0
31 -24 23 -249 355 356 -412 0
31 -24 23 -249 -356 411 412 0
31 -24 23 -249 -356 -412 0
31 -24 23 249 250 -355 -411 0
31 -24 23 249 250 -355 411 412 0
31 -24 23 249 250 -355 -412 0
31 -24 23 249 250 355 356 -411 0
31 -24 23 249 250 355 356 -412 0
31 -24 23 249 250 -356 -411 0
31 -24 23 249 250 -356 411 412 0
31 -24 23 249 250 -356 -412 0
31 -24 23 -250 -355 -411 0
31 -24 23 -250 -355 411 412 0
31 -24 23 -250 355 356 -411 0
31 -24 23 -250 355 356 411 412 0
31 -24 23 -250 355 356 -412 0
31 -24 23 -250 -356 -411 0
31 -24 23 -250 -356 411 412 0
31 -24 23 -250 -356 -412 0
31 -24 -23 -249 -355 -411 0
31 -24 -23 -249 -355 411 412 0
31 -24 -23 -249 -355 -412 0
31 -24 -23 -249 355 356 -411 0
31 -24 -23 -249 355 356 411 412 0
31 -24 -23 -249 355 356 -412 0
31 -24 -23 -249 -356 -411 0
31 -24 -23 -249 -356 411 412 0
31 -24 -23 249 250 -355 -411 0
31 -24 -23 249 250 -355 411 412 0
31 -24 -23 249 250 -355 -412 0
31 -24 -23 249 250 355 356 -411 0
31 -24 -23 249 250 355 356 -412 0
31 -24 -23 249 250 -356 -411 0
31 -24 -23 249 250 -356 411 412 0
31 -24 -23 249 250 -356 -412 0
31 -24 -23 -250 -355 411 412 0
31 -24 -23 -250 -355 -412 0
31 -24 -23 -250 355 356 -411 0
31 -24 -23 -250 355 356 411 412 0
31 -24 -23 -250 355 356 -412 0
31 -24 -23 -250 -356 -411 0
31 -24 -23 -250 -356 411 412 0
31 -24 -23 -250 -356 -412 0
-31 24 23 -249 -355 -411 0
-31 24 23 -249 -355 411 412 0
-31 24 23 -249 -355 -412 0
-31 24 23 -249 355 356 -411 0
-31 24 23 -249 355 356 411 412 0
-31 24 23 -249 355 356 -412 0
-31 24 23 -249 -356 -411 0
-31 24 23 -249 -356 411 412 0
-31 24 23 249 250 -355 -411 0
-31 24 23 249 250 -355 411 412 0
-31 24 23 249 250 -355 -412 0
-31 24 23 249 250 355 356 -411 0
-31 24 23 249 250 355 356 -412 0
-31 24 23 249 250 -356 -411 0
-31 24 23 249 250 -356 411 412 0
-31 24 23 249 250 -356 -412 0
-31 24 23 -250 -355 411 412 0
-31 24 23 -250 -355 -412 0
-31 24 23 -250 355 356 -411 0
-31 24 23 -250 355 356 411 412 0
-31 24 23 -250 355 356 -412 0
-31 24 23 -250 -356 -411 0
-31 24 23 -250 -356 411 412 0
-31 24 23 -250 -356 -412 0
-31 24 -23 -249 -355 -411 0
-31 24 -23 -249 -355 411 412 0
-31 24 -23 -249 -355 -412 0
-31 24 -23 -249 355 356 -411 0
-31 24 -23 -249 355 356 411 412 0
-31 24 -23 -249 355 356 -412 0
-31 24 -23 -249 -356 411 412 0
-31 24 -23 -249 -356 -412 0
-31 24 -23 249 250 -355 -411 0
-31 24 -23 249 250 -355 411 412 0
-31 24 -23 249 250 -355 -412 0
-31 24 -23 249 250 355 356 -411 0
-31 24 -23 249 250 355 356 -412 0
-31 24 -23 249 250 -356 -411 0
-31 24 -23 249 250 -356 411 412 0
-31 24 -23 249 250 -356 -412 0
-31 24 -23 -250 -355 -411 0
-31 24 -23 -250 -355 411 412 0
-31 24 -23 -250 355 356 -411 0
-31 24 -23 -250 355 356 411 412 0
-31 24 -23 -250 355 356 -412 0
-31 24 -23 -250 -356 -411 0
-31 24 -23 -250 -356 411 412 0
-31 24 -23 -250 -356 -412 0
-31 -24 23 -249 -355 -411 0
-31 -24 23 -249 -355 411 412 0
-31 -24 23 -249 355 356 -411 0
-31 -24 23 -249 355 356 411 412 0
-31 -24 23 -249 355 356 -412 0
-31 -24 23 -249 -356 -411 0
-31 -24 23 -249 -356 411 412 0
-31 -24 23 -249 -356 -412 0
-31 -24 23 249 250 -355 -411 0
-31 -24 23 249 250 -355 411 412 0
-31 -24 23 249 250 -355 -412 0
-31 -24 23 249 250 355 356 -411 0
-31 -24 23 249 250 355 356 -412 0
-31 -24 23 249 250 -356 -411 0
-31 -24 23 249 250 -356 411 412 0
-31 -24 23 249 250 -356 -412 0
-31 -24 23 -250 -355 -411 0
-31 -24 23 -250 -355 411 412 0
-31 -24 23 -250 -355 -412 0
-31 -24 23 -250 355 356 -411 0
-31 -24 23 -250 355 356 411 412 0
-31 -24 23 -250 355 356 -412 0
-31 -24 23 -250 -356 411 412 0
-31 -24 23 -250 -356 -412 0
-31 -24 -23 -249 -355 411 412 0
-31 -24 -23 -249 -355 -412 0
-31 -24 -23 -249 355 356 -411 0
-31 -24 -23 -249 355 356 411 412 0
-31 -24 -23 -249 355 356 -412 0
-31 -24 -23 -249 -356 -411 0
-31 -24 -23 -249 -356 411 412 0
-31 -24 -23 -249 -356 -412 0
-31 -24 -23 249 250 -355 -411 0
-31 -24 -23 249 250 -355 411 412 0
-31 -24 -23 249 250 -355 -412 0
-31 -24 -23 249 250 355 356 -411 0
-31 -24 -23 249 250 355 356 -412 0
-31 -24 -23 249 250 -356 -411 0
-31 -24 -23 249 250 -356 411 412 0
-31 -24 -23 249 250 -356 -412 0
-31 -24 -23 -250 -355 -411 0
-31 -24 -23 -250 -355 411 412 0
-31 -24 -23 -250 -355 -412 0
-31 -24 -23 -250 355 356 -411 0
-31 -24 -23 -250 355 356 411 412 0
-31 -24 -23 -250 355 356 -412 0
-31 -24 -23 -250 -356 -411 0
-31 -24 -23 -250 -356 411 412 0
32 25 23 -251 -357 467 468 0
32 25 23 -251 -357 -468 0
32 25 23 -251 357 358 -467 0
32 25 23 -251 357 358 467 468 0
32 25 23 -251 357 358 -468 0
32 25 23 -251 -358 -467 0
32 25 23 -251 -358 467 468 0
32 25 23 -251 -358 -468 0
32 25 23 251 252 -357 -467 0
32 25 23 251 252 -357 467 468 0
32 25 23 251 252 -357 -468 0
32 25 23 251 252 357 358 -467 0
32 25 23 251 252 357 358 -468 0
32 25 23 251 252 -358 -467 0
32 25 23 251 252 -358 467 468 0
32 25 23 251 252 -358 -468 0
32 25 23 -252 -357 -467 0
32 25 23 -252 -357 467 468 0
32 25 23 -252 -357 -468 0
32 25 23 -252 357 358 -467 0
32 25 23 -252 357 358 467 468 0
32 25 23 -252 357 358 -468 0
32 25 23 -252 -358 -467 0
32 25 23 -252 -358 467 468 0
32 25 -23 -251 -357 -467 0
32 25 -23 -251 -357 467 468 0
32 25 -23 -251 357 358 -467 0
32 25 -23 -251 357 358 467 468 0
32 25 -23 -251 357 358 -468 0
32 25 -23 -251 -358 -467 0
32 25 -23 -251 -358 467 468 0
32 25 -23 -251 -358 -468 0
32 25 -23 251 252 -357 -467 0
32 25 -23 251 252 -357 467 468 0
32 25 -23 251 252 -357 -468 0
32 25 -23 251 252 357 358 -467 0
32 25 -23 251 252 357 358 -468 0
32 25 -23 251 252 -358 -467 0
32 25 -23 251 252 -358 467 468 0
32 25 -23 251 252 -358 -468 0
32 25 -23 -252 -357 -467 0
32 25 -23 -252 -357 467 468 0
32 25 -23 -252 -357 -468 0
32 25 -23 -252 357 358 -467 0
32 25 -23 -252 357 358 467 468 0
32 25 -23 -252 357 358 -468 0
32 25 -23 -252 -358 467 468 0
32 25 -23 -252 -358 -468 0
32 -25 23 -251 -357 -467 0
32 -25 23 -251 -357 467 468 0
32 -25 23 -251 -357 -468 0
32 -25 23 -251 357 358 -467 0
32 -25 23 -251 357 358 467 468 0
32 -25 23 -251 357 358 -468 0
32 -25 23 -251 -358 467 468 0
32 -25 23 -251 -358 -468 0
32 -25 23 251 252 -357 -467 0
32 -25 23 251 252 -357 467 468 0
32 -25 23 251 252 -357 -468 0
32 -25 23 251 252 357 358 -467 0
32 -25 23 251 252 357 358 -468 0
32 -25 23 251 252 -358 -467 0
32 -25 23 251 252 -358 467 468 0
32 -25 23 251 252 -358 -468 0
32 -25 23 -252 -357 -467 0
32 -25 23 -252 -357 467 468 0
32 -25 23 -252 357 358 -467 0
32 -25 23 -252 357 358 467 468 0
32 -25 23 -252 357 358 -468 0
32 -25 23 -252 -358 -467 0
32 -25 23 -252 -358 467 468 0
32 -25 23 -252 -358 -468 0
32 -25 -23 -251 -357 -467 0
32 -25 -23 -251 -357 467 468 0
32 -25 -23 -251 -357 -468 0
32 -25 -23 -251 357 358 -467 0
32 -25 -23 -251 357 358 467 468 0
32 -25 -23 -251 357 358 -468 0
32 -25 -23 -251 -358 -467 0
32 -25 -23 -251 -358 467 468 0
32 -25 -23 251 252 -357 -467 0
32 -25 -23 251 252 -357 467 468 0
32 -25 -23 251 252 -357 -468 0
32 -25 -23 251 252 357 358 -467 0
32 -25 -23 251 252 357 358 -468 0
32 -25 -23 251 252 -358 -467 0
32 -25 -23 251 252 -358 467 468 0
32 -25 -23 251 252 -358 -468 0
32 -25 -23 -252 -357 467 468 0
32 -25 -23 -252 -357 -468 0
32 -25 -23 -252 357 358 -467 0
32 -25 -23 -252 357 358 467 468 0
32 -25 -23 -252 357 358 -468 0
32 -25 -23 -252 -358 -467 0
32 -25 -23 -252 -358 467 468 0
32 -25 -23 -252 -358 -468 0
-32 25 23 -251 -357 -467 0
-32 25 23 -251 -357 467 468 0
-32 25 23 -251 -357 -468 0
-32 25 23 -251 357 358 -467 0
-32 25 23 -251 357 358 467 468 0
-32 25 23 -251 357 358 -468 0
-32 25 23 -251 -358 -467 0
-32 25 23 -251 -358 467 468 0
-32 25 23 251 252 -357 -467 0
-32 25 23 251 252 -357 467 468 0
-32 25 23 251 252 -357 -468 0
-32 25 23 251 252 357 358 -467 0
-32 25 23 251 252 357 358 -468 0
-32 25 23 251 252 -358 -467 0
-32 25 23 251 252 -358 467 468 0
-32 25 23 251 252 -358 -468 0
-32 25 23 -252 -357 467 468 0
-32 25 23 -252 -357 -468 0
-32 25 23 -252 357 358 -467 0
-32 25 23 -252 357 358 467 468 0
-32 25 23 -252 357 358 -468 0
-32 25 23 -252 -358 -467 0
-32 25 23 -252 -358 467 468 0
-32 25 23 -252 -358 -468 0
-32 25 -23 -251 -357 -467 0
-32 25 -23 -251 -357 467 468 0
-32 25 -23 -251 -357 -468 0
-32 25 -23 -251 357 358 -467 0
-32 25 -23 -251 357 358 467 468 0
-32 25 -23 -251 357 358 -468 0
-32 25 -23 -251 -358 467 468 0
-32 25 -23 -251 -358 -468 0
-32 25 -23 251 252 -357 -467 0
-32 25 -23 251 252 -357 467 468 0
-32 25 -23 251 252 -357 -468 0
-32 25 -23 251 252 357 358 -467 0
-32 25 -23 251 252 357 358 -468 0
-32 25 -23 251 252 -358 -467 0
-32 25 -23 251 252 -358 467 468 0
-32 25 -23 251 252 -358 -468 0
-32 25 -23 -252 -357 -467 0
-32 25 -23 -252 -357 467 468 0
-32 25 -23 -252 357 358 -467 0
-32 25 -23 -252 357 358 467 468 0
-32 25 -23 -252 357 358 -468 0
-32 25 -23 -252 -358 -467 0
-32 25 -23 -252 -358 467 468 0
-32 25 -23 -252 -358 -468 0
-32 -25 23 -251 -357 -467 0
-32 -25 23 -251 -357 467 468 0
-32 -25 23 -251 357 358 -467 0
-32 -25 23 -251 357 358 467 468 0
-32 -25 23 -251 357 358 -468 0
-32 -25 23 -251 -358 -467 0
-32 -25 23 -251 -358 467 468 0
-32 -25 23 -251 -358 -468 0
-32 -25 23 251 252 -357 -467 0
-32 -25 23 251 252 -357 467 468 0
-32 -25 23 251 252 -357 -468 0
-32 -25 23 251 252 357 358 -467 0
-32 -25 23 251 252 357 358 -468 0
-32 -25 23 251 252 -358 -467 0
-32 -25 23 251 252 -358 467 468 0
-32 -25 23 251 252 -358 -468 0
-32 -25 23 -252 -357 -467 0
-32 -25 23 -252 -357 467 468 0
-32 -25 23 -252 -357 -468 0
-32 -25 23 -252 357 358 -467 0
-32 -25 23 -252 357 358 467 468 0
-32 -25 23 -252 357 358 -468 0
-32 -25 23 -252 -358 467 468 0
-32 -25 23 -252 -358 -468 0
-32 -25 -23 -251 -357 467 468 0
-32 -25 -23 -251 -357 -468 0
-32 -25 -23 -251 357 358 -467 0
-32 -25 -23 -251 357 358 467 468 0
-32 -25 -23 -251 357 358 -468 0
-32 -25 -23 -251 -358 -467 0
-32 -25 -23 -251 -358 467 468 0
-32 -25 -23 -251 -358 -468 0
-32 -25 -23 251 252 -357 -467 0
-32 -25 -23 251 252 -357 467 468 0
-32 -25 -23 251 252 -357 -468 0
-32 -25 -23 251 252 357 358 -467 0
-32 -25 -23 251 252 357 358 -468 0
-32 -25 -23 251 252 -358 -467 0
-32 -25 -23 251 252 -358 467 468 0
-32 -25 -23 251 252 -358 -468 0
-32 -25 -23 -252 -357 -467 0
-32 -25 -23 -252 -357 467 468 0
-32 -25 -23 -252 -357 -468 0
-32 -25 -23 -252 357 358 -467 0
-32 -25 -23 -252 357 358 467 468 0
-32 -25 -23 -252 357 358 -468 0
-32 -25 -23 -252 -358 -467 0
-32 -25 -23 -252 -358 467 468 0
33 26 23 -253 -359 523 524 0
33 26 23 -253 -359 -524 0
33 26 23 -253 359 360 -523 0
33 26 23 -253 359 360 523 524 0
33 26 23 -253 359 360 -524 0
33 26 23 -253 -360 -523 0
33 26 23 -253 -360 523 524 0
33 26 23 -253 -360 -524 0
33 26 23 253 254 -359 -523 0
33 26 23 253 254 -359 523 524 0
33 26 23 253 254 -359 -524 0
33 26 23 253 254 359 360 -523 0
33 26 23 253 254 359 360 -524 0
33 26 23 253 254 -360 -523 0
33 26 23 253 254 -360 523 524 0
33 26 23 253 254 -360 -524 0
33 26 23 -254 -359 -523 0
33 26 23 -254 -359 523 524 0
33 26 23 -254 -359 -524 0
33 26 23 -254 359 360 -523 0
33 26 23 -254 359 360 523 524 0
33 26 23 -254 359 360 -524 0
33 26 23 -254 -360 -523 0
33 26 23 -254 -360 523 524 0
33 26 -23 -253 -359 -523 0
33 26 -23 -253 -359 523 524 0
33 26 -23 -253 359 360 -523 0
33 26 -23 -253 359 360 523 524 0
33 26 -23 -253 359 360 -524 0
33 26 -23 -253 -360 -523 0
33 26 -23 -253 -360 523 524 0
33 26 -23 -253 -360 -524 0
33 26 -23 253 254 -359 -523 0
33 26 -23 253 254 -359 523 524 0
33 26 -23 253 254 -359 -524 0
33 26 -23 253 254 359 360 -523 0
33 26 -23 253 254 359 360 -524 0
33 26 -23 253 254 -360 -523 0
33 26 -23 253 254 -360 523 524 0
33 26 -23 253 254 -360 -524 0
33 26 -23 -254 -359 -523 0
33 26 -23 -254 -359 523 524 0
33 26 -23 -254 -359 -524 0
33 26 -23 -254 359 360 -523 0
33 26 -23 -254 359 360 523 524 0
33 26 -23 -254 359 360 -524 0
33 26 -23 -254 -360 523 524 0
33 26 -23 -254 -360 -524 0
33 -26 23 -253 -359 -523 0
33 -26 23 -253 -359 523 524 0
33 -26 23 -253 -359 -524 0
33 -26 23 -253 359 360 -523 0
33 -26 23 -253 359 360 523 524 0
33 -26 23 -253 359 360 -524 0
33 -26 23 -253 -360 523 524 0
33 -26 23 -253 -360 -524 0
33 -26 23 253 254 -359 -523 0
33 -26 23 253 254 -359 523 524 0
33 -26 23 253 254 -359 -524 0
33 -26 23 253 254 359 360 -523 0
33 -26 23 253 254 359 360 -524 0
33 -26 23 253 254 -360 -523 0
33 -26 23 253 254 -360 523 524 0
33 -26 23 253 254 -360 -524 0
33 -26 23 -254 -359 -523 0
33 -26 23 -254 -359 523 524 0
33 -26 23 -254 359 360 -523 0
33 -26 23 -254 359 360 523 524 0
33 -26 23 -254 359 360 -524 0
33 -26 23 -254 -360 -523 0
33 -26 23 -254 -360 523 524 0
33 -26 23 -254 -360 -524 0
33 -26 -23 -253 -359 -523 0
33 -26 -23 -253 -359 523 524 0
33 -26 -23 -253 -359 -524 0
33 -26 -23 -253 359 360 -523 0
33 -26 -23 -253 359 360 523 524 0
33 -26 -23 -253 359 360 -524 0
33 -26 -23 -253 -360 -523 0
33 -26 -23 -253 -360 523 524 0
33 -26 -23 253 254 -359 -523 0
33 -26 -23 253 254 -359 523 524 0
33 -26 -23 253 254 -359 -524 0
33 -26 -23 253 254 359 360 -523 0
33 -26 -23 253 254 359 360 -524 0
33 -26 -23 253 254 -360 -523 0
33 -26 -23 253 254 -360 523 524 0
33 -26 -23 253 254 -360 -524 0
33 -26 -23 -254 -359 523 524 0
33 -26 -23 -254 -359 -524 0
33 -26 -23 -254 359 360 -523 0
33 -26 -23 -254 359 360 523 524 0
33 -26 -23 -254 359 360 -524 0
33 -26 -23 -254 -360 -523 0
33 -26 -23 -254 -360 523 524 0
33 -26 -23 -254 -360 -524 0
-33 26 23 -253 -359 -523 0
-33 26 23 -253 -359 523 524 0
-33 26 23 -253 -359 -524 0
-33 26 23 -253 359 360 -523 0
-33 26 23 -253 359 360 523 524 0
-33 26 23 -253 359 360 -524 0
-33 26 23 -253 -360 -523 0
-33 26 23 -253 -360 523 524 0
-33 26 23 253 254 -359 -523 0
-33 26 23 253 254 -359 523 524 0
-33 26 23 253 254 -359 -524 0
-33 26 23 253 254 359 360 -523 0
-33 26 23 253 254 359 360 -524 0
-33 26 23 253 254 -360 -523 0
-33 26 23 253 254 -360 523 524 0
-33 26 23 253 254 -360 -524 0
-33 26 23 -254 -359 523 524 0
-33 26 23 -254 -359 -524 0
-33 26 23 -254 359 360 -523 0
-33 26 23 -254 359 360 523 524 0
-33 26 23 -254 359 360 -524 0
-33 26 23 -254 -360 -523 0
-33 26 23 -254 -360 523 524 0
-33 26 23 -254 -360 -524 0
-33 26 -23 -253 -359 -523 0
-33 26 -23 -253 -359 523 524 0
-33 26 -23 -253 -359 -524 0
-33 26 -23 -253 359 360 -523 0
-33 26 -23 -253 359 360 523 524 0
-33 26 -23 -253 359 360 -524 0
-33 26 -23 -253 -360 523 524 0
-33 26 -23 -253 -360 -524 0
-33 26 -23 253 254 -359 -523 0
-33 26 -23 253 254 -359 523 524 0
-33 26 -23 253 254 -359 -524 0
-33 26 -23 253 254 359 360 -523 0
-33 26 -23 253 254 359 360 -524 0
-33 26 -23 253 254 -360 -523 0
-33 26 -23 253 254 -360 523 524 0
-33 26 -23 253 254 -360 -524 0
-33 26 -23 -254 -359 -523 0
-33 26 -23 -254 -359 523 524 0
-33 26 -23 -254 359 360 -523 0
-33 26 -23 -254 359 360 523 524 0
-33 26 -23 -254 359 360 -524 0
-33 26 -23 -254 -360 -523 0
-33 26 -23 -254 -360 523 524 0
-33 26 -23 -254 -360 -524 0
-33 -26 23 -253 -359 -523 0
-33 -26 23 -253 -359 523 524 0
-33 -26 23 -253 359 360 -523 0
-33 -26 23 -253 359 360 523 524 0
-33 -26 23 -253 359 360 -524 0
-33 -26 23 -253 -360 -523 0
-33 -26 23 -253 -360 523 524 0
-33 -26 23 -253 -360 -524 0
-33 -26 23 253 254 -359 -523 0
-33 -26 23 253 254 -359 523 524 0
-33 -26 23 253 254 -359 -524 0
-33 -26 23 253 254 359 360 -523 0
-33 -26 23 253 254 359 360 -524 0
-33 -26 23 253 254 -360 -523 0
-33 -26 23 253 254 -360 523 524 0
-33 -26 23 253 254 -360 -524 0
-33 -26 23 -254 -359 -523 0
-33 -26 23 -254 -359 523 524 0
-33 -26 23 -254 -359 -524 0
-33 -26 23 -254 359 360 -523 0
-33 -26 23 -254 359 360 523 524 0
-33 -26 23 -254 359 360 -524 0
-33 -26 23 -254 -360 523 524 0
-33 -26 23 -254 -360 -524 0
-33 -26 -23 -253 -359 523 524 0
-33 -26 -23 -253 -359 -524 0
-33 -26 -23 -253 359 360 -523 0
-33 -26 -23 -253 359 360 523 524 0
-33 -26 -23 -253 359 360 -524 0
-33 -26 -23 -253 -360 -523 0
-33 -26 -23 -253 -360 523 524 0
-33 -26 -23 -253 -360 -524 0
-33 -26 -23 253 254 -359 -523 0
-33 -26 -23 253 254 -359 523 524 0
-33 -26 -23 253 254 -359 -524 0
-33 -26 -23 253 254 359 360 -523 0
-33 -26 -23 253 254 359 360 -524 0
-33 -26 -23 253 254 -360 -523 0
-33 -26 -23 253 254 -360 523 524 0
-33 -26 -23 253 254 -360 -524 0
-33 -26 -23 -254 -359 -523 0
-33 -26 -23 -254 -359 523 524 0
-33 -26 -23 -254 -359 -524 0
-33 -26 -23 -254 359 360 -523 0
-33 -26 -23 -254 359 360 523 524 0
-33 -26 -23 -254 359 360 -524 0
-33 -26 -23 -254 -360 -523 0
-33 -26 -23 -254 -360 523 524 0
34 25 24 -255 -413 469 470 0
34 25 24 -255 -413 -470 0
34 25 24 -255 413 414 -469 0
34 25 24 -255 413 414 469 470 0
34 25 24 -255 413 414 -470 0
34 25 24 -255 -414 -469 0
34 25 24 -255 -414 469 470 0
34 25 24 -255 -414 -470 0
34 25 24 255 256 -413 -469 0
34 25 24 255 256 -413 469 470 0
34 25 24 255 256 -413 -470 0
34 25 24 255 256 413 414 -469 0
34 25 24 255 256 413 414 -470 0
34 25 24 255 256 -414 -469 0
34 25 24 255 256 -414 469 470 0
34 25 24 255 256 -414 -470 0
34 25 24 -256 -413 -469 0
34 25 24 -256 -413 469 470 0
34 25 24 -256 -413 -470 0
34 25 24 -256 413 414 -469 0
34 25 24 -256 413 414 469 470 0
34 25 24 -256 413 414 -470 0
34 25 24 -256 -414 -469 0
34 25 24 -256 -414 469 470 0
34 25 -24 -255 -413 -469 0
34 25 -24 -255 -413 469 470 0
34 25 -24 -255 413 414 -469 0
34 25 -24 -255 413 414 469 470 0
34 25 -24 -255 413 414 -470 0
34 25 -24 -255 -414 -469 0
34 25 -24 -255 -414 469 470 0
34 25 -24 -255 -414 -470 0
34 25 -24 255 256 -413 -469 0
34 25 -24 255 256 -413 469 470 0
34 25 -24 255 256 -413 -470 0
34 25 -24 255 256 413 414 -469 0
34 25 -24 255 256 413 414 -470 0
34 25 -24 255 256 -414 -469 0
34 25 -24 255 256 -414 469 470 0
34 25 -24 255 256 -414 -470 0
34 25 -24 -256 -413 -469 0
34 25 -24 -256 -413 469 470 0
34 25 -24 -256 -413 -470 0
34 25 -24 -256 413 414 -469 0
34 25 -24 -256 413 414 469 470 0
34 25 -24 -256 413 414 -470 0
34 25 -24 -256 -414 469 470 0
34 25 -24 -256 -414 -470 0
34 -25 24 -255 -413 -469 0
34 -25 24 -255 -413 469 470 0
34 -25 24 -255 -413 -470 0
34 -25 24 -255 413 414 -469 0
34 -25 24 -255 413 414 469 470 0
34 -25 24 -255 413 414 -470 0
34 -25 24 -255 -414 469 470 0
34 -25 24 -255 -414 -470 0
34 -25 24 255 256 -413 -469 0
34 -25 24 255 256 -413 469 470 0
34 -25 24 255 256 -413 -470 0
34 -25 24 255 256 413 414 -469 0
34 -25 24 255 256 413 414 -470 0
34 -25 24 255 256 -414 -469 0
34 -25 24 255 256 -414 469 470 0
34 -25 24 255 256 -414 -470 0
34 -25 24 -256 -413 -469 0
34 -25 24 -256 -413 469 470 0
34 -25 24 -256 413 414 -469 0
34 -25 24 -256 413 414 469 470 0
34 -25 24 -256 413 414 -470 0
34 -25 24 -256 -414 -469 0
34 -25 24 -256 -414 469 470 0
34 -25 24 -256 -414 -470 0
34 -25 -24 -255 -413 -469 0
34 -25 -24 -255 -413 469 470 0
34 -25 -24 -255 -413 -470 0
34 -25 -24 -255 413 414 -469 0
34 -25 -24 -255 413 414 469 470 0
34 -25 -24 -255 413 414 -470 0
34 -25 -24 -255 -414 -469 0
34 -25 -24 -255 -414 469 470 0
34 -25 -24 255 256 -413 -469 0
34 -25 -24 255 256 -413 469 470 0
34 -25 -24 255 256 -413 -470 0
34 -25 -24 255 256 413 414 -469 0
34 -25 -24 255 256 413 414 -470 0
34 -25 -24 255 256 -414 -469 0
34 -25 -24 255 256 -414 469 470 0
34 -25 -24 255 256 -414 -470 0
34 -25 -24 -256 -413 469 470 0
34 -25 -24 -256 -413 -470 0
34 -25 -24 -256 413 414 -469 0
34 -25 -24 -256 413 414 469 470 0
34 -25 -24 -256 413 414 -470 0
34 -25 -24 -256 -414 -469 0
34 -25 -24 -256 -414 469 470 0
34 -25 -24 -256 -414 -470 0
-34 25 24 -255 -413 -469 0
-34 25 24 -255 -413 469 470 0
-34 25 24 -255 -413 -470 0
-34 25 24 -255 413 414 -469 0
-34 25 24 -255 413 414 469 470 0
-34 25 24 -255 413 414 -470 0
-34 25 24 -255 -414 -469 0
-34 25 24 -255 -414 469 470 0
-34 25 24 255 256 -413 -469 0
-34 25 24 255 256 -413 469 470 0
-34 25 24 255 256 -413 -470 0
-34 25 24 255 256 413 414 -469 0
-34 25 24 255 256 413 414 -470 0
-34 25 24 255 256 -414 -469 0
-34 25 24 255 256 -414 469 470 0
-34 25 24 255 256 -414 -470 0
-34 25 24 -256 -413 469 470 0
-34 25 24 -256 -413 -470 0
-34 25 24 -256 413 414 -469 0
-34 25 24 -256 413 414 469 470 0
-34 25 24 -256 413 414 -470 0
-34 25 24 -256 -414 -469 0
-34 25 24 -256 -414 469 470 0
-34 25 24 -256 -414 -470 0
-34 25 -24 -255 -413 -469 0
-34 25 -24 -255 -413 469 470 0
-34 25 -24 -255 -413 -470 0
-34 25 -24 -255 413 414 -469 0
-34 25 -24 -255 413 414 469 470 0
-34 25 -24 -255 413 414 -470 0
-34 25 -24 -255 -414 469 470 0
-34 25 -24 -255 -414 -470 0
-34 25 -24 255 256 -413 -469 0
-34 25 -24 255 256 -413 469 470 0
-34 25 -24 255 256 -413 -470 0
-34 25 -24 255 256 413 414 -469 0
-34 25 -24 255 256 413 414 -470 0
-34 25 -24 255 256 -414 -469 0
-34 25 -24 255 256 -414 469 470 0
-34 25 -24 255 256 -414 -470 0
-34 25 -24 -256 -413 -469 0
-34 25 -24 -256 -413 469 470 0
-34 25 -24 -256 413 414 -469 0
-34 25 -24 -256 413 414 469 470 0
-34 25 -24 -256 413 414 -470 0
-34 25 -24 -256 -414 -469 0
-34 25 -24 -256 -414 469 470 0
-34 25 -24 -256 -414 -470 0
-34 -25 24 -255 -413 -469 0
-34 -25 24 -255 -413 469 470 0
-34 -25 24 -255 413 414 -469 0
-34 -25 24 -255 413 414 469 470 0
-34 -25 24 -255 413 414 -470 0
-34 -25 24 -255 -414 -469 0
-34 -25 24 -255 -414 469 470 0
-34 -25 24 -255 -414 -470 0
-34 -25 24 255 256 -413 -469 0
-34 -25 24 255 256 -413 469 470 0
-34 -25 24 255 256 -413 -470 0
-34 -25 24 255 256 413 414 -469 0
-34 -25 24 255 256 413 414 -470 0
-34 -25 24 255 256 -414 -469 0
-34 -25 24 255 256 -414 469 470 0
-34 -25 24 255 256 -414 -470 0
-34 -25 24 -256 -413 -469 0
-34 -25 24 -256 -413 469 470 0
-34 -25 24 -256 -413 -470 0
-34 -25 24 -256 413 414 -469 0
-34 -25 24 -256 413 414 469 470 0
-34 -25 24 -256 413 414 -470 0
-34 -25 24 -256 -414 469 470 0
-34 -25 24 -256 -414 -470 0
-34 -25 -24 -255 -413 469 470 0
-34 -25 -24 -255 -413 -470 0
-34 -25 -24 -255 413 414 -469 0
-34 -25 -24 -255 413 414 469 470 0
-34 -25 -24 -255 413 414 -470 0
-34 -25 -24 -255 -414 -469 0
-34 -25 -24 -255 -414 469 470 0
-34 -25 -24 -255 -414 -470 0
-34 -25 -24 255 256 -413 -469 0
-34 -25 -24 255 256 -413 469 470 0
-34 -25 -24 255 256 -413 -470 0
-34 -25 -24 255 256 413 414 -469 0
-34 -25 -24 255 256 413 414 -470 0
-34 -25 -24 255 256 -414 -469 0
-34 -25 -24 255 256 -414 469 470 0
-34 -25 -24 255 256 -414 -470 0
-34 -25 -24 -256 -413 -469 0
-34 -25 -24 -256 -413 469 470 0
-34 -25 -24 -256 -413 -470 0
-34 -25 -24 -256 413 414 -469 0
-34 -25 -24 -256 413 414 469 470 0
-34 -25 -24 -256 413 414 -470 0
-34 -25 -24 -256 -414 -469 0
-34 -25 -24 -256 -414 469 470 0
35 26 24 -257 -415 525 526 0
35 26 24 -257 -415 -526 0
35 26 24 -257 415 416 -525 0
35 26 24 -257 415 416 525 526 0
35 26 24 -257 415 416 -526 0
35 26 24 -257 -416 -525 0
35 26 24 -257 -416 525 526 0
35 26 24 -257 -416 -526 0
35 26 24 257 258 -415 -525 0
35 26 24 257 258 -415 525 526 0
35 26 24 257 258 -415 -526 0
35 26 24 257 258 415 416 -525 0
35 26 24 257 258 415 416 -526 0
35 26 24 257 258 -416 -525 0
35 26 24 257 258 -416 525 526 0
35 26 24 257 258 -416 -526 0
35 26 24 -258 -415 -525 0
35 26 24 -258 -415 525 526 0
35 26 24 -258 -415 -526 0
35 26 24 -258 415 416 -525 0
35 26 24 -258 415 416 525 526 0
35 26 24 -258 415 416 -526 0
35 26 24 -258 -416 -525 0
35 26 24 -258 -416 525 526 0
35 26 -24 -257 -415 -525 0
35 26 -24 -257 -415 525 526 0
35 26 -24 -257 415 416 -525 0
35 26 -24 -257 415 416 525 526 0
35 26 -24 -257 415 416 -526 0
35 26 -24 -257 -416 -525 0
35 26 -24 -257 -416 525 526 0
35 26 -24 -257 -416 -526 0
35 26 -24 257 258 -415 -525 0
35 26 -24 257 258 -415 525 526 0
35 26 -24 257 258 -415 -526 0
35 26 -24 257 258 415 416 -525 0
35 26 -24 257 258 415 416 -526 0
35 26 -24 257 258 -416 -525 0
35 26 -24 257 258 -416 525 526 0
35 26 -24 257 258 -416 -526 0
35 26 -24 -258 -415 -525 0
35 26 -24 -258 -415 525 526 0
35 26 -24 -258 -415 -526 0
35 26 -24 -258 415 416 -525 0
35 26 -24 -258 415 416 525 526 0
35 26 -24 -258 415 416 -526 0
35 26 -24 -258 -416 525 526 0
35 26 -24 -258 -416 -526 0
35 -26 24 -257 -415 -525 0
35 -26 24 -257 -415 525 526 0
35 -26 24 -257 -415 -526 0
35 -26 24 -257 415 416 -525 0
35 -26 24 -257 415 416 525 526 0
35 -26 24 -257 415 416 -526 0
35 -26 24 -257 -416 525 526 0
35 -26 24 -257 -416 -526 0
35 -26 24 257 258 -415 -525 0
35 -26 24 257 258 -415 525 526 0
35 -26 24 257 258 -415 -526 0
35 -26 24 257 258 415 416 -525 0
35 -26 24 257 258 415 416 -526 0
35 -26 24 257 258 -416 -525 0
35 -26 24 257 258 -416 525 526 0
35 -26 24 257 258 -416 -526 0
35 -26 24 -258 -415 -525 0
35 -26 24 -258 -415 525 526 0
35 -26 24 -258 415 416 -525 0
35 -26 24 -258 415 416 525 526 0
35 -26 24 -258 415 416 -526 0
35 -26 24 -258 -416 -525 0
35 -26 24 -258 -416 525 526 0
35 -26 24 -258 -416 -526 0
35 -26 -24 -257 -415 -525 0
35 -26 -24 -257 -415 525 526 0
35 -26 -24 -257 -415 -526 0
35 -26 -24 -257 415 416 -525 0
35 -26 -24 -257 415 416 525 526 0
35 -26 -24 -257 415 416 -526 0
35 -26 -24 -257 -416 -525 0
35 -26 -24 -257 -416 525 526 0
35 -26 -24 257 258 -415 -525 0
35 -26 -24 257 258 -415 525 526 0
35 -26 -24 257 258 -415 -526 0
35 -26 -24 257 258 415 416 -525 0
35 -26 -24 257 258 415 416 -526 0
35 -26 -24 257 258 -416 -525 0
35 -26 -24 257 258 -416 525 526 0
35 -26 -24 257 258 -416 -526 0
35 -26 -24 -258 -415 525 526 0
35 -26 -24 -258 -415 -526 0
35 -26 -24 -258 415 416 -525 0
35 -26 -24 -258 415 416 525 526 0
35 -26 -24 -258 415 416 -526 0
35 -26 -24 -258 -416 -525 0
35 -26 -24 -258 -416 525 526 0
35 -26 -24 -258 -416 -526 0
-35 26 24 -257 -415 -525 0
-35 26 24 -257 -415 525 526 0
-35 26 24 -257 -415 -526 0
-35 26 24 -257 415 416 -525 0
-35 26 24 -257 415 416 525 526 0
-35 26 24 -257 415 416 -526 0
-35 26 24 -257 -416 -525 0
-35 26 24 -257 -416 525 526 0
-35 26 24 257 258 -415 -525 0
-35 26 24 257 258 -415 525 526 0
-35 26 24 257 258 -415 -526 0
-35 26 24 257 258 415 416 -525 0
-35 26 24 257 258 415 416 -526 0
-35 26 24 257 258 -416 -525 0
-35 26 24 257 258 -416 525 526 0
-35 26 24 257 258 -416 -526 0
-35 26 24 -258 -415 525 526 0
-35 26 24 -258 -415 -526 0
-35 26 24 -258 415 416 -525 0
-35 26 24 -258 415 416 525 526 0
-35 26 24 -258 415 416 -526 0
-35 26 24 -258 -416 -525 0
-35 26 24 -258 -416 525 526 0
-35 26 24 -258 -416 -526 0
-35 26 -24 -257 -415 -525 0
-35 26 -24 -257 -415 525 526 0
-35 26 -24 -257 -415 -526 0
-35 26 -24 -257 415 416 -525 0
-35 26 -24 -257 415 416 525 526 0
-35 26 -24 -257 415 416 -526 0
-35 26 -24 -257 -416 525 526 0
-35 26 -24 -257 -416 -526 0
-35 26 -24 257 258 -415 -525 0
-35 26 -24 257 258 -415 525 526 0
-35 26 -24 257 258 -415 -526 0
-35 26 -24 257 258 415 416 -525 0
-35 26 -24 257 258 415 416 -526 0
-35 26 -24 257 258 -416 -525 0
-35 26 -24 257 258 -416 525 526 0
-35 26 -24 257 258 -416 -526 0
-35 26 -24 -258 -415 -525 0
-35 26 -24 -258 -415 525 526 0
-35 26 -24 -258 415 416 -525 0
-35 26 -24 -258 415 416 525 526 0
-35 26 -24 -258 415 416 -526 0
-35 26 -24 -258 -416 -525 0
-35 26 -24 -258 -416 525 526 0
-35 26 -24 -258 -416 -526 0
-35 -26 24 -257 -415 -525 0
-35 -26 24 -257 -415 525 526 0
-35 -26 24 -257 415 416 -525 0
-35 -26 24 -257 415 416 525 526 0
-35 -26 24 -257 415 416 -526 0
-35 -26 24 -257 -416 -525 0
-35 -26 24 -257 -416 525 526 0
-35 -26 24 -257 -416 -526 0
-35 -26 24 257 258 -415 -525 0
-35 -26 24 257 258 -415 525 526 0
-35 -26 24 257 258 -415 -526 0
-35 -26 24 257 258 415 416 -525 0
-35 -26 24 257 258 415 416 -526 0
-35 -26 24 257 258 -416 -525 0
-35 -26 24 257 258 -416 525 526 0
-35 -26 24 257 258 -416 -526 0
-35 -26 24 -258 -415 -525 0
-35 -26 24 -258 -415 525 526 0
-35 -26 24 -258 -415 -526 0
-35 -26 24 -258 415 416 -525 0
-35 -26 24 -258 415 416 525 526 0
-35 -26 24 -258 415 416 -526 0
-35 -26 24 -258 -416 525 526 0
-35 -26 24 -258 -416 -526 0
-35 -26 -24 -257 -415 525 526 0
-35 -26 -24 -257 -415 -526 0
-35 -26 -24 -257 415 416 -525 0
-35 -26 -24 -257 415 416 525 526 0
-35 -26 -24 -257 415 416 -526 0
-35 -26 -24 -257 -416 -525 0
-35 -26 -24 -257 -416 525 526 0
-35 -26 -24 -257 -416 -526 0
-35 -26 -24 257 258 -415 -525 0
-35 -26 -24 257 258 -415 525 526 0
-35 -26 -24 257 258 -415 -526 0
-35 -26 -24 257 258 415 416 -525 0
-35 -26 -24 257 258 415 416 -526 0
-35 -26 -24 257 258 -416 -525 0
-35 -26 -24 257 258 -416 525 526 0
-35 -26 -24 257 258 -416 -526 0
-35 -26 -24 -258 -415 -525 0
-35 -26 -24 -258 -415 525 526 0
-35 -26 -24 -258 -415 -526 0
-35 -26 -24 -258 415 416 -525 0
-35 -26 -24 -258 415 416 525 526 0
-35 -26 -24 -258 415 416 -526 0
-35 -26 -24 -258 -416 -525 0
-35 -26 -24 -258 -416 525 526 0
36 26 25 -259 -471 527 528 0
36 26 25 -259 -471 -528 0
36 26 25 -259 471 472 -527 0
36 26 25 -259 471 472 527 528 0
36 26 25 -259 471 472 -528 0
36 26 25 -259 -472 -527 0
36 26 25 -259 -472 527 528 0
36 26 25 -259 -472 -528 0
36 26 25 259 260 -471 -527 0
36 26 25 259 260 -471 527 528 0
36 26 25 259 260 -471 -528 0
36 26 25 259 260 471 472 -527 0
36 26 25 259 260 471 472 -528 0
36 26 25 259 260 -472 -527 0
36 26 25 259 260 -472 527 528 0
36 26 25 259 260 -472 -528 0
36 26 25 -260 -471 -527 0
36 26 25 -260 -471 527 528 0
36 26 25 -260 -471 -528 0
36 26 25 -260 471 472 -527 0
36 26 25 -260 471 472 527 528 0
36 26 25 -260 471 472 -528 0
36 26 25 -260 -472 -527 0
36 26 25 -260 -472 527 528 0
36 26 -25 -259 -471 -527 0
36 26 -25 -259 -471 527 528 0
36 26 -25 -259 471 472 -527 0
36 26 -25 -259 471 472 527 528 0
36 26 -25 -259 471 472 -528 0
36 26 -25 -259 -472 -527 0
36 26 -25 -259 -472 527 528 0
36 26 -25 -259 -472 -528 0
36 26 -25 259 260 -471 -527 0
36 26 -25 259 260 -471 527 528 0
36 26 -25 259 260 -471 -528 0
36 26 -25 259 260 471 472 -527 0
36 26 -25 259 260 471 472 -528 0
36 26 -25 259 260 -472 -527 0
36 26 -25 259 260 -472 527 528 0
36 26 -25 259 260 -472 -528 0
36 26 -25 -260 -471 -527 0
36 26 -25 -260 -471 527 528 0
36 26 -25 -260 -471 -528 0
36 26 -25 -260 471 472 -527 0
36 26 -25 -260 471 472 527 528 0
36 26 -25 -260 471 472 -528 0
36 26 -25 -260 -472 527 528 0
36 26 -25 -260 -472 -528 0
36 -26 25 -259 -471 -527 0
36 -26 25 -259 -471 527 528 0
36 -26 25 -259 -471 -528 0
36 -26 25 -259 471 472 -527 0
36 -26 25 -259 471 472 527 528 0
36 -26 25 -259 471 472 -528 0
36 -26 25 -259 -472 527 528 0
36 -26 25 -259 -472 -528 0
36 -26 25 259 260 -471 -527 0
36 -26 25 259 260 -471 527 528 0
36 -26 25 259 260 -471 -528 0
36 -26 25 259 260 471 472 -527 0
36 -26 25 259 260 471 472 -528 0
36 -26 25 259 260 -472 -527 0
36 -26 25 259 260 -472 527 528 0
36 -26 25 259 260 -472 -528 0
36 -26 25 -260 -471 -527 0
36 -26 25 -260 -471 527 528 0
36 -26 25 -260 471 472 -527 0
36 -26 25 -260 471 472 527 528 0
36 -26 25 -260 471 472 -528 0
36 -26 25 -260 -472 -527 0
36 -26 25 -260 -472 527 528 0
36 -26 25 -260 -472 -528 0
36 -26 -25 -259 -471 -527 0
36 -26 -25 -259 -471 527 528 0
36 -26 -25 -259 -471 -528 0
36 -26 -25 -259 471 472 -527 0
36 -26 -25 -259 471 472 527 528 0
36 -26 -25 -259 471 472 -528 0
36 -26 -25 -259 -472 -527 0
36 -26 -25 -259 -472 527 528 0
36 -26 -25 259 260 -471 -527 0
36 -26 -25 259 260 -471 527 528 0
36 -26 -25 259 260 -471 -528 0
36 -26 -25 259 260 471 472 -527 0
36 -26 -25 259 260 471 472 -528 0
36 -26 -25 259 260 -472 -527 0
36 -26 -25 259 260 -472 527 528 0
36 -26 -25 259 260 -472 -528 0
36 -26 -25 -260 -471 527 528 0
36 -26 -25 -260 -471 -528 0
36 -26 -25 -260 471 472 -527 0
36 -26 -25 -260 471 472 527 528 0
36 -26 -25 -260 471 472 -528 0
36 -26 -25 -260 -472 -527 0
36 -26 -25 -260 -472 527 528 0
36 -26 -25 -260 -472 -528 0
-36 26 25 -259 -471 -527 0
-36 26 25 -259 -471 527 528 0
-36 26 25 -259 -471 -528 0
-36 26 25 -259 471 472 -527 0
-36 26 25 -259 471 472 527 528 0
-36 26 25 -259 471 472 -528 0
-36 26 25 -259 -472 -527 0
-36 26 25 -259 -472 527 528 0
-36 26 25 259 260 -471 -527 0
-36 26 25 259 260 -471 527 528 0
-36 26 25 259 260 -471 -528 0
-36 26 25 259 260 471 472 -527 0
-36 26 25 259 260 471 472 -528 0
-36 26 25 259 260 -472 -527 0
-36 26 25 259 260 -472 527 528 0
-36 26 25 259 260 -472 -528 0
-36 26 25 -260 -471 527 528 0
-36 26 25 -260 -471 -528 0
-36 26 25 -260 471 472 -527 0
-36 26 25 -260 471 472 527 528 0
-36 26 25 -260 471 472 -528 0
-36 26 25 -260 -472 -527 0
-36 26 25 -260 -472 527 528 0
-36 26 25 -260 -472 -528 0
-36 26 -25 -259 -471 -527 0
-36 26 -25 -259 -471 527 528 0
-36 26 -25 -259 -471 -528 0
-36 26 -25 -259 471 472 -527 0
-36 26 -25 -259 471 472 527 528 0
-36 26 -25 -259 471 472 -528 0
-36 26 -25 -259 -472 527 528 0
-36 26 -25 -259 -472 -528 0
-36 26 -25 259 260 -471 -527 0
-36 26 -25 259 260 -471 527 528 0
-36 26 -25 259 260 -471 -528 0
-36 26 -25 259 260 471 472 -527 0
-36 26 -25 259 260 471 472 -528 0
-36 26 -25 259 260 -472 -527 0
-36 26 -25 259 260 -472 527 528 0
-36 26 -25 259 260 -472 -528 0
-36 26 -25 -260 -471 -527 0
-36 26 -25 -260 -471 527 528 0
-36 26 -25 -260 471 472 -527 0
-36 26 -25 -260 471 472 527 528 0
-36 26 -25 -260 471 472 -528 0
-36 26 -25 -260 -472 -527 0
-36 26 -25 -260 -472 527 528 0
-36 26 -25 -260 -472 -528 0
-36 -26 25 -259 -471 -527 0
-36 -26 25 -259 -471 527 528 0
-36 -26 25 -259 471 472 -527 0
-36 -26 25 -259 471 472 527 528 0
-36 -26 25 -259 471 472 -528 0
-36 -26 25 -259 -472 -527 0
-36 -26 25 -259 -472 527 528 0
-36 -26 25 -259 -472 -528 0
-36 -26 25 259 260 -471 -527 0
-36 -26 25 259 260 -471 527 528 0
-36 -26 25 259 260 -471 -528 0
-36 -26 25 259 260 471 472 -527 0
-36 -26 25 259 260 471 472 -528 0
-36 -26 25 259 260 -472 -527 0
-36 -26 25 259 260 -472 527 528 0
-36 -26 25 259 260 -472 -528 0
-36 -26 25 -260 -471 -527 0
-36 -26 25 -260 -471 527 528 0
-36 -26 25 -260 -471 -528 0
-36 -26 25 -260 471 472 -527 0
-36 -26 25 -260 471 472 527 528 0
-36 -26 25 -260 471 472 -528 0
-36 -26 25 -260 -472 527 528 0
-36 -26 25 -260 -472 -528 0
-36 -26 -25 -259 -471 527 528 0
-36 -26 -25 -259 -471 -528 0
-36 -26 -25 -259 471 472 -527 0
-36 -26 -25 -259 471 472 527 528 0
-36 -26 -25 -259 471 472 -528 0
-36 -26 -25 -259 -472 -527 0
-36 -26 -25 -259 -472 527 528 0
-36 -26 -25 -259 -472 -528 0
-36 -26 -25 259 260 -471 -527 0
-36 -26 -25 259 260 -471 527 528 0
-36 -26 -25 259 260 -471 -528 0
-36 -26 -25 259 260 471 472 -527 0
-36 -26 -25 259 260 471 472 -528 0
-36 -26 -25 259 260 -472 -527 0
-36 -26 -25 259 260 -472 527 528 0
-36 -26 -25 259 260 -472 -528 0
-36 -26 -25 -260 -471 -527 0
-36 -26 -25 -260 -471 527 528 0
-36 -26 -25 -260 -471 -528 0
-36 -26 -25 -260 471 472 -527 0
-36 -26 -25 -260 471 472 527 528 0
-36 -26 -25 -260 471 472 -528 0
-36 -26 -25 -260 -472 -527 0
-36 -26 -25 -260 -472 527 528 0
31 28 27 -305 -361 417 418 0
31 28 27 -305 -361 -418 0
31 28 27 -305 361 362 -417 0
31 28 27 -305 361 362 417 418 0
31 28 27 -305 361 362 -418 0
31 28 27 -305 -362 -417 0
31 28 27 -305 -362 417 418 0
31 28 27 -305 -362 -418 0
31 28 27 305 306 -361 -417 0
31 28 27 305 306 -361 417 418 0
31 28 27 305 306 -361 -418 0
31 28 27 305 306 361 362 -417 0
31 28 27 305 306 361 362 -418 0
31 28 27 305 306 -362 -417 0
31 28 27 305 306 -362 417 418 0
31 28 27 305 306 -362 -418 0
31 28 27 -306 -361 -417 0
31 28 27 -306 -361 417 418 0
31 28 27 -306 -361 -418 0
31 28 27 -306 361 362 -417 0
31 28 27 -306 361 362 417 418 0
31 28 27 -306 361 362 -418 0
31 28 27 -306 -362 -417 0
31 28 27 -306 -362 417 418 0
31 28 -27 -305 -361 -417 0
31 28 -27 -305 -361 417 418 0
31 28 -27 -305 361 362 -417 0
31 28 -27 -305 361 362 417 418 0
31 28 -27 -305 361 362 -418 0
31 28 -27 -305 -362 -417 0
31 28 -27 -305 -362 417 418 0
31 28 -27 -305 -362 -418 0
31 28 -27 305 306 -361 -417 0
31 28 -27 305 306 -361 417 418 0
31 28 -27 305 306 -361 -418 0
31 28 -27 305 306 361 362 -417 0
31 28 -27 305 306 361 362 -418 0
31 28 -27 305 306 -362 -417 0
31 28 -27 305 306 -362 417 418 0
31 28 -27 305 306 -362 -418 0
31 28 -27 -306 -361 -417 0
31 28 -27 -306 -361 417 418 0
31 28 -27 -306 -361 -418 0
31 28 -27 -306 361 362 -417 0
31 28 -27 -306 361 362 417 418 0
31 28 -27 -306 361 362 -418 0
31 28 -27 -306 -362 417 418 0
31 28 -27 -306 -362 -418 0
31 -28 27 -305 -361 -417 0
31 -28 27 -305 -361 417 418 0
31 -28 27 -305 -361 -418 0
31 -28 27 -305 361 362 -417 0
31 -28 27 -305 361 362 417 418 0
31 -28 27 -305 361 362 -418 0
31 -28 27 -305 -362 417 418 0
31 -28 27 -305 -362 -418 0
31 -28 27 305 306 -361 -417 0
31 -28 27 305 306 -361 417 418 0
31 -28 27 305 306 -361 -418 0
31 -28 27 305 306 361 362 -417 0
31 -28 27 305 306 361 362 -418 0
31 -28 27 305 306 -362 -417 0
31 -28 27 305 306 -362 417 418 0
31 -28 27 305 306 -362 -418 0
31 -28 27 -306 -361 -417 0
31 -28 27 -306 -361 417 418 0
31 -28 27 -306 361 362 -417 0
31 -28 27 -306 361 362 417 418 0
31 -28 27 -306 361 362 -418 0
31 -28 27 -306 -362 -417 0
31 -28 27 -306 -362 417 418 0
31 -28 27 -306 -362 -418 0
31 -28 -27 -305 -361 -417 0
31 -28 -27 -305 -361 417 418 0
31 -28 -27 -305 -361 -418 0
31 -28 -27 -305 361 362 -417 0
31 -28 -27 -305 361 362 417 418 0
31 -28 -27 -305 361 362 -418 0
31 -28 -27 -305 -362 -417 0
31 -28 -27 -305 -362 417 418 0
31 -28 -27 305 306 -361 -417 0
31 -28 -27 305 306 -361 417 418 0
31 -28 -27 305 306 -361 -418 0
31 -28 -27 305 306 361 362 -417 0
31 -28 -27 305 306 361 362 -418 0
31 -28 -27 305 306 -362 -417 0
31 -28 -27 305 306 -362 417 418 0
31 -28 -27 305 306 -362 -418 0
31 -28 -27 -306 -361 417 418 0
31 -28 -27 -306 -361 -418 0
31 -28 -27 -306 361 362 -417 0
31 -28 -27 -306 361 362 417 418 0
31 -28 -27 -306 361 362 -418 0
31 -28 -27 -306 -362 -417 0
31 -28 -27 -306 -362 417 418 0
31 -28 -27 -306 -362 -418 0
-31 28 27 -305 -361 -417 0
-31 28 27 -305 -361 417 418 0
-31 28 27 -305 -361 -418 0
-31 28 27 -305 361 362 -417 0
-31 28 27 -305 361 362 417 418 0
-31 28 27 -305 361 362 -418 0
-31 28 27 -305 -362 -417 0
-31 28 27 -305 -362 417 418 0
-31 28 27 305 306 -361 -417 0
-31 28 27 305 306 -361 417 418 0
-31 28 27 305 306 -361 -418 0
-31 28 27 305 306 361 362 -417 0
-31 28 27 305 306 361 362 -418 0
-31 28 27 305 306 -362 -417 0
-31 28 27 305 306 -362 417 418 0
-31 28 27 305 306 -362 -418 0
-31 28 27 -306 -361 417 418 0
-31 28 27 -306 -361 -418 0
-31 28 27 -306 361 362 -417 0
-31 28 27 -306 361 362 417 418 0
-31 28 27 -306 361 362 -418 0
-31 28 27 -306 -362 -417 0
-31 28 27 -306 -362 417 418 0
-31 28 27 -306 -362 -418 0
-31 28 -27 -305 -361 -417 0
-31 28 -27 -305 -361 417 418 0
-31 28 -27 -305 -361 -418 0
-31 28 -27 -305 361 362 -417 0
-31 28 -27 -305 361 362 417 418 0
-31 28 -27 -305 361 362 -418 0
-31 28 -27 -305 -362 417 418 0
-31 28 -27 -305 -362 -418 0
-31 28 -27 305 306 -361 -417 0
-31 28 -27 305 306 -361 417 418 0
-31 28 -27 305 306 -361 -418 0
-31 28 -27 305 306 361 362 -417 0
-31 28 -27 305 306 361 362 -418 0
-31 28 -27 305 306 -362 -417 0
-31 28 -27 305 306 -362 417 418 0
-31 28 -27 305 306 -362 -418 0
-31 28 -27 -306 -361 -417 0
-31 28 -27 -306 -361 417 418 0
-31 28 -27 -306 361 362 -417 0
-31 28 -27 -306 361 362 417 418 0
-31 28 -27 -306 361 362 -418 0
-31 28 -27 -306 -362 -417 0
-31 28 -27 -306 -362 417 418 0
-31 28 -27 -306 -362 -418 0
-31 -28 27 -305 -361 -417 0
-31 -28 27 -305 -361 417 418 0
-31 -28 27 -305 361 362 -417 0
-31 -28 27 -305 361 362 417 418 0
-31 -28 27 -305 361 362 -418 0
-31 -28 27 -305 -362 -417 0
-31 -28 27 -305 -362 417 418 0
-31 -28 27 -305 -362 -418 0
-31 -28 27 305 306 -361 -417 0
-31 -28 27 305 306 -361 417 418 0
-31 -28 27 305 306 -361 -418 0
-31 -28 27 305 306 361 362 -417 0
-31 -28 27 305 306 361 362 -418 0
-31 -28 27 305 306 -362 -417 0
-31 -28 27 305 306 -362 417 418 0
-31 -28 27 305 306 -362 -418 0
-31 -28 27 -306 -361 -417 0
-31 -28 27 -306 -361 417 418 0
-31 -28 27 -306 -361 -418 0
-31 -28 27 -306 361 362 -417 0
-31 -28 27 -306 361 362 417 418 0
-31 -28 27 -306 361 362 -418 0
-31 -28 27 -306 -362 417 418 0
-31 -28 27 -306 -362 -418 0
-31 -28 -27 -305 -361 417 418 0
-31 -28 -27 -305 -361 -418 0
-31 -28 -27 -305 361 362 -417 0
-31 -28 -27 -305 361 362 417 418 0
-31 -28 -27 -305 361 362 -418 0
-31 -28 -27 -305 -362 -417 0
-31 -28 -27 -305 -362 417 418 0
-31 -28 -27 -305 -362 -418 0
-31 -28 -27 305 306 -361 -417 0
-31 -28 -27 305 306 -361 417 418 0
-31 -28 -27 305 306 -361 -418 0
-31 -28 -27 305 306 361 362 -417 0
-31 -28 -27 305 306 361 362 -418 0
-31 -28 -27 305 306 -362 -417 0
-31 -28 -27 305 306 -362 417 418 0
-31 -28 -27 305 306 -362 -418 0
-31 -28 -27 -306 -361 -417 0
-31 -28 -27 -306 -361 417 418 0
-31 -28 -27 -306 -361 -418 0
-31 -28 -27 -306 361 362 -417 0
-31 -28 -27 -306 361 362 417 418 0
-31 -28 -27 -306 361 362 -418 0
-31 -28 -27 -306 -362 -417 0
-31 -28 -27 -306 -362 417 418 0
32 29 27 -307 -363 473 474 0
32 29 27 -307 -363 -474 0
32 29 27 -307 363 364 -473 0
32 29 27 -307 363 364 473 474 0
32 29 27 -307 363 364 -474 0
32 29 27 -307 -364 -473 0
32 29 27 -307 -364 473 474 0
32 29 27 -307 -364 -474 0
32 29 27 307 308 -363 -473 0
32 29 27 307 308 -363 473 474 0
32 29 27 307 308 -363 -474 0
32 29 27 307 308 363 364 -473 0
32 29 27 307 308 363 364 -474 0
32 29 27 307 308 -364 -473 0
32 29 27 307 308 -364 473 474 0
32 29 27 307 308 -364 -474 0
32 29 27 -308 -363 -473 0
32 29 27 -308 -363 473 474 0
32 29 27 -308 -363 -474 0
32 29 27 -308 363 364 -473 0
32 29 27 -308 363 364 473 474 0
32 29 27 -308 363 364 -474 0
32 29 27 -308 -364 -473 0
32 29 27 -308 -364 473 474 0
32 29 -27 -307 -363 -473 0
32 29 -27 -307 -363 473 474 0
32 29 -27 -307 363 364 -473 0
32 29 -27 -307 363 364 473 474 0
32 29 -27 -307 363 364 -474 0
32 29 -27 -307 -364 -473 0
32 29 -27 -307 -364 473 474 0
32 29 -27 -307 -364 -474 0
32 29 -27 307 308 -363 -473 0
32 29 -27 307 308 -363 473 474 0
32 29 -27 307 308 -363 -474 0
32 29 -27 307 308 363 364 -473 0
32 29 -27 307 308 363 364 -474 0
32 29 -27 307 308 -364 -473 0
32 29 -27 307 308 -364 473 474 0
32 29 -27 307 308 -364 -474 0
32 29 -27 -308 -363 -473 0
32 29 -27 -308 -363 473 474 0
32 29 -27 -308 -363 -474 0
32 29 -27 -308 363 364 -473 0
32 29 -27 -308 363 364 473 474 0
32 29 -27 -308 363 364 -474 0
32 29 -27 -308 -364 473 474 0
32 29 -27 -308 -364 -474 0
32 -29 27 -307 -363 -473 0
32 -29 27 -307 -363 473 474 0
32 -29 27 -307 -363 -474 0
32 -29 27 -307 363 364 -473 0
32 -29 27 -307 363 364 473 474 0
32 -29 27 -307 363 364 -474 0
32 -29 27 -307 -364 473 474 0
32 -29 27 -307 -364 -474 0
32 -29 27 307 308 -363 -473 0
32 -29 27 307 308 -363 473 474 0
32 -29 27 307 308 -363 -474 0
32 -29 27 307 308 363 364 -473 0
32 -29 27 307 308 363 364 -474 0
32 -29 27 307 308 -364 -473 0
32 -29 27 307 308 -364 473 474 0
32 -29 27 307 308 -364 -474 0
32 -29 27 -308 -363 -473 0
32 -29 27 -308 -363 473 474 0
32 -29 27 -308 363 364 -473 0
32 -29 27 -308 363 364 473 474 0
32 -29 27 -308 363 364 -474 0
32 -29 27 -308 -364 -473 0
32 -29 27 -308 -364 473 474 0
32 -29 27 -308 -364 -474 0
32 -29 -27 -307 -363 -473 0
32 -29 -27 -307 -363 473 474 0
32 -29 -27 -307 -363 -474 0
32 -29 -27 -307 363 364 -473 0
32 -29 -27 -307 363 364 473 474 0
32 -29 -27 -307 363 364 -474 0
32 -29 -27 -307 -364 -473 0
32 -29 -27 -307 -364 473 474 0
32 -29 -27 307 308 -363 -473 0
32 -29 -27 307 308 -363 473 474 0
32 -29 -27 307 308 -363 -474 0
32 -29 -27 307 308 363 364 -473 0
32 -29 -27 307 308 363 364 -474 0
32 -29 -27 307 308 -364 -473 0
32 -29 -27 307 308 -364 473 474 0
32 -29 -27 307 308 -364 -474 0
32 -29 -27 -308 -363 473 474 0
32 -29 -27 -308 -363 -474 0
32 -29 -27 -308 363 364 -473 0
32 -29 -27 -308 363 364 473 474 0
32 -29 -27 -308 363 364 -474 0
32 -29 -27 -308 -364 -473 0
32 -29 -27 -308 -364 473 474 0
32 -29 -27 -308 -364 -474 0
-32 29 27 -307 -363 -473 0
-32 29 27 -307 -363 473 474 0
-32 29 27 -307 -363 -474 0
-32 29 27 -307 363 364 -473 0
-32 29 27 -307 363 364 473 474 0
-32 29 27 -307 363 364 -474 0
-32 29 27 -307 -364 -473 0
-32 29 27 -307 -364 473 474 0
-32 29 27 307 308 -363 -473 0
-32 29 27 307 308 -363 473 474 0
-32 29 27 307 308 -363 -474 0
-32 29 27 307 308 363 364 -473 0
-32 29 27 307 308 363 364 -474 0
-32 29 27 307 308 -364 -473 0
-32 29 27 307 308 -364 473 474 0
-32 29 27 307 308 -364 -474 0
-32 29 27 -308 -363 473 474 0
-32 29 27 -308 -363 -474 0
-32 29 27 -308 363 364 -473 0
-32 29 27 -308 363 364 473 474 0
-32 29 27 -308 363 364 -474 0
-32 29 27 -308 -364 -473 0
-32 29 27 -308 -364 473 474 0
-32 29 27 -308 -364 -474 0
-32 29 -27 -307 -363 -473 0
-32 29 -27 -307 -363 473 474 0
-32 29 -27 -307 -363 -474 0
-32 29 -27 -307 363 364 -473 0
-32 29 -27 -307 363 364 473 474 0
-32 29 -27 -307 363 364 -474 0
-32 29 -27 -307 -364 473 474 0
-32 29 -27 -307 -364 -474 0
-32 29 -27 307 308 -363 -473 0
-32 29 -27 307 308 -363 473 474 0
-32 29 -27 307 308 -363 -474 0
-32 29 -27 307 308 363 364 -473 0
-32 29 -27 307 308 363 364 -474 0
-32 29 -27 307 308 -364 -473 0
-32 29 -27 307 308 -364 473 474 0
-32 29 -27 307 308 -364 -474 0
-32 29 -27 -308 -363 -473 0
-32 29 -27 -308 -363 473 474 0
-32 29 -27 -308 363 364 -473 0
-32 29 -27 -308 363 364 473 474 0
-32 29 -27 -308 363 364 -474 0
-32 29 -27 -308 -364 -473 0
-32 29 -27 -308 -364 473 474 0
-32 29 -27 -308 -364 -474 0
-32 -29 27 -307 -363 -473 0
-32 -29 27 -307 -363 473 474 0
-32 -29 27 -307 363 364 -473 0
-32 -29 27 -307 363 364 473 474 0
-32 -29 27 -307 363 364 -474 0
-32 -29 27 -307 -364 -473 0
-32 -29 27 -307 -364 473 474 0
-32 -29 27 -307 -364 -474 0
-32 -29 27 307 308 -363 -473 0
-32 -29 27 307 308 -363 473 474 0
-32 -29 27 307 308 -363 -474 0
-32 -29 27 307 308 363 364 -473 0
-32 -29 27 307 308 363 364 -474 0
-32 -29 27 307 308 -364 -473 0
-32 -29 27 307 308 -364 473 474 0
-32 -29 27 307 308 -364 -474 0
-32 -29 27 -308 -363 -473 0
-32 -29 27 -308 -363 473 474 0
-32 -29 27 -308 -363 -474 0
-32 -29 27 -308 363 364 -473 0
-32 -29 27 -308 363 364 473 474 0
-32 -29 27 -308 363 364 -474 0
-32 -29 27 -308 -364 473 474 0
-32 -29 27 -308 -364 -474 0
-32 -29 -27 -307 -363 473 474 0
-32 -29 -27 -307 -363 -474 0
-32 -29 -27 -307 363 364 -473 0
-32 -29 -27 -307 363 364 473 474 0
-32 -29 -27 -307 363 364 -474 0
-32 -29 -27 -307 -364 -473 0
-32 -29 -27 -307 -364 473 474 0
-32 -29 -27 -307 -364 -474 0
-32 -29 -27 307 308 -363 -473 0
-32 -29 -27 307 308 -363 473 474 0
-32 -29 -27 307 308 -363 -474 0
-32 -29 -27 307 308 363 364 -473 0
-32 -29 -27 307 308 363 364 -474 0
-32 -29 -27 307 308 -364 -473 0
-32 -29 -27 307 308 -364 473 474 0
-32 -29 -27 307 308 -364 -474 0
-32 -29 -27 -308 -363 -473 0
-32 -29 -27 -308 -363 473 474 0
-32 -29 -27 -308 -363 -474 0
-32 -29 -27 -308 363 364 -473 0
-32 -29 -27 -308 363 364 473 474 0
-32 -29 -27 -308 363 364 -474 0
-32 -29 -27 -308 -364 -473 0
-32 -29 -27 -308 -364 473 474 0
33 30 27 -309 -365 529 530 0
33 30 27 -309 -365 -530 0
33 30 27 -309 365 366 -529 0
33 30 27 -309 365 366 529 530 0
33 30 27 -309 365 366 -530 0
33 30 27 -309 -366 -529 0
33 30 27 -309 -366 529 530 0
33 30 27 -309 -366 -530 0
33 30 27 309 310 -365 -529 0
33 30 27 309 310 -365 529 530 0
33 30 27 309 310 -365 -530 0
33 30 27 309 310 365 366 -529 0
33 30 27 309 310 365 366 -530 0
33 30 27 309 310 -366 -529 0
33 30 27 309 310 -366 529 530 0
33 30 27 309 310 -366 -530 0
33 30 27 -310 -365 -529 0
33 30 27 -310 -365 529 530 0
33 30 27 -310 -365 -530 0
33 30 27 -310 365 366 -529 0
33 30 27 -310 365 366 529 530 0
33 30 27 -310 365 366 -530 0
33 30 27 -310 -366 -529 0
33 30 27 -310 -366 529 530 0
33 30 -27 -309 -365 -529 0
33 30 -27 -309 -365 529 530 0
33 30 -27 -309 365 366 -529 0
33 30 -27 -309 365 366 529 530 0
33 30 -27 -309 365 366 -530 0
33 30 -27 -309 -366 -529 0
33 30 -27 -309 -366 529 530 0
33 30 -27 -309 -366 -530 0
33 30 -27 309 310 -365 -529 0
33 30 -27 309 310 -365 529 530 0
33 30 -27 309 310 -365 -530 0
33 30 -27 309 310 365 366 -529 0
33 30 -27 309 310 365 366 -530 0
33 30 -27 309 310 -366 -529 0
33 30 -27 309 310 -366 529 530 0
33 30 -27 309 310 -366 -530 0
33 30 -27 -310 -365 -529 0
33 30 -27 -310 -365 529 530 0
33 30 -27 -310 -365 -530 0
33 30 -27 -310 365 366 -529 0
33 30 -27 -310 365 366 529 530 0
33 30 -27 -310 365 366 -530 0
33 30 -27 -310 -366 529 530 0
33 30 -27 -310 -366 -530 0
33 -30 27 -309 -365 -529 0
33 -30 27 -309 -365 529 530 0
33 -30 27 -309 -365 -530 0
33 -30 27 -309 365 366 -529 0
33 -30 27 -309 365 366 529 530 0
33 -30 27 -309 365 366 -530 0
33 -30 27 -309 -366 529 530 0
33 -30 27 -309 -366 -530 0
33 -30 27 309 310 -365 -529 0
33 -30 27 309 310 -365 529 530 0
33 -30 27 309 310 -365 -530 0
33 -30 27 309 310 365 366 -529 0
33 -30 27 309 310 365 366 -530 0
33 -30 27 309 310 -366 -529 0
33 -30 27 309 310 -366 529 530 0
33 -30 27 309 310 -366 -530 0
33 -30 27 -310 -365 -529 0
33 -30 27 -310 -365 529 530 0
33 -30 27 -310 365 366 -529 0
33 -30 27 -310 365 366 529 530 0
33 -30 27 -310 365 366 -530 0
33 -30 27 -310 -366 -529 0
33 -30 27 -310 -366 529 530 0
33 -30 27 -310 -366 -530 0
33 -30 -27 -309 -365 -529 0
33 -30 -27 -309 -365 529 530 0
33 -30 -27 -309 -365 -530 0
33 -30 -27 -309 365 366 -529 0
33 -30 -27 -309 365 366 529 530 0
33 -30 -27 -309 365 366 -530 0
33 -30 -27 -309 -366 -529 0
33 -30 -27 -309 -366 529 530 0
33 -30 -27 309 310 -365 -529 0
33 -30 -27 309 310 -365 529 530 0
33 -30 -27 309 310 -365 -530 0
33 -30 -27 309 310 365 366 -529 0
33 -30 -27 309 310 365 366 -530 0
33 -30 -27 309 310 -366 -529 0
33 -30 -27 309 310 -366 529 530 0
33 -30 -27 309 310 -366 -530 0
33 -30 -27 -310 -365 529 530 0
33 -30 -27 -310 -365 -530 0
33 -30 -27 -310 365 366 -529 0
33 -30 -27 -310 365 366 529 530 0
33 -30 -27 -310 365 366 -530 0
33 -30 -27 -310 -366 -529 0
33 -30 -27 -310 -366 529 530 0
33 -30 -27 -310 -366 -530 0
-33 30 27 -309 -365 -529 0
-33 30 27 -309 -365 529 530 0
-33 30 27 -309 -365 -530 0
-33 30 27 -309 365 366 -529 0
-33 30 27 -309 365 366 529 530 0
-33 30 27 -309 365 366 -530 0
-33 30 27 -309 -366 -529 0
-33 30 27 -309 -366 529 530 0
-33 30 27 309 310 -365 -529 0
-33 30 27 309 310 -365 529 530 0
-33 30 27 309 310 -365 -530 0
-33 30 27 309 310 365 366 -529 0
-33 30 27 309 310 365 366 -530 0
-33 30 27 309 310 -366 -529 0
-33 30 27 309 310 -366 529 530 0
-33 30 27 309 310 -366 -530 0
-33 30 27 -310 -365 529 530 0
-33 30 27 -310 -365 -530 0
-33 30 27 -310 365 366 -529 0
-33 30 27 -310 365 366 529 530 0
-33 30 27 -310 365 366 -530 0
-33 30 27 -310 -366 -529 0
-33 30 27 -310 -366 529 530 0
-33 30 27 -310 -366 -530 0
-33 30 -27 -309 -365 -529 0
-33 30 -27 -309 -365 529 530 0
-33 30 -27 -309 -365 -530 0
-33 30 -27 -309 365 366 -529 0
-33 30 -27 -309 365 366 529 530 0
-33 30 -27 -309 365 366 -530 0
-33 30 -27 -309 -366 529 530 0
-33 30 -27 -309 -366 -530 0
-33 30 -27 309 310 -365 -529 0
-33 30 -27 309 310 -365 529 530 0
-33 30 -27 309 310 -365 -530 0
-33 30 -27 309 310 365 366 -529 0
-33 30 -27 309 310 365 366 -530 0
-33 30 -27 309 310 -366 -529 0
-33 30 -27 309 310 -366 529 530 0
-33 30 -27 309 310 -366 -530 0
-33 30 -27 -310 -365 -529 0
-33 30 -27 -310 -365 529 530 0
-33 30 -27 -310 365 366 -529 0
-33 30 -27 -310 365 366 529 530 0
-33 30 -27 -310 365 366 -530 0
-33 30 -27 -310 -366 -529 0
-33 30 -27 -310 -366 529 530 0
-33 30 -27 -310 -366 -530 0
-33 -30 27 -309 -365 -529 0
-33 -30 27 -309 -365 529 530 0
-33 -30 27 -309 365 366 -529 0
-33 -30 27 -309 365 366 529 530 0
-33 -30 27 -309 365 366 -530 0
-33 -30 27 -309 -366 -529 0
-33 -30 27 -309 -366 529 530 0
-33 -30 27 -309 -366 -530 0
-33 -30 27 309 310 -365 -529 0
-33 -30 27 309 310 -365 529 530 0
-33 -30 27 309 310 -365 -530 0
-33 -30 27 309 310 365 366 -529 0
-33 -30 27 309 310 365 366 -530 0
-33 -30 27 309 310 -366 -529 0
-33 -30 27 309 310 -366 529 530 0
-33 -30 27 309 310 -366 -530 0
-33 -30 27 -310 -365 -529 0
-33 -30 27 -310 -365 529 530 0
-33 -30 27 -310 -365 -530 0
-33 -30 27 -310 365 366 -529 0
-33 -30 27 -310 365 366 529 530 0
-33 -30 27 -310 365 366 -530 0
-33 -30 27 -310 -366 529 530 0
-33 -30 27 -310 -366 -530 0
-33 -30 -27 -309 -365 529 530 0
-33 -30 -27 -309 -365 -530 0
-33 -30 -27 -309 365 366 -529 0
-33 -30 -27 -309 365 366 529 530 0
-33 -30 -27 -309 365 366 -530 0
-33 -30 -27 -309 -366 -529 0
-33 -30 -27 -309 -366 529 530 0
-33 -30 -27 -309 -366 -530 0
-33 -30 -27 309 310 -365 -529 0
-33 -30 -27 309 310 -365 529 530 0
-33 -30 -27 309 310 -365 -530 0
-33 -30 -27 309 310 365 366 -529 0
-33 -30 -27 309 310 365 366 -530 0
-33 -30 -27 309 310 -366 -529 0
-33 -30 -27 309 310 -366 529 530 0
-33 -30 -27 309 310 -366 -530 0
-33 -30 -27 -310 -365 -529 0
-33 -30 -27 -310 -365 529 530 0
-33 -30 -27 -310 -365 -530 0
-33 -30 -27 -310 365 366 -529 0
-33 -30 -27 -310 365 366 529 530 0
-33 -30 -27 -310 365 366 -530 0
-33 -30 -27 -310 -366 -529 0
-33 -30 -27 -310 -366 529 530 0
34 29 28 -311 -419 475 476 0
34 29 28 -311 -419 -476 0
34 29 28 -311 419 420 -475 0
34 29 28 -311 419 420 475 476 0
34 29 28 -311 419 420 -476 0
34 29 28 -311 -420 -475 0
34 29 28 -311 -420 475 476 0
34 29 28 -311 -420 -476 0
34 29 28 311 312 -419 -475 0
34 29 28 311 312 -419 475 476 0
34 29 28 311 312 -419 -476 0
34 29 28 311 312 419 420 -475 0
34 29 28 311 312 419 420 -476 0
34 29 28 311 312 -420 -475 0
34 29 28 311 312 -420 475 476 0
34 29 28 311 312 -420 -476 0
34 29 28 -312 -419 -475 0
34 29 28 -312 -419 475 476 0
34 29 28 -312 -419 -476 0
34 29 28 -312 419 420 -475 0
34 29 28 -312 419 420 475 476 0
34 29 28 -312 419 420 -476 0
34 29 28 -312 -420 -475 0
34 29 28 -312 -420 475 476 0
34 29 -28 -311 -419 -475 0
34 29 -28 -311 -419 475 476 0
34 29 -28 -311 419 420 -475 0
34 29 -28 -311 419 420 475 476 0
34 29 -28 -311 419 420 -476 0
34 29 -28 -311 -420 -475 0
34 29 -28 -311 -420 475 476 0
34 29 -28 -311 -420 -476 0
34 29 -28 311 312 -419 -475 0
34 29 -28 311 312 -419 475 476 0
34 29 -28 311 312 -419 -476 0
34 29 -28 311 312 419 420 -475 0
34 29 -28 311 312 419 420 -476 0
34 29 -28 311 312 -420 -475 0
34 29 -28 311 312 -420 475 476 0
34 29 -28 311 312 -420 -476 0
34 29 -28 -312 -419 -475 0
34 29 -28 -312 -419 475 476 0
34 29 -28 -312 -419 -476 0
34 29 -28 -312 419 420 -475 0
34 29 -28 -312 419 420 475 476 0
34 29 -28 -312 419 420 -476 0
34 29 -28 -312 -420 475 476 0
34 29 -28 -312 -420 -476 0
34 -29 28 -311 -419 -475 0
34 -29 28 -311 -419 475 476 0
34 -29 28 -311 -419 -476 0
34 -29 28 -311 419 420 -475 0
34 -29 28 -311 419 420 475 476 0
34 -29 28 -311 419 420 -476 0
34 -29 28 -311 -420 475 476 0
34 -29 28 -311 -420 -476 0
34 -29 28 311 312 -419 -475 0
34 -29 28 311 312 -419 475 476 0
34 -29 28 311 312 -419 -476 0
34 -29 28 311 312 419 420 -475 0
34 -29 28 311 312 419 420 -476 0
34 -29 28 311 312 -420 -475 0
34 -29 28 311 312 -420 475 476 0
34 -29 28 311 312 -420 -476 0
34 -29 28 -312 -419 -475 0
34 -29 28 -312 -419 475 476 0
34 -29 28 -312 419 420 -475 0
34 -29 28 -312 419 420 475 476 0
34 -29 28 -312 419 420 -476 0
34 -29 28 -312 -420 -475 0
34 -29 28 -312 -420 475 476 0
34 -29 28 -312 -420 -476 0
34 -29 -28 -311 -419 -475 0
34 -29 -28 -311 -419 475 476 0
34 -29 -28 -311 -419 -476 0
34 -29 -28 -311 419 420 -475 0
34 -29 -28 -311 419 420 475 476 0
34 -29 -28 -311 419 420 -476 0
34 -29 -28 -311 -420 -475 0
34 -29 -28 -311 -420 475 476 0
34 -29 -28 311 312 -419 -475 0
34 -29 -28 311 312 -419 475 476 0
34 -29 -28 311 312 -419 -476 0
34 -29 -28 311 312 419 420 -475 0
34 -29 -28 311 312 419 420 -476 0
34 -29 -28 311 312 -420 -475 0
34 -29 -28 311 312 -420 475 476 0
34 -29 -28 311 312 -420 -476 0
34 -29 -28 -312 -419 475 476 0
34 -29 -28 -312 -419 -476 0
34 -29 -28 -312 419 420 -475 0
34 -29 -28 -312 419 420 475 476 0
34 -29 -28 -312 419 420 -476 0
34 -29 -28 -312 -420 -475 0
34 -29 -28 -312 -420 475 476 0
34 -29 -28 -312 -420 -476 0
-34 29 28 -311 -419 -475 0
-34 29 28 -311 -419 475 476 0
-34 29 28 -311 -419 -476 0
-34 29 28 -311 419 420 -475 0
-34 29 28 -311 419 420 475 476 0
-34 29 28 -311 419 420 -476 0
-34 29 28 -311 -420 -475 0
-34 29 28 -311 -420 475 476 0
-34 29 28 311 312 -419 -475 0
-34 29 28 311 312 -419 475 476 0
-34 29 28 311 312 -419 -476 0
-34 29 28 311 312 419 420 -475 0
-34 29 28 311 312 419 420 -476 0
-34 29 28 311 312 -420 -475 0
-34 29 28 311 312 -420 475 476 0
-34 29 28 311 312 -420 -476 0
-34 29 28 -312 -419 475 476 0
-34 29 28 -312 -419 -476 0
-34 29 28 -312 419 420 -475 0
-34 29 28 -312 419 420 475 476 0
-34 29 28 -312 419 420 -476 0
-34 29 28 -312 -420 -475 0
-34 29 28 -312 -420 475 476 0
-34 29 28 -312 -420 -476 0
-34 29 -28 -311 -419 -475 0
-34 29 -28 -311 -419 475 476 0
-34 29 -28 -311 -419 -476 0
-34 29 -28 -311 419 420 -475 0
-34 29 -28 -311 419 420 475 476 0
-34 29 -28 -311 419 420 -476 0
-34 29 -28 -311 -420 475 476 0
-34 29 -28 -311 -420 -476 0
-34 29 -28 311 312 -419 -475 0
-34 29 -28 311 312 -419 475 476 0
-34 29 -28 311 312 -419 -476 0
-34 29 -28 311 312 419 420 -475 0
-34 29 -28 311 312 419 420 -476 0
-34 29 -28 311 312 -420 -475 0
-34 29 -28 311 312 -420 475 476 0
-34 29 -28 311 312 -420 -476 0
-34 29 -28 -312 -419 -475 0
-34 29 -28 -312 -419 475 476 0
-34 29 -28 -312 419 420 -475 0
-34 29 -28 -312 419 420 475 476 0
-34 29 -28 -312 419 420 -476 0
-34 29 -28 -312 -420 -475 0
-34 29 -28 -312 -420 475 476 0
-34 29 -28 -312 -420 -476 0
-34 -29 28 -311 -419 -475 0
-34 -29 28 -311 -419 475 476 0
-34 -29 28 -311 419 420 -475 0
-34 -29 28 -311 419 420 475 476 0
-34 -29 28 -311 419 420 -476 0
-34 -29 28 -311 -420 -475 0
-34 -29 28 -311 -420 475 476 0
-34 -29 28 -311 -420 -476 0
-34 -29 28 311 312 -419 -475 0
-34 -29 28 311 312 -419 475 476 0
-34 -29 28 311 312 -419 -476 0
-34 -29 28 311 312 419 420 -475 0
-34 -29 28 311 312 419 420 -476 0
-34 -29 28 311 312 -420 -475 0
-34 -29 28 311 312 -420 475 476 0
-34 -29 28 311 312 -420 -476 0
-34 -29 28 -312 -419 -475 0
-34 -29 28 -312 -419 475 476 0
-34 -29 28 -312 -419 -476 0
-34 -29 28 -312 419 420 -475 0
-34 -29 28 -312 419 420 475 476 0
-34 -29 28 -312 419 420 -476 0
-34 -29 28 -312 -420 475 476 0
-34 -29 28 -312 -420 -476 0
-34 -29 -28 -311 -419 475 476 0
-34 -29 -28 -311 -419 -476 0
-34 -29 -28 -311 419 420 -475 0
-34 -29 -28 -311 419 420 475 476 0
-34 -29 -28 -311 419 420 -476 0
-34 -29 -28 -311 -420 -475 0
-34 -29 -28 -311 -420 475 476 0
-34 -29 -28 -311 -420 -476 0
-34 -29 -28 311 312 -419 -475 0
-34 -29 -28 311 312 -419 475 476 0
-34 -29 -28 311 312 -419 -476 0
-34 -29 -28 311 312 419 420 -475 0
-34 -29 -28 311 312 419 420 -476 0
-34 -29 -28 311 312 -420 -475 0
-34 -29 -28 311 312 -420 475 476 0
-34 -29 -28 311 312 -420 -476 0
-34 -29 -28 -312 -419 -475 0
-34 -29 -28 -312 -419 475 476 0
-34 -29 -28 -312 -419 -476 0
-34 -29 -28 -312 419 420 -475 0
-34 -29 -28 -312 419 420 475 476 0
-34 -29 -28 -312 419 420 -476 0
-34 -29 -28 -312 -420 -475 0
-34 -29 -28 -312 -420 475 476 0
35 30 28 -313 -421 531 532 0
35 30 28 -313 -421 -532 0
35 30 28 -313 421 422 -531 0
35 30 28 -313 421 422 531 532 0
35 30 28 -313 421 422 -532 0
35 30 28 -313 -422 -531 0
35 30 28 -313 -422 531 532 0
35 30 28 -313 -422 -532 0
35 30 28 313 314 -421 -531 0
35 30 28 313 314 -421 531 532 0
35 30 28 313 314 -421 -532 0
35 30 28 313 314 421 422 -531 0
35 30 28 313 314 421 422 -532 0
35 30 28 313 314 -422 -531 0
35 30 28 313 314 -422 531 532 0
35 30 28 313 314 -422 -532 0
35 30 28 -314 -421 -531 0
35 30 28 -314 -421 531 532 0
35 30 28 -314 -421 -532 0
35 30 28 -314 421 422 -531 0
35 30 28 -314 421 422 531 532 0
35 30 28 -314 421 422 -532 0
35 30 28 -314 -422 -531 0
35 30 28 -314 -422 531 532 0
35 30 -28 -313 -421 -531 0
35 30 -28 -313 -421 531 532 0
35 30 -28 -313 421 422 -531 0
35 30 -28 -313 421 422 531 532 0
35 30 -28 -313 421 422 -532 0
35 30 -28 -313 -422 -531 0
35 30 -28 -313 -422 531 532 0
35 30 -28 -313 -422 -532 0
35 30 -28 313 314 -421 -531 0
35 30 -28 313 314 -421 531 532 0
35 30 -28 313 314 -421 -532 0
35 30 -28 313 314 421 422 -531 0
35 30 -28 313 314 421 422 -532 0
35 30 -28 313 314 -422 -531 0
35 30 -28 313 314 -422 531 532 0
35 30 -28 313 314 -422 -532 0
35 30 -28 -314 -421 -531 0
35 30 -28 -314 -421 531 532 0
35 30 -28 -314 -421 -532 0
35 30 -28 -314 421 422 -531 0
35 30 -28 -314 421 422 531 532 0
35 30 -28 -314 421 422 -532 0
35 30 -28 -314 -422 531 532 0
35 30 -28 -314 -422 -532 0
35 -30 28 -313 -421 -531 0
35 -30 28 -313 -421 531 532 0
35 -30 28 -313 -421 -532 0
35 -30 28 -313 421 422 -531 0
35 -30 28 -313 421 422 531 532 0
35 -30 28 -313 421 422 -532 0
35 -30 28 -313 -422 531 532 0
35 -30 28 -313 -422 -532 0
35 -30 28 313 314 -421 -531 0
35 -30 28 313 314 -421 531 532 0
35 -30 28 313 314 -421 -532 0
35 -30 28 313 314 421 422 -531 0
35 -30 28 313 314 421 422 -532 0
35 -30 28 313 314 -422 -531 0
35 -30 28 313 314 -422 531 532 0
35 -30 28 313 314 -422 -532 0
35 -30 28 -314 -421 -531 0
35 -30 28 -314 -421 531 532 0
35 -30 28 -314 421 422 -531 0
35 -30 28 -314 421 422 531 532 0
35 -30 28 -314 421 422 -532 0
35 -30 28 -314 -422 -531 0
35 -30 28 -314 -422 531 532 0
35 -30 28 -314 -422 -532 0
35 -30 -28 -313 -421 -531 0
35 -30 -28 -313 -421 531 532 0
35 -30 -28 -313 -421 -532 0
35 -30 -28 -313 421 422 -531 0
35 -30 -28 -313 421 422 531 532 0
35 -30 -28 -313 421 422 -532 0
35 -30 -28 -313 -422 -531 0
35 -30 -28 -313 -422 531 532 0
35 -30 -28 313 314 -421 -531 0
35 -30 -28 313 314 -421 531 532 0
35 -30 -28 313 314 -421 -532 0
35 -30 -28 313 314 421 422 -531 0
35 -30 -28 313 314 421 422 -532 0
35 -30 -28 313 314 -422 -531 0
35 -30 -28 313 314 -422 531 532 0
35 -30 -28 313 314 -422 -532 0
35 -30 -28 -314 -421 531 532 0
35 -30 -28 -314 -421 -532 0
35 -30 -28 -314 421 422 -531 0
35 -30 -28 -314 421 422 531 532 0
35 -30 -28 -314 421 422 -532 0
35 -30 -28 -314 -422 -531 0
35 -30 -28 -314 -422 531 532 0
35 -30 -28 -314 -422 -532 0
-35 30 28 -313 -421 -531 0
-35 30 28 -313 -421 531 532 0
-35 30 28 -313 -421 -532 0
-35 30 28 -313 421 422 -531 0
-35 30 28 -313 421 422 531 532 0
-35 30 28 -313 421 422 -532 0
-35 30 28 -313 -422 -531 0
-35 30 28 -313 -422 531 532 0
-35 30 28 313 314 -421 -531 0
-35 30 28 313 314 -421 531 532 0
-35 30 28 313 314 -421 -532 0
-35 30 28 313 314 421 422 -531 0
-35 30 28 313 314 421 422 -532 0
-35 30 28 313 314 -422 -531 0
-35 30 28 313 314 -422 531 532 0
-35 30 28 313 314 -422 -532 0
-35 30 28 -314 -421 531 532 0
-35 30 28 -314 -421 -532 0
-35 30 28 -314 421 422 -531 0
-35 30 28 -314 421 422 531 532 0
-35 30 28 -314 421 422 -532 0
-35 30 28 -314 -422 -531 0
-35 30 28 -314 -422 531 532 0
-35 30 28 -314 -422 -532 0
-35 30 -28 -313 -421 -531 0
-35 30 -28 -313 -421 531 532 0
-35 30 -28 -313 -421 -532 0
-35 30 -28 -313 421 422 -531 0
-35 30 -28 -313 421 422 531 532 0
-35 30 -28 -313 421 422 -532 0
-35 30 -28 -313 -422 531 532 0
-35 30 -28 -313 -422 -532 0
-35 30 -28 313 314 -421 -531 0
-35 30 -28 313 314 -421 531 532 0
-35 30 -28 313 314 -421 -532 0
-35 30 -28 313 314 421 422 -531 0
-35 30 -28 313 314 421 422 -532 0
-35 30 -28 313 314 -422 -531 0
-35 30 -28 313 314 -422 531 532 0
-35 30 -28 313 314 -422 -532 0
-35 30 -28 -314 -421 -531 0
-35 30 -28 -314 -421 531 532 0
-35 30 -28 -314 421 422 -531 0
-35 30 -28 -314 421 422 531 532 0
-35 30 -28 -314 421 422 -532 0
-35 30 -28 -314 -422 -531 0
-35 30 -28 -314 -422 531 532 0
-35 30 -28 -314 -422 -532 0
-35 -30 28 -313 -421 -531 0
-35 -30 28 -313 -421 531 532 0
-35 -30 28 -313 421 422 -531 0
-35 -30 28 -313 421 422 531 532 0
-35 -30 28 -313 421 422 -532 0
-35 -30 28 -313 -422 -531 0
-35 -30 28 -313 -422 531 532 0
-35 -30 28 -313 -422 -532 0
-35 -30 28 313 314 -421 -531 0
-35 -30 28 313 314 -421 531 532 0
-35 -30 28 313 314 -421 -532 0
-35 -30 28 313 314 421 422 -531 0
-35 -30 28 313 314 421 422 -532 0
-35 -30 28 313 314 -422 -531 0
-35 -30 28 313 314 -422 531 532 0
-35 -30 28 313 314 -422 -532 0
-35 -30 28 -314 -421 -531 0
-35 -30 28 -314 -421 531 532 0
-35 -30 28 -314 -421 -532 0
-35 -30 28 -314 421 422 -531 0
-35 -30 28 -314 421 422 531 532 0
-35 -30 28 -314 421 422 -532 0
-35 -30 28 -314 -422 531 532 0
-35 -30 28 -314 -422 -532 0
-35 -30 -28 -313 -421 531 532 0
-35 -30 -28 -313 -421 -532 0
-35 -30 -28 -313 421 422 -531 0
-35 -30 -28 -313 421 422 531 532 0
-35 -30 -28 -313 421 422 -532 0
-35 -30 -28 -313 -422 -531 0
-35 -30 -28 -313 -422 531 532 0
-35 -30 -28 -313 -422 -532 0
-35 -30 -28 313 314 -421 -531 0
-35 -30 -28 313 314 -421 531 532 0
-35 -30 -28 313 314 -421 -532 0
-35 -30 -28 313 314 421 422 -531 0
-35 -30 -28 313 314 421 422 -532 0
-35 -30 -28 313 314 -422 -531 0
-35 -30 -28 313 314 -422 531 532 0
-35 -30 -28 313 314 -422 -532 0
-35 -30 -28 -314 -421 -531 0
-35 -30 -28 -314 -421 531 532 0
-35 -30 -28 -314 -421 -532 0
-35 -30 -28 -314 421 422 -531 0
-35 -30 -28 -314 421 422 531 532 0
-35 -30 -28 -314 421 422 -532 0
-35 -30 -28 -314 -422 -531 0
-35 -30 -28 -314 -422 531 532 0
36 30 29 -315 -477 533 534 0
36 30 29 -315 -477 -534 0
36 30 29 -315 477 478 -533 0
36 30 29 -315 477 478 533 534 0
36 30 29 -315 477 478 -534 0
36 30 29 -315 -478 -533 0
36 30 29 -315 -478 533 534 0
36 30 29 -315 -478 -534 0
36 30 29 315 316 -477 -533 0
36 30 29 315 316 -477 533 534 0
36 30 29 315 316 -477 -534 0
36 30 29 315 316 477 478 -533 0
36 30 29 315 316 477 478 -534 0
36 30 29 315 316 -478 -533 0
36 30 29 315 316 -478 533 534 0
36 30 29 315 316 -478 -534 0
36 30 29 -316 -477 -533 0
36 30 29 -316 -477 533 534 0
36 30 29 -316 -477 -534 0
36 30 29 -316 477 478 -533 0
36 30 29 -316 477 478 533 534 0
36 30 29 -316 477 478 -534 0
36 30 29 -316 -478 -533 0
36 30 29 -316 -478 533 534 0
36 30 -29 -315 -477 -533 0
36 30 -29 -315 -477 533 534 0
36 30 -29 -315 477 478 -533 0
36 30 -29 -315 477 478 533 534 0
36 30 -29 -315 477 478 -534 0
36 30 -29 -315 -478 -533 0
36 30 -29 -315 -478 533 534 0
36 30 -29 -315 -478 -534 0
36 30 -29 315 316 -477 -533 0
36 30 -29 315 316 -477 533 534 0
36 30 -29 315 316 -477 -534 0
36 30 -29 315 316 477 478 -533 0
36 30 -29 315 316 477 478 -534 0
36 30 -29 315 316 -478 -533 0
36 30 -29 315 316 -478 533 534 0
36 30 -29 315 316 -478 -534 0
36 30 -29 -316 -477 -533 0
36 30 -29 -316 -477 533 534 0
36 30 -29 -316 -477 -534 0
36 30 -29 -316 477 478 -533 0
36 30 -29 -316 477 478 533 534 0
36 30 -29 -316 477 478 -534 0
36 30 -29 -316 -478 533 534 0
36 30 -29 -316 -478 -534 0
36 -30 29 -315 -477 -533 0
36 -30 29 -315 -477 533 534 0
36 -30 29 -315 -477 -534 0
36 -30 29 -315 477 478 -533 0
36 -30 29 -315 477 478 533 534 0
36 -30 29 -315 477 478 -534 0
36 -30 29 -315 -478 533 534 0
36 -30 29 -315 -478 -534 0
36 -30 29 315 316 -477 -533 0
36 -30 29 315 316 -477 533 534 0
36 -30 29 315 316 -477 -534 0
36 -30 29 315 316 477 478 -533 0
36 -30 29 315 316 477 478 -534 0
36 -30 29 315 316 -478 -533 0
36 -30 29 315 316 -478 533 534 0
36 -30 29 315 316 -478 -534 0
36 -30 29 -316 -477 -533 0
36 -30 29 -316 -477 533 534 0
36 -30 29 -316 477 478 -533 0
36 -30 29 -316 477 478 533 534 0
36 -30 29 -316 477 478 -534 0
36 -30 29 -316 -478 -533 0
36 -30 29 -316 -478 533 534 0
36 -30 29 -316 -478 -534 0
36 -30 -29 -315 -477 -533 0
36 -30 -29 -315 -477 533 534 0
36 -30 -29 -315 -477 -534 0
36 -30 -29 -315 477 478 -533 0
36 -30 -29 -315 477 478 533 534 0
36 -30 -29 -315 477 478 -534 0
36 -30 -29 -315 -478 -533 0
36 -30 -29 -315 -478 533 534 0
36 -30 -29 315 316 -477 -533 0
36 -30 -29 315 316 -477 533 534 0
36 -30 -29 315 316 -477 -534 0
36 -30 -29 315 316 477 478 -533 0
36 -30 -29 315 316 477 478 -534 0
36 -30 -29 315 316 -478 -533 0
36 -30 -29 315 316 -478 533 534 0
36 -30 -29 315 316 -478 -534 0
36 -30 -29 -316 -477 533 534 0
36 -30 -29 -316 -477 -534 0
36 -30 -29 -316 477 478 -533 0
36 -30 -29 -316 477 478 533 534 0
36 -30 -29 -316 477 478 -534 0
36 -30 -29 -316 -478 -533 0
36 -30 -29 -316 -478 533 534 0
36 -30 -29 -316 -478 -534 0
-36 30 29 -315 -477 -533 0
-36 30 29 -315 -477 533 534 0
-36 30 29 -315 -477 -534 0
-36 30 29 -315 477 478 -533 0
-36 30 29 -315 477 478 533 534 0
-36 30 29 -315 477 478 -534 0
-36 30 29 -315 -478 -533 0
-36 30 29 -315 -478 533 534 0
-36 30 29 315 316 -477 -533 0
-36 30 29 315 316 -477 533 534 0
-36 30 29 315 316 -477 -534 0
-36 30 29 315 316 477 478 -533 0
-36 30 29 315 316 477 478 -534 0
-36 30 29 315 316 -478 -533 0
-36 30 29 315 316 -478 533 534 0
-36 30 29 315 316 -478 -534 0
-36 30 29 -316 -477 533 534 0
-36 30 29 -316 -477 -534 0
-36 30 29 -316 477 478 -533 0
-36 30 29 -316 477 478 533 534 0
-36 30 29 -316 477 478 -534 0
-36 30 29 -316 -478 -533 0
-36 30 29 -316 -478 533 534 0
-36 30 29 -316 -478 -534 0
-36 30 -29 -315 -477 -533 0
-36 30 -29 -315 -477 533 534 0
-36 30 -29 -315 -477 -534 0
-36 30 -29 -315 477 478 -533 0
-36 30 -29 -315 477 478 533 534 0
-36 30 -29 -315 477 478 -534 0
-36 30 -29 -315 -478 533 534 0
-36 30 -29 -315 -478 -534 0
-36 30 -29 315 316 -477 -533 0
-36 30 -29 315 316 -477 533 534 0
-36 30 -29 315 316 -477 -534 0
-36 30 -29 315 316 477 478 -533 0
-36 30 -29 315 316 477 478 -534 0
-36 30 -29 315 316 -478 -533 0
-36 30 -29 315 316 -478 533 534 0
-36 30 -29 315 316 -478 -534 0
-36 30 -29 -316 -477 -533 0
-36 30 -29 -316 -477 533 534 0
-36 30 -29 -316 477 478 -533 0
-36 30 -29 -316 477 478 533 534 0
-36 30 -29 -316 477 478 -534 0
-36 30 -29 -316 -478 -533 0
-36 30 -29 -316 -478 533 534 0
-36 30 -29 -316 -478 -534 0
-36 -30 29 -315 -477 -533 0
-36 -30 29 -315 -477 533 534 0
-36 -30 29 -315 477 478 -533 0
-36 -30 29 -315 477 478 533 534 0
-36 -30 29 -315 477 478 -534 0
-36 -30 29 -315 -478 -533 0
-36 -30 29 -315 -478 533 534 0
-36 -30 29 -315 -478 -534 0
-36 -30 29 315 316 -477 -533 0
-36 -30 29 315 316 -477 533 534 0
-36 -30 29 315 316 -477 -534 0
-36 -30 29 315 316 477 478 -533 0
-36 -30 29 315 316 477 478 -534 0
-36 -30 29 315 316 -478 -533 0
-36 -30 29 315 316 -478 533 534 0
-36 -30 29 315 316 -478 -534 0
-36 -30 29 -316 -477 -533 0
-36 -30 29 -316 -477 533 534 0
-36 -30 29 -316 -477 -534 0
-36 -30 29 -316 477 478 -533 0
-36 -30 29 -316 477 478 533 534 0
-36 -30 29 -316 477 478 -534 0
-36 -30 29 -316 -478 533 534 0
-36 -30 29 -316 -478 -534 0
-36 -30 -29 -315 -477 533 534 0
-36 -30 -29 -315 -477 -534 0
-36 -30 -29 -315 477 478 -533 0
-36 -30 -29 -315 477 478 533 534 0
-36 -30 -29 -315 477 478 -534 0
-36 -30 -29 -315 -478 -533 0
-36 -30 -29 -315 -478 533 534 0
-36 -30 -29 -315 -478 -534 0
-36 -30 -29 315 316 -477 -533 0
-36 -30 -29 315 316 -477 533 534 0
-36 -30 -29 315 316 -477 -534 0
-36 -30 -29 315 316 477 478 -533 0
-36 -30 -29 315 316 477 478 -534 0
-36 -30 -29 315 316 -478 -533 0
-36 -30 -29 315 316 -478 533 534 0
-36 -30 -29 315 316 -478 -534 0
-36 -30 -29 -316 -477 -533 0
-36 -30 -29 -316 -477 533 534 0
-36 -30 -29 -316 -477 -534 0
-36 -30 -29 -316 477 478 -533 0
-36 -30 -29 -316 477 478 533 534 0
-36 -30 -29 -316 477 478 -534 0
-36 -30 -29 -316 -478 -533 0
-36 -30 -29 -316 -478 533 534 0
34 32 31 -367 -423 479 480 0
34 32 31 -367 -423 -480 0
34 32 31 -367 423 424 -479 0
34 32 31 -367 423 424 479 480 0
34 32 31 -367 423 424 -480 0
34 32 31 -367 -424 -479 0
34 32 31 -367 -424 479 480 0
34 32 31 -367 -424 -480 0
34 32 31 367 368 -423 -479 0
34 32 31 367 368 -423 479 480 0
34 32 31 367 368 -423 -480 0
34 32 31 367 368 423 424 -479 0
34 32 31 367 368 423 424 -480 0
34 32 31 367 368 -424 -479 0
34 32 31 367 368 -424 479 480 0
34 32 31 367 368 -424 -480 0
34 32 31 -368 -423 -479 0
34 32 31 -368 -423 479 480 0
34 32 31 -368 -423 -480 0
34 32 31 -368 423 424 -479 0
34 32 31 -368 423 424 479 480 0
34 32 31 -368 423 424 -480 0
34 32 31 -368 -424 -479 0
34 32 31 -368 -424 479 480 0
34 32 -31 -367 -423 -479 0
34 32 -31 -367 -423 479 480 0
34 32 -31 -367 423 424 -479 0
34 32 -31 -367 423 424 479 480 0
34 32 -31 -367 423 424 -480 0
34 32 -31 -367 -424 -479 0
34 32 -31 -367 -424 479 480 0
34 32 -31 -367 -424 -480 0
34 32 -31 367 368 -423 -479 0
34 32 -31 367 368 -423 479 480 0
34 32 -31 367 368 -423 -480 0
34 32 -31 367 368 423 424 -479 0
34 32 -31 367 368 423 424 -480 0
34 32 -31 367 368 -424 -479 0
34 32 -31 367 368 -424 479 480 0
34 32 -31 367 368 -424 -480 0
34 32 -31 -368 -423 -479 0
34 32 -31 -368 -423 479 480 0
34 32 -31 -368 -423 -480 0
34 32 -31 -368 423 424 -479 0
34 32 -31 -368 423 424 479 480 0
34 32 -31 -368 423 424 -480 0
34 32 -31 -368 -424 479 480 0
34 32 -31 -368 -424 -480 0
34 -32 31 -367 -423 -479 0
34 -32 31 -367 -423 479 480 0
34 -32 31 -367 -423 -480 0
34 -32 31 -367 423 424 -479 0
34 -32 31 -367 423 424 479 480 0
34 -32 31 -367 423 424 -480 0
34 -32 31 -367 -424 479 480 0
34 -32 31 -367 -424 -480 0
34 -32 31 367 368 -423 -479 0
34 -32 31 367 368 -423 479 480 0
34 -32 31 367 368 -423 -480 0
34 -32 31 367 368 423 424 -479 0
34 -32 31 367 368 423 424 -480 0
34 -32 31 367 368 -424 -479 0
34 -32 31 367 368 -424 479 480 0
34 -32 31 367 368 -424 -480 0
34 -32 31 -368 -423 -479 0
34 -32 31 -368 -423 479 480 0
34 -32 31 -368 423 424 -479 0
34 -32 31 -368 423 424 479 480 0
34 -32 31 -368 423 424 -480 0
34 -32 31 -368 -424 -479 0
34 -32 31 -368 -424 479 480 0
34 -32 31 -368 -424 -480 0
34 -32 -31 -367 -423 -479 0
34 -32 -31 -367 -423 479 480 0
34 -32 -31 -367 -423 -480 0
34 -32 -31 -367 423 424 -479 0
34 -32 -31 -367 423 424 479 480 0
34 -32 -31 -367 423 424 -480 0
34 -32 -31 -367 -424 -479 0
34 -32 -31 -367 -424 479 480 0
34 -32 -31 367 368 -423 -479 0
34 -32 -31 367 368 -423 479 480 0
34 -32 -31 367 368 -423 -480 0
34 -32 -31 367 368 423 424 -479 0
34 -32 -31 367 368 423 424 -480 0
34 -32 -31 367 368 -424 -479 0
34 -32 -31 367 368 -424 479 480 0
34 -32 -31 367 368 -424 -480 0
34 -32 -31 -368 -423 479 480 0
34 -32 -31 -368 -423 -480 0
34 -32 -31 -368 423 424 -479 0
34 -32 -31 -368 423 424 479 480 0
34 -32 -31 -368 423 424 -480 0
34 -32 -31 -368 -424 -479 0
34 -32 -31 -368 -424 479 480 0
34 -32 -31 -368 -424 -480 0
-34 32 31 -367 -423 -479 0
-34 32 31 -367 -423 479 480 0
-34 32 31 -367 -423 -480 0
-34 32 31 -367 423 424 -479 0
-34 32 31 -367 423 424 479 480 0
-34 32 31 -367 423 424 -480 0
-34 32 31 -367 -424 -479 0
-34 32 31 -367 -424 479 480 0
-34 32 31 367 368 -423 -479 0
-34 32 31 367 368 -423 479 480 0
-34 32 31 367 368 -423 -480 0
-34 32 31 367 368 423 424 -479 0
-34 32 31 367 368 423 424 -480 0
-34 32 31 367 368 -424 -479 0
-34 32 31 367 368 -424 479 480 0
-34 32 31 367 368 -424 -480 0
-34 32 31 -368 -423 479 480 0
-34 32 31 -368 -423 -480 0
-34 32 31 -368 423 424 -479 0
-34 32 31 -368 423 424 479 480 0
-34 32 31 -368 423 424 -480 0
-34 32 31 -368 -424 -479 0
-34 32 31 -368 -424 479 480 0
-34 32 31 -368 -424 -480 0
-34 32 -31 -367 -423 -479 0
-34 32 -31 -367 -423 479 480 0
-34 32 -31 -367 -423 -480 0
-34 32 -31 -367 423 424 -479 0
-34 32 -31 -367 423 424 479 480 0
-34 32 -31 -367 423 424 -480 0
-34 32 -31 -367 -424 479 480 0
-34 32 -31 -367 -424 -480 0
-34 32 -31 367 368 -423 -479 0
-34 32 -31 367 368 -423 479 480 0
-34 32 -31 367 368 -423 -480 0
-34 32 -31 367 368 423 424 -479 0
-34 32 -31 367 368 423 424 -480 0
-34 32 -31 367 368 -424 -479 0
-34 32 -31 367 368 -424 479 480 0
-34 32 -31 367 368 -424 -480 0
-34 32 -31 -368 -423 -479 0
-34 32 -31 -368 -423 479 480 0
-34 32 -31 -368 423 424 -479 0
-34 32 -31 -368 423 424 479 480 0
-34 32 -31 -368 423 424 -480 0
-34 32 -31 -368 -424 -479 0
-34 32 -31 -368 -424 479 480 0
-34 32 -31 -368 -424 -480 0
-34 -32 31 -367 -423 -479 0
-34 -32 31 -367 -423 479 480 0
-34 -32 31 -367 423 424 -479 0
-34 -32 31 -367 423 424 479 480 0
-34 -32 31 -367 423 424 -480 0
-34 -32 31 -367 -424 -479 0
-34 -32 31 -367 -424 479 480 0
-34 -32 31 -367 -424 -480 0
-34 -32 31 367 368 -423 -479 0
-34 -32 31 367 368 -423 479 480 0
-34 -32 31 367 368 -423 -480 0
-34 -32 31 367 368 423 424 -479 0
-34 -32 31 367 368 423 424 -480 0
-34 -32 31 367 368 -424 -479 0
-34 -32 31 367 368 -424 479 480 0
-34 -32 31 367 368 -424 -480 0
-34 -32 31 -368 -423 -479 0
-34 -32 31 -368 -423 479 480 0
-34 -32 31 -368 -423 -480 0
-34 -32 31 -368 423 424 -479 0
-34 -32 31 -368 423 424 479 480 0
-34 -32 31 -368 423 424 -480 0
-34 -32 31 -368 -424 479 480 0
-34 -32 31 -368 -424 -480 0
-34 -32 -31 -367 -423 479 480 0
-34 -32 -31 -367 -423 -480 0
-34 -32 -31 -367 423 424 -479 0
-34 -32 -31 -367 423 424 479 480 0
-34 -32 -31 -367 423 424 -480 0
-34 -32 -31 -367 -424 -479 0
-34 -32 -31 -367 -424 479 480 0
-34 -32 -31 -367 -424 -480 0
-34 -32 -31 367 368 -423 -479 0
-34 -32 -31 367 368 -423 479 480 0
-34 -32 -31 367 368 -423 -480 0
-34 -32 -31 367 368 423 424 -479 0
-34 -32 -31 367 368 423 424 -480 0
-34 -32 -31 367 368 -424 -479 0
-34 -32 -31 367 368 -424 479 480 0
-34 -32 -31 367 368 -424 -480 0
-34 -32 -31 -368 -423 -479 0
-34 -32 -31 -368 -423 479 480 0
-34 -32 -31 -368 -423 -480 0
-34 -32 -31 -368 423 424 -479 0
-34 -32 -31 -368 423 424 479 480 0
-34 -32 -31 -368 423 424 -480 0
-34 -32 -31 -368 -424 -479 0
-34 -32 -31 -368 -424 479 480 0
35 33 31 -369 -425 535 536 0
35 33 31 -369 -425 -536 0
35 33 31 -369 425 426 -535 0
35 33 31 -369 425 426 535 536 0
35 33 31 -369 425 426 -536 0
35 33 31 -369 -426 -535 0
35 33 31 -369 -426 535 536 0
35 33 31 -369 -426 -536 0
35 33 31 369 370 -425 -535 0
35 33 31 369 370 -425 535 536 0
35 33 31 369 370 -425 -536 0
35 33 31 369 370 425 426 -535 0
35 33 31 369 370 425 426 -536 0
35 33 31 369 370 -426 -535 0
35 33 31 369 370 -426 535 536 0
35 33 31 369 370 -426 -536 0
35 33 31 -370 -425 -535 0
35 33 31 -370 -425 535 536 0
35 33 31 -370 -425 -536 0
35 33 31 -370 425 426 -535 0
35 33 31 -370 425 426 535 536 0
35 33 31 -370 425 426 -536 0
35 33 31 -370 -426 -535 0
35 33 31 -370 -426 535 536 0
35 33 -31 -369 -425 -535 0
35 33 -31 -369 -425 535 536 0
35 33 -31 -369 425 426 -535 0
35 33 -31 -369 425 426 535 536 0
35 33 -31 -369 425 426 -536 0
35 33 -31 -369 -426 -535 0
35 33 -31 -369 -426 535 536 0
35 33 -31 -369 -426 -536 0
35 33 -31 369 370 -425 -535 0
35 33 -31 369 370 -425 535 536 0
35 33 -31 369 370 -425 -536 0
35 33 -31 369 370 425 426 -535 0
35 33 -31 369 370 425 426 -536 0
35 33 -31 369 370 -426 -535 0
35 33 -31 369 370 -426 535 536 0
35 33 -31 369 370 -426 -536 0
35 33 -31 -370 -425 -535 0
35 33 -31 -370 -425 535 536 0
35 33 -31 -370 -425 -536 0
35 33 -31 -370 425 426 -535 0
35 33 -31 -370 425 426 535 536 0
35 33 -31 -370 425 426 -536 0
35 33 -31 -370 -426 535 536 0
35 33 -31 -370 -426 -536 0
35 -33 31 -369 -425 -535 0
35 -33 31 -369 -425 535 536 0
35 -33 31 -369 -425 -536 0
35 -33 31 -369 425 426 -535 0
35 -33 31 -369 425 426 535 536 0
35 -33 31 -369 425 426 -536 0
35 -33 31 -369 -426 535 536 0
35 -33 31 -369 -426 -536 0
35 -33 31 369 370 -425 -535 0
35 -33 31 369 370 -425 535 536 0
35 -33 31 369 370 -425 -536 0
35 -33 31 369 370 425 426 -535 0
35 -33 31 369 370 425 426 -536 0
35 -33 31 369 370 -426 -535 0
35 -33 31 369 370 -426 535 536 0
35 -33 31 369 370 -426 -536 0
35 -33 31 -370 -425 -535 0
35 -33 31 -370 -425 535 536 0
35 -33 31 -370 425 426 -535 0
35 -33 31 -370 425 426 535 536 0
35 -33 31 -370 425 426 -536 0
35 -33 31 -370 -426 -535 0
35 -33 31 -370 -426 535 536 0
35 -33 31 -370 -426 -536 0
35 -33 -31 -369 -425 -535 0
35 -33 -31 -369 -425 535 536 0
35 -33 -31 -369 -425 -536 0
35 -33 -31 -369 425 426 -535 0
35 -33 -31 -369 425 426 535 536 0
35 -33 -31 -369 425 426 -536 0
35 -33 -31 -369 -426 -535 0
35 -33 -31 -369 -426 535 536 0
35 -33 -31 369 370 -425 -535 0
35 -33 -31 369 370 -425 535 536 0
35 -33 -31 369 370 -425 -536 0
35 -33 -31 369 370 425 426 -535 0
35 -33 -31 369 370 425 426 -536 0
35 -33 -31 369 370 -426 -535 0
35 -33 -31 369 370 -426 535 536 0
35 -33 -31 369 370 -426 -536 0
35 -33 -31 -370 -425 535 536 0
35 -33 -31 -370 -425 -536 0
35 -33 -31 -370 425 426 -535 0
35 -33 -31 -370 425 426 535 536 0
35 -33 -31 -370 425 426 -536 0
35 -33 -31 -370 -426 -535 0
35 -33 -31 -370 -426 535 536 0
35 -33 -31 -370 -426 -536 0
-35 33 31 -369 -425 -535 0
-35 33 31 -369 -425 535 536 0
-35 33 31 -369 -425 -536 0
-35 33 31 -369 425 426 -535 0
-35 33 31 -369 425 426 535 536 0
-35 33 31 -369 425 426 -536 0
-35 33 31 -369 -426 -535 0
-35 33 31 -369 -426 535 536 0
-35 33 31 369 370 -425 -535 0
-35 33 31 369 370 -425 535 536 0
-35 33 31 369 370 -425 -536 0
-35 33 31 369 370 425 426 -535 0
-35 33 31 369 370 425 426 -536 0
-35 33 31 369 370 -426 -535 0
-35 33 31 369 370 -426 535 536 0
-35 33 31 369 370 -426 -536 0
-35 33 31 -370 -425 535 536 0
-35 33 31 -370 -425 -536 0
-35 33 31 -370 425 426 -535 0
-35 33 31 -370 425 426 535 536 0
-35 33 31 -370 425 426 -536 0
-35 33 31 -370 -426 -535 0
-35 33 31 -370 -426 535 536 0
-35 33 31 -370 -426 -536 0
-35 33 -31 -369 -425 -535 0
-35 33 -31 -369 -425 535 536 0
-35 33 -31 -369 -425 -536 0
-35 33 -31 -369 425 426 -535 0
-35 33 -31 -369 425 426 535 536 0
-35 33 -31 -369 425 426 -536 0
-35 33 -31 -369 -426 535 536 0
-35 33 -31 -369 -426 -536 0
-35 33 -31 369 370 -425 -535 0
-35 33 -31 369 370 -425 535 536 0
-35 33 -31 369 370 -425 -536 0
-35 33 -31 369 370 425 426 -535 0
-35 33 -31 369 370 425 426 -536 0
-35 33 -31 369 370 -426 -535 0
-35 33 -31 369 370 -426 535 536 0
-35 33 -31 369 370 -426 -536 0
-35 33 -31 -370 -425 -535 0
-35 33 -31 -370 -425 535 536 0
-35 33 -31 -370 425 426 -535 0
-35 33 -31 -370 425 426 535 536 0
-35 33 -31 -370 425 426 -536 0
-35 33 -31 -370 -426 -535 0
-35 33 -31 -370 -426 535 536 0
-35 33 -31 -370 -426 -536 0
-35 -33 31 -369 -425 -535 0
-35 -33 31 -369 -425 535 536 0
-35 -33 31 -369 425 426 -535 0
-35 -33 31 -369 425 426 535 536 0
-35 -33 31 -369 425 426 -536 0
-35 -33 31 -369 -426 -535 0
-35 -33 31 -369 -426 535 536 0
-35 -33 31 -369 -426 -536 0
-35 -33 31 369 370 -425 -535 0
-35 -33 31 369 370 -425 535 536 0
-35 -33 31 369 370 -425 -536 0
-35 -33 31 369 370 425 426 -535 0
-35 -33 31 369 370 425 426 -536 0
-35 -33 31 369 370 -426 -535 0
-35 -33 31 369 370 -426 535 536 0
-35 -33 31 369 370 -426 -536 0
-35 -33 31 -370 -425 -535 0
-35 -33 31 -370 -425 535 536 0
-35 -33 31 -370 -425 -536 0
-35 -33 31 -370 425 426 -535 0
-35 -33 31 -370 425 426 535 536 0
-35 -33 31 -370 425 426 -536 0
-35 -33 31 -370 -426 535 536 0
-35 -33 31 -370 -426 -536 0
-35 -33 -31 -369 -425 535 536 0
-35 -33 -31 -369 -425 -536 0
-35 -33 -31 -369 425 426 -535 0
-35 -33 -31 -369 425 426 535 536 0
-35 -33 -31 -369 425 426 -536 0
-35 -33 -31 -369 -426 -535 0
-35 -33 -31 -369 -426 535 536 0
-35 -33 -31 -369 -426 -536 0
-35 -33 -31 369 370 -425 -535 0
-35 -33 -31 369 370 -425 535 536 0
-35 -33 -31 369 370 -425 -536 0
-35 -33 -31 369 370 425 426 -535 0
-35 -33 -31 369 370 425 426 -536 0
-35 -33 -31 369 370 -426 -535 0
-35 -33 -31 369 370 -426 535 536 0
-35 -33 -31 369 370 -426 -536 0
-35 -33 -31 -370 -425 -535 0
-35 -33 -31 -370 -425 535 536 0
-35 -33 -31 -370 -425 -536 0
-35 -33 -31 -370 425 426 -535 0
-35 -33 -31 -370 425 426 535 536 0
-35 -33 -31 -370 425 426 -536 0
-35 -33 -31 -370 -426 -535 0
-35 -33 -31 -370 -426 535 536 0
36 33 32 -371 -481 537 538 0
36 33 32 -371 -481 -538 0
36 33 32 -371 481 482 -537 0
36 33 32 -371 481 482 537 538 0
36 33 32 -371 481 482 -538 0
36 33 32 -371 -482 -537 0
36 33 32 -371 -482 537 538 0
36 33 32 -371 -482 -538 0
36 33 32 371 372 -481 -537 0
36 33 32 371 372 -481 537 538 0
36 33 32 371 372 -481 -538 0
36 33 32 371 372 481 482 -537 0
36 33 32 371 372 481 482 -538 0
36 33 32 371 372 -482 -537 0
36 33 32 371 372 -482 537 538 0
36 33 32 371 372 -482 -538 0
36 33 32 -372 -481 -537 0
36 33 32 -372 -481 537 538 0
36 33 32 -372 -481 -538 0
36 33 32 -372 481 482 -537 0
36 33 32 -372 481 482 537 538 0
36 33 32 -372 481 482 -538 0
36 33 32 -372 -482 -537 0
36 33 32 -372 -482 537 538 0
36 33 -32 -371 -481 -537 0
36 33 -32 -371 -481 537 538 0
36 33 -32 -371 481 482 -537 0
36 33 -32 -371 481 482 537 538 0
36 33 -32 -371 481 482 -538 0
36 33 -32 -371 -482 -537 0
36 33 -32 -371 -482 537 538 0
36 33 -32 -371 -482 -538 0
36 33 -32 371 372 -481 -537 0
36 33 -32 371 372 -481 537 538 0
36 33 -32 371 372 -481 -538 0
36 33 -32 371 372 481 482 -537 0
36 33 -32 371 372 481 482 -538 0
36 33 -32 371 372 -482 -537 0
36 33 -32 371 372 -482 537 538 0
36 33 -32 371 372 -482 -538 0
36 33 -32 -372 -481 -537 0
36 33 -32 -372 -481 537 538 0
36 33 -32 -372 -481 -538 0
36 33 -32 -372 481 482 -537 0
36 33 -32 -372 481 482 537 538 0
36 33 -32 -372 481 482 -538 0
36 33 -32 -372 -482 537 538 0
36 33 -32 -372 -482 -538 0
36 -33 32 -371 -481 -537 0
36 -33 32 -371 -481 537 538 0
36 -33 32 -371 -481 -538 0
36 -33 32 -371 481 482 -537 0
36 -33 32 -371 481 482 537 538 0
36 -33 32 -371 481 482 -538 0
36 -33 32 -371 -482 537 538 0
36 -33 32 -371 -482 -538 0
36 -33 32 371 372 -481 -537 0
36 -33 32 371 372 -481 537 538 0
36 -33 32 371 372 -481 -538 0
36 -33 32 371 372 481 482 -537 0
36 -33 32 371 372 481 482 -538 0
36 -33 32 371 372 -482 -537 0
36 -33 32 371 372 -482 537 538 0
36 -33 32 371 372 -482 -538 0
36 -33 32 -372 -481 -537 0
36 -33 32 -372 -481 537 538 0
36 -33 32 -372 481 482 -537 0
36 -33 32 -372 481 482 537 538 0
36 -33 32 -372 481 482 -538 0
36 -33 32 -372 -482 -537 0
36 -33 32 -372 -482 537 538 0
36 -33 32 -372 -482 -538 0
36 -33 -32 -371 -481 -537 0
36 -33 -32 -371 -481 537 538 0
36 -33 -32 -371 -481 -538 0
36 -33 -32 -371 481 482 -537 0
36 -33 -32 -371 481 482 537 538 0
36 -33 -32 -371 481 482 -538 0
36 -33 -32 -371 -482 -537 0
36 -33 -32 -371 -482 537 538 0
36 -33 -32 371 372 -481 -537 0
36 -33 -32 371 372 -481 537 538 0
36 -33 -32 371 372 -481 -538 0
36 -33 -32 371 372 481 482 -537 0
36 -33 -32 371 372 481 482 -538 0
36 -33 -32 371 372 -482 -537 0
36 -33 -32 371 372 -482 537 538 0
36 -33 -32 371 372 -482 -538 0
36 -33 -32 -372 -481 537 538 0
36 -33 -32 -372 -481 -538 0
36 -33 -32 -372 481 482 -537 0
36 -33 -32 -372 481 482 537 538 0
36 -33 -32 -372 481 482 -538 0
36 -33 -32 -372 -482 -537 0
36 -33 -32 -372 -482 537 538 0
36 -33 -32 -372 -482 -538 0
-36 33 32 -371 -481 -537 0
-36 33 32 -371 -481 537 538 0
-36 33 32 -371 -481 -538 0
-36 33 32 -371 481 482 -537 0
-36 33 32 -371 481 482 537 538 0
-36 33 32 -371 481 482 -538 0
-36 33 32 -371 -482 -537 0
-36 33 32 -371 -482 537 538 0
-36 33 32 371 372 -481 -537 0
-36 33 32 371 372 -481 537 538 0
-36 33 32 371 372 -481 -538 0
-36 33 32 371 372 481 482 -537 0
-36 33 32 371 372 481 482 -538 0
-36 33 32 371 372 -482 -537 0
-36 33 32 371 372 -482 537 538 0
-36 33 32 371 372 -482 -538 0
-36 33 32 -372 -481 537 538 0
-36 33 32 -372 -481 -538 0
-36 33 32 -372 481 482 -537 0
-36 33 32 -372 481 482 537 538 0
-36 33 32 -372 481 482 -538 0
-36 33 32 -372 -482 -537 0
-36 33 32 -372 -482 537 538 0
-36 33 32 -372 -482 -538 0
-36 33 -32 -371 -481 -537 0
-36 33 -32 -371 -481 537 538 0
-36 33 -32 -371 -481 -538 0
-36 33 -32 -371 481 482 -537 0
-36 33 -32 -371 481 482 537 538 0
-36 33 -32 -371 481 482 -538 0
-36 33 -32 -371 -482 537 538 0
-36 33 -32 -371 -482 -538 0
-36 33 -32 371 372 -481 -537 0
-36 33 -32 371 372 -481 537 538 0
-36 33 -32 371 372 -481 -538 0
-36 33 -32 371 372 481 482 -537 0
-36 33 -32 371 372 481 482 -538 0
-36 33 -32 371 372 -482 -537 0
-36 33 -32 371 372 -482 537 538 0
-36 33 -32 371 372 -482 -538 0
-36 33 -32 -372 -481 -537 0
-36 33 -32 -372 -481 537 538 0
-36 33 -32 -372 481 482 -537 0
-36 33 -32 -372 481 482 537 538 0
-36 33 -32 -372 481 482 -538 0
-36 33 -32 -372 -482 -537 0
-36 33 -32 -372 -482 537 538 0
-36 33 -32 -372 -482 -538 0
-36 -33 32 -371 -481 -537 0
-36 -33 32 -371 -481 537 538 0
-36 -33 32 -371 481 482 -537 0
-36 -33 32 -371 481 482 537 538 0
-36 -33 32 -371 481 482 -538 0
-36 -33 32 -371 -482 -537 0
-36 -33 32 -371 -482 537 538 0
-36 -33 32 -371 -482 -538 0
-36 -33 32 371 372 -481 -537 0
-36 -33 32 371 372 -481 537 538 0
-36 -33 32 371 372 -481 -538 0
-36 -33 32 371 372 481 482 -537 0
-36 -33 32 371 372 481 482 -538 0
-36 -33 32 371 372 -482 -537 0
-36 -33 32 371 372 -482 537 538 0
-36 -33 32 371 372 -482 -538 0
-36 -33 32 -372 -481 -537 0
-36 -33 32 -372 -481 537 538 0
-36 -33 32 -372 -481 -538 0
-36 -33 32 -372 481 482 -537 0
-36 -33 32 -372 481 482 537 538 0
-36 -33 32 -372 481 482 -538 0
-36 -33 32 -372 -482 537 538 0
-36 -33 32 -372 -482 -538 0
-36 -33 -32 -371 -481 537 538 0
-36 -33 -32 -371 -481 -538 0
-36 -33 -32 -371 481 482 -537 0
-36 -33 -32 -371 481 482 537 538 0
-36 -33 -32 -371 481 482 -538 0
-36 -33 -32 -371 -482 -537 0
-36 -33 -32 -371 -482 537 538 0
-36 -33 -32 -371 -482 -538 0
-36 -33 -32 371 372 -481 -537 0
-36 -33 -32 371 372 -481 537 538 0
-36 -33 -32 371 372 -481 -538 0
-36 -33 -32 371 372 481 482 -537 0
-36 -33 -32 371 372 481 482 -538 0
-36 -33 -32 371 372 -482 -537 0
-36 -33 -32 371 372 -482 537 538 0
-36 -33 -32 371 372 -482 -538 0
-36 -33 -32 -372 -481 -537 0
-36 -33 -32 -372 -481 537 538 0
-36 -33 -32 -372 -481 -538 0
-36 -33 -32 -372 481 482 -537 0
-36 -33 -32 -372 481 482 537 538 0
-36 -33 -32 -372 481 482 -538 0
-36 -33 -32 -372 -482 -537 0
-36 -33 -32 -372 -482 537 538 0
36 35 34 -427 -483 539 540 0
36 35 34 -427 -483 -540 0
36 35 34 -427 483 484 -539 0
36 35 34 -427 483 484 539 540 0
36 35 34 -427 483 484 -540 0
36 35 34 -427 -484 -539 0
36 35 34 -427 -484 539 540 0
36 35 34 -427 -484 -540 0
36 35 34 427 428 -483 -539 0
36 35 34 427 428 -483 539 540 0
36 35 34 427 428 -483 -540 0
36 35 34 427 428 483 484 -539 0
36 35 34 427 428 483 484 -540 0
36 35 34 427 428 -484 -539 0
36 35 34 427 428 -484 539 540 0
36 35 34 427 428 -484 -540 0
36 35 34 -428 -483 -539 0
36 35 34 -428 -483 539 540 0
36 35 34 -428 -483 -540 0
36 35 34 -428 483 484 -539 0
36 35 34 -428 483 484 539 540 0
36 35 34 -428 483 484 -540 0
36 35 34 -428 -484 -539 0
36 35 34 -428 -484 539 540 0
36 35 -34 -427 -483 -539 0
36 35 -34 -427 -483 539 540 0
36 35 -34 -427 483 484 -539 0
36 35 -34 -427 483 484 539 540 0
36 35 -34 -427 483 484 -540 0
36 35 -34 -427 -484 -539 0
36 35 -34 -427 -484 539 540 0
36 35 -34 -427 -484 -540 0
36 35 -34 427 428 -483 -539 0
36 35 -34 427 428 -483 539 540 0
36 35 -34 427 428 -483 -540 0
36 35 -34 427 428 483 484 -539 0
36 35 -34 427 428 483 484 -540 0
36 35 -34 427 428 -484 -539 0
36 35 -34 427 428 -484 539 540 0
36 35 -34 427 428 -484 -540 0
36 35 -34 -428 -483 -539 0
36 35 -34 -428 -483 539 540 0
36 35 -34 -428 -483 -540 0
36 35 -34 -428 483 484 -539 0
36 35 -34 -428 483 484 539 540 0
36 35 -34 -428 483 484 -540 0
36 35 -34 -428 -484 539 540 0
36 35 -34 -428 -484 -540 0
36 -35 34 -427 -483 -539 0
36 -35 34 -427 -483 539 540 0
36 -35 34 -427 -483 -540 0
36 -35 34 -427 483 484 -539 0
36 -35 34 -427 483 484 539 540 0
36 -35 34 -427 483 484 -540 0
36 -35 34 -427 -484 539 540 0
36 -35 34 -427 -484 -540 0
36 -35 34 427 428 -483 -539 0
36 -35 34 427 428 -483 539 540 0
36 -35 34 427 428 -483 -540 0
36 -35 34 427 428 483 484 -539 0
36 -35 34 427 428 483 484 -540 0
36 -35 34 427 428 -484 -539 0
36 -35 34 427 428 -484 539 540 0
36 -35 34 427 428 -484 -540 0
36 -35 34 -428 -483 -539 0
36 -35 34 -428 -483 539 540 0
36 -35 34 -428 483 484 -539 0
36 -35 34 -428 483 484 539 540 0
36 -35 34 -428 483 484 -540 0
36 -35 34 -428 -484 -539 0
36 -35 34 -428 -484 539 540 0
36 -35 34 -428 -484 -540 0
36 -35 -34 -427 -483 -539 0
36 -35 -34 -427 -483 539 540 0
36 -35 -34 -427 -483 -540 0
36 -35 -34 -427 483 484 -539 0
36 -35 -34 -427 483 484 539 540 0
36 -35 -34 -427 483 484 -540 0
36 -35 -34 -427 -484 -539 0
36 -35 -34 -427 -484 539 540 0
36 -35 -34 427 428 -483 -539 0
36 -35 -34 427 428 -483 539 540 0
36 -35 -34 427 428 -483 -540 0
36 -35 -34 427 428 483 484 -539 0
36 -35 -34 427 428 483 484 -540 0
36 -35 -34 427 428 -484 -539 0
36 -35 -34 427 428 -484 539 540 0
36 -35 -34 427 428 -484 -540 0
36 -35 -34 -428 -483 539 540 0
36 -35 -34 -428 -483 -540 0
36 -35 -34 -428 483 484 -539 0
36 -35 -34 -428 483 484 539 540 0
36 -35 -34 -428 483 484 -540 0
36 -35 -34 -428 -484 -539 0
36 -35 -34 -428 -484 539 540 0
36 -35 -34 -428 -484 -540 0
-36 35 34 -427 -483 -539 0
-36 35 34 -427 -483 539 540 0
-36 35 34 -427 -483 -540 0
-36 35 34 -427 483 484 -539 0
-36 35 34 -427 483 484 539 540 0
-36 35 34 -427 483 484 -540 0
-36 35 34 -427 -484 -539 0
-36 35 34 -427 -484 539 540 0
-36 35 34 427 428 -483 -539 0
-36 35 34 427 428 -483 539 540 0
-36 35 34 427 428 -483 -540 0
-36 35 34 427 428 483 484 -539 0
-36 35 34 427 428 483 484 -540 0
-36 35 34 427 428 -484 -539 0
-36 35 34 427 428 -484 539 540 0
-36 35 34 427 428 -484 -540 0
-36 35 34 -428 -483 539 540 0
-36 35 34 -428 -483 -540 0
-36 35 34 -428 483 484 -539 0
-36 35 34 -428 483 484 539 540 0
-36 35 34 -428 483 484 -540 0
-36 35 34 -428 -484 -539 0
-36 35 34 -428 -484 539 540 0
-36 35 34 -428 -484 -540 0
-36 35 -34 -427 -483 -539 0
-36 35 -34 -427 -483 539 540 0
-36 35 -34 -427 -483 -540 0
-36 35 -34 -427 483 484 -539 0
-36 35 -34 -427 483 484 539 540 0
-36 35 -34 -427 483 484 -540 0
-36 35 -34 -427 -484 539 540 0
-36 35 -34 -427 -484 -540 0
-36 35 -34 427 428 -483 -539 0
-36 35 -34 427 428 -483 539 540 0
-36 35 -34 427 428 -483 -540 0
-36 35 -34 427 428 483 484 -539 0
-36 35 -34 427 428 483 484 -540 0
-36 35 -34 427 428 -484 -539 0
-36 35 -34 427 428 -484 539 540 0
-36 35 -34 427 428 -484 -540 0
-36 35 -34 -428 -483 -539 0
-36 35 -34 -428 -483 539 540 0
-36 35 -34 -428 483 484 -539 0
-36 35 -34 -428 483 484 539 540 0
-36 35 -34 -428 483 484 -540 0
-36 35 -34 -428 -484 -539 0
-36 35 -34 -428 -484 539 540 0
-36 35 -34 -428 -484 -540 0
-36 -35 34 -427 -483 -539 0
-36 -35 34 -427 -483 539 540 0
-36 -35 34 -427 483 484 -539 0
-36 -35 34 -427 483 484 539 540 0
-36 -35 34 -427 483 484 -540 0
-36 -35 34 -427 -484 -539 0
-36 -35 34 -427 -484 539 540 0
-36 -35 34 -427 -484 -540 0
-36 -35 34 427 428 -483 -539 0
-36 -35 34 427 428 -483 539 540 0
-36 -35 34 427 428 -483 -540 0
-36 -35 34 427 428 483 484 -539 0
-36 -35 34 427 428 483 484 -540 0
-36 -35 34 427 428 -484 -539 0
-36 -35 34 427 428 -484 539 540 0
-36 -35 34 427 428 -484 -540 0
-36 -35 34 -428 -483 -539 0
-36 -35 34 -428 -483 539 540 0
-36 -35 34 -428 -483 -540 0
-36 -35 34 -428 483 484 -539 0
-36 -35 34 -428 483 484 539 540 0
-36 -35 34 -428 483 484 -540 0
-36 -35 34 -428 -484 539 540 0
-36 -35 34 -428 -484 -540 0
-36 -35 -34 -427 -483 539 540 0
-36 -35 -34 -427 -483 -540 0
-36 -35 -34 -427 483 484 -539 0
-36 -35 -34 -427 483 484 539 540 0
-36 -35 -34 -427 483 484 -540 0
-36 -35 -34 -427 -484 -539 0
-36 -35 -34 -427 -484 539 540 0
-36 -35 -34 -427 -484 -540 0
-36 -35 -34 427 428 -483 -539 0
-36 -35 -34 427 428 -483 539 540 0
-36 -35 -34 427 428 -483 -540 0
-36 -35 -34 427 428 483 484 -539 0
-36 -35 -34 427 428 483 484 -540 0
-36 -35 -34 427 428 -484 -539 0
-36 -35 -34 427 428 -484 539 540 0
-36 -35 -34 427 428 -484 -540 0
-36 -35 -34 -428 -483 -539 0
-36 -35 -34 -428 -483 539 540 0
-36 -35 -34 -428 -483 -540 0
-36 -35 -34 -428 483 484 -539 0
-36 -35 -34 -428 483 484 539 540 0
-36 -35 -34 -428 483 484 -540 0
-36 -35 -34 -428 -484 -539 0
-36 -35 -34 -428 -484 539 540 0
-37 0
-38 0
-93 0
-94 0
-149 0
-150 0
-72 0
-71 0
-489 0
-490 0
-217 0
-218 0
-119 0
-120 0
-221 0
-222 0
-277 0
-278 0
-185 0
-186 0
-289 0
-290 0
-345 0
-346 0
-81 0
-82 0
-325 0
-326 0
-381 0
-382 0
-143 0
-144 0
-395 0
-396 0
-451 0
-452 0
-203 0
-204 0
-463 0
-464 0
-519 0
-520 0
39 40 0
-37 -51 0
-52 -38 0
-41 -64 0
-63 -42 0
-43 -66 0
-65 -44 0
-45 -68 0
-67 -46 0
-47 -70 0
-69 -48 0
-49 -72 0
-71 -50 0
95 96 0
-93 -107 0
-108 -94 0
-97 -120 0
-119 -98 0
-99 -122 0
-121 -100 0
-101 -124 0
-123 -102 0
-103 -126 0
-125 -104 0
-105 -128 0
-127 -106 0
205 206 0
-207 -220 0
-219 -208 0
-209 -222 0
-221 -210 0
-211 -224 0
-223 -212 0
-213 -226 0
-225 -214 0
-215 -228 0
-227 -216 0
-217 -230 0
-229 -218 0
109 110 0
-94 -97 0
-98 -93 0
-107 -119 0
-120 -108 0
-111 -130 0
-129 -112 0
-113 -132 0
-131 -114 0
-115 -134 0
-133 -116 0
-117 -136 0
-135 -118 0
165 166 0
-150 -153 0
-154 -149 0
-163 -175 0
-176 -164 0
-167 -186 0
-185 -168 0
-169 -188 0
-187 -170 0
-171 -190 0
-189 -172 0
-173 -192 0
-191 -174 0
275 276 0
-262 -263 0
-264 -261 0
-277 -288 0
-287 -278 0
-279 -290 0
-289 -280 0
-281 -292 0
-291 -282 0
-283 -294 0
-293 -284 0
-285 -296 0
-295 -286 0
155 156 0
-149 -167 0
-168 -150 0
-151 -177 0
-178 -152 0
-153 -185 0
-186 -154 0
-157 -194 0
-193 -158 0
-159 -196 0
-195 -160 0
-161 -198 0
-197 -162 0
55 56 0
-38 -43 0
-44 -37 0
-51 -65 0
-66 -52 0
-53 -73 0
-74 -54 0
-57 -82 0
-81 -58 0
-59 -84 0
-83 -60 0
-61 -86 0
-85 -62 0
320 319 0
-332 -318 0
-317 -331 0
-343 -322 0
-321 -344 0
-345 -324 0
-323 -346 0
-347 -326 0
-325 -348 0
-349 -328 0
-327 -350 0
-351 -330 0
-329 -352 0
45 46 0
-37 -57 0
-58 -38 0
-39 -67 0
-68 -40 0
-41 -75 0
-76 -42 0
-43 -81 0
-82 -44 0
-47 -88 0
-87 -48 0
-49 -90 0
-89 -50 0
101 102 0
-93 -113 0
-114 -94 0
-95 -123 0
-124 -96 0
-97 -131 0
-132 -98 0
-99 -137 0
-138 -100 0
-103 -144 0
-143 -104 0
-105 -146 0
-145 -106 0
373 374 0
-375 -388 0
-387 -376 0
-377 -390 0
-389 -378 0
-379 -392 0
-391 -380 0
-381 -394 0
-393 -382 0
-383 -396 0
-395 -384 0
-385 -398 0
-397 -386 0
115 116 0
-94 -103 0
-104 -93 0
-107 -125 0
-126 -108 0
-109 -133 0
-134 -110 0
-111 -139 0
-140 -112 0
-113 -143 0
-144 -114 0
-117 -148 0
-147 -118 0
171 172 0
-150 -159 0
-160 -149 0
-163 -181 0
-182 -164 0
-165 -189 0
-190 -166 0
-167 -195 0
-196 -168 0
-169 -199 0
-200 -170 0
-173 -204 0
-203 -174 0
443 444 0
-430 -431 0
-432 -429 0
-445 -456 0
-455 -446 0
-447 -458 0
-457 -448 0
-449 -460 0
-459 -450 0
-451 -462 0
-461 -452 0
-453 -464 0
-463 -454 0
161 162 0
-149 -173 0
-174 -150 0
-151 -183 0
-184 -152 0
-153 -191 0
-192 -154 0
-155 -197 0
-198 -156 0
-157 -201 0
-202 -158 0
-159 -203 0
-204 -160 0
61 62 0
-38 -49 0
-50 -37 0
-51 -71 0
-72 -52 0
-53 -79 0
-80 -54 0
-55 -85 0
-86 -56 0
-57 -89 0
-90 -58 0
-59 -91 0
-92 -60 0
488 487 0
-500 -486 0
-485 -499 0
-511 -490 0
-489 -512 0
-513 -492 0
-491 -514 0
-515 -494 0
-493 -516 0
-517 -496 0
-495 -518 0
-519 -498 0
-497 -520 0
-303 -274 0
-304 -273 0
273 274 0
-303 -286 0
-304 -285 0
285 286 0
-303 -296 0
-304 -295 0
295 296 0
-303 -310 0
-304 -309 0
309 310 0
-303 -314 0
-304 -313 0
313 314 0
-303 -316 0
-304 -315 0
315 316 0
303 304 0
-480 -438 0
-479 -437 0
437 438 0
-480 -450 0
-479 -449 0
449 450 0
-480 -460 0
-479 -459 0
459 460 0
-480 -468 0
-479 -467 0
467 468 0
-480 -474 0
-479 -473 0
473 474 0
-480 -481 0
-479 -482 0
482 481 0
480 479 0
