p cnf 9212 48732
1 0
2 122 242 0
-2 -122 0
-2 -242 0
-122 -242 0
3 123 243 0
-3 -123 0
-3 -243 0
-123 -243 0
4 124 244 0
-4 -124 0
-4 -244 0
-124 -244 0
5 125 245 0
-5 -125 0
-5 -245 0
-125 -245 0
6 126 246 0
-6 -126 0
-6 -246 0
-126 -246 0
7 127 247 0
-7 -127 0
-7 -247 0
-127 -247 0
8 128 248 0
-8 -128 0
-8 -248 0
-128 -248 0
9 129 249 0
-9 -129 0
-9 -249 0
-129 -249 0
10 130 250 0
-10 -130 0
-10 -250 0
-130 -250 0
11 131 251 0
-11 -131 0
-11 -251 0
-131 -251 0
12 132 252 0
-12 -132 0
-12 -252 0
-132 -252 0
13 133 253 0
-13 -133 0
-13 -253 0
-133 -253 0
14 134 254 0
-14 -134 0
-14 -254 0
-134 -254 0
15 135 255 0
-15 -135 0
-15 -255 0
-135 -255 0
16 136 256 0
-16 -136 0
-16 -256 0
-136 -256 0
17 137 257 0
-17 -137 0
-17 -257 0
-137 -257 0
18 138 258 0
-18 -138 0
-18 -258 0
-138 -258 0
19 139 259 0
-19 -139 0
-19 -259 0
-139 -259 0
20 140 260 0
-20 -140 0
-20 -260 0
-140 -260 0
21 141 261 0
-21 -141 0
-21 -261 0
-141 -261 0
22 142 262 0
-22 -142 0
-22 -262 0
-142 -262 0
23 143 263 0
-23 -143 0
-23 -263 0
-143 -263 0
24 144 264 0
-24 -144 0
-24 -264 0
-144 -264 0
25 145 265 0
-25 -145 0
-25 -265 0
-145 -265 0
26 146 266 0
-26 -146 0
-26 -266 0
-146 -266 0
27 147 267 0
-27 -147 0
-27 -267 0
-147 -267 0
28 148 268 0
-28 -148 0
-28 -268 0
-148 -268 0
29 149 269 0
-29 -149 0
-29 -269 0
-149 -269 0
30 150 270 0
-30 -150 0
-30 -270 0
-150 -270 0
31 151 271 0
-31 -151 0
-31 -271 0
-151 -271 0
32 152 272 0
-32 -152 0
-32 -272 0
-152 -272 0
33 153 273 0
-33 -153 0
-33 -273 0
-153 -273 0
34 154 274 0
-34 -154 0
-34 -274 0
-154 -274 0
35 155 275 0
-35 -155 0
-35 -275 0
-155 -275 0
36 156 276 0
-36 -156 0
-36 -276 0
-156 -276 0
37 157 277 0
-37 -157 0
-37 -277 0
-157 -277 0
38 158 278 0
-38 -158 0
-38 -278 0
-158 -278 0
39 159 279 0
-39 -159 0
-39 -279 0
-159 -279 0
40 160 280 0
-40 -160 0
-40 -280 0
-160 -280 0
41 161 281 0
-41 -161 0
-41 -281 0
-161 -281 0
42 162 282 0
-42 -162 0
-42 -282 0
-162 -282 0
43 163 283 0
-43 -163 0
-43 -283 0
-163 -283 0
44 164 284 0
-44 -164 0
-44 -284 0
-164 -284 0
45 165 285 0
-45 -165 0
-45 -285 0
-165 -285 0
46 166 286 0
-46 -166 0
-46 -286 0
-166 -286 0
47 167 287 0
-47 -167 0
-47 -287 0
-167 -287 0
48 168 288 0
-48 -168 0
-48 -288 0
-168 -288 0
49 169 289 0
-49 -169 0
-49 -289 0
-169 -289 0
50 170 290 0
-50 -170 0
-50 -290 0
-170 -290 0
51 171 291 0
-51 -171 0
-51 -291 0
-171 -291 0
52 172 292 0
-52 -172 0
-52 -292 0
-172 -292 0
53 173 293 0
-53 -173 0
-53 -293 0
-173 -293 0
54 174 294 0
-54 -174 0
-54 -294 0
-174 -294 0
55 175 295 0
-55 -175 0
-55 -295 0
-175 -295 0
56 176 296 0
-56 -176 0
-56 -296 0
-176 -296 0
57 177 297 0
-57 -177 0
-57 -297 0
-177 -297 0
58 178 298 0
-58 -178 0
-58 -298 0
-178 -298 0
59 179 299 0
-59 -179 0
-59 -299 0
-179 -299 0
60 180 300 0
-60 -180 0
-60 -300 0
-180 -300 0
61 181 301 0
-61 -181 0
-61 -301 0
-181 -301 0
62 182 302 0
-62 -182 0
-62 -302 0
-182 -302 0
63 183 303 0
-63 -183 0
-63 -303 0
-183 -303 0
64 184 304 0
-64 -184 0
-64 -304 0
-184 -304 0
65 185 305 0
-65 -185 0
-65 -305 0
-185 -305 0
66 186 306 0
-66 -186 0
-66 -306 0
-186 -306 0
67 187 307 0
-67 -187 0
-67 -307 0
-187 -307 0
68 188 308 0
-68 -188 0
-68 -308 0
-188 -308 0
69 189 309 0
-69 -189 0
-69 -309 0
-189 -309 0
70 190 310 0
-70 -190 0
-70 -310 0
-190 -310 0
71 191 311 0
-71 -191 0
-71 -311 0
-191 -311 0
72 192 312 0
-72 -192 0
-72 -312 0
-192 -312 0
73 193 313 0
-73 -193 0
-73 -313 0
-193 -313 0
74 194 314 0
-74 -194 0
-74 -314 0
-194 -314 0
75 195 315 0
-75 -195 0
-75 -315 0
-195 -315 0
76 196 316 0
-76 -196 0
-76 -316 0
-196 -316 0
77 197 317 0
-77 -197 0
-77 -317 0
-197 -317 0
78 198 318 0
-78 -198 0
-78 -318 0
-198 -318 0
79 199 319 0
-79 -199 0
-79 -319 0
-199 -319 0
80 200 320 0
-80 -200 0
-80 -320 0
-200 -320 0
81 201 321 0
-81 -201 0
-81 -321 0
-201 -321 0
82 202 322 0
-82 -202 0
-82 -322 0
-202 -322 0
83 203 323 0
-83 -203 0
-83 -323 0
-203 -323 0
84 204 324 0
-84 -204 0
-84 -324 0
-204 -324 0
85 205 325 0
-85 -205 0
-85 -325 0
-205 -325 0
86 206 326 0
-86 -206 0
-86 -326 0
-206 -326 0
87 207 327 0
-87 -207 0
-87 -327 0
-207 -327 0
88 208 328 0
-88 -208 0
-88 -328 0
-208 -328 0
89 209 329 0
-89 -209 0
-89 -329 0
-209 -329 0
90 210 330 0
-90 -210 0
-90 -330 0
-210 -330 0
91 211 331 0
-91 -211 0
-91 -331 0
-211 -331 0
92 212 332 0
-92 -212 0
-92 -332 0
-212 -332 0
93 213 333 0
-93 -213 0
-93 -333 0
-213 -333 0
94 214 334 0
-94 -214 0
-94 -334 0
-214 -334 0
95 215 335 0
-95 -215 0
-95 -335 0
-215 -335 0
96 216 336 0
-96 -216 0
-96 -336 0
-216 -336 0
97 217 337 0
-97 -217 0
-97 -337 0
-217 -337 0
98 218 338 0
-98 -218 0
-98 -338 0
-218 -338 0
99 219 339 0
-99 -219 0
-99 -339 0
-219 -339 0
100 220 340 0
-100 -220 0
-100 -340 0
-220 -340 0
101 221 341 0
-101 -221 0
-101 -341 0
-221 -341 0
102 222 342 0
-102 -222 0
-102 -342 0
-222 -342 0
103 223 343 0
-103 -223 0
-103 -343 0
-223 -343 0
104 224 344 0
-104 -224 0
-104 -344 0
-224 -344 0
105 225 345 0
-105 -225 0
-105 -345 0
-225 -345 0
106 226 346 0
-106 -226 0
-106 -346 0
-226 -346 0
107 227 347 0
-107 -227 0
-107 -347 0
-227 -347 0
108 228 348 0
-108 -228 0
-108 -348 0
-228 -348 0
109 229 349 0
-109 -229 0
-109 -349 0
-229 -349 0
110 230 350 0
-110 -230 0
-110 -350 0
-230 -350 0
111 231 351 0
-111 -231 0
-111 -351 0
-231 -351 0
112 232 352 0
-112 -232 0
-112 -352 0
-232 -352 0
113 233 353 0
-113 -233 0
-113 -353 0
-233 -353 0
114 234 354 0
-114 -234 0
-114 -354 0
-234 -354 0
115 235 355 0
-115 -235 0
-115 -355 0
-235 -355 0
116 236 356 0
-116 -236 0
-116 -356 0
-236 -356 0
117 237 357 0
-117 -237 0
-117 -357 0
-237 -357 0
118 238 358 0
-118 -238 0
-118 -358 0
-238 -358 0
119 239 359 0
-119 -239 0
-119 -359 0
-239 -359 0
120 240 360 0
-120 -240 0
-120 -360 0
-240 -360 0
121 241 361 0
-121 -241 0
-121 -361 0
-241 -361 0
-278 -250 -3 -242 0
-278 -250 -3 -2 0
-278 -250 -123 -242 0
-278 -250 -123 -2 0
-278 -10 -243 -242 0
-278 -10 -243 -2 0
-278 -10 -243 -122 0
-278 -10 -3 -242 0
-278 -10 -3 -2 0
-278 -10 -3 -122 0
-278 -10 -123 -242 0
-278 -10 -123 -2 0
-278 -130 -243 -242 0
-278 -130 -243 -2 0
-278 -130 -243 -122 0
-278 -130 -3 -242 0
-278 -130 -3 -2 0
-278 -130 -3 -122 0
-278 -130 -123 -242 0
-278 -130 -123 -2 0
-38 -250 -243 -2 0
-38 -250 -243 -122 0
-38 -250 -3 -242 0
-38 -250 -3 -2 0
-38 -250 -3 -122 0
-38 -250 -123 -242 0
-38 -250 -123 -2 0
-38 -250 -123 -122 0
-38 -10 -243 -242 0
-38 -10 -243 -2 0
-38 -10 -243 -122 0
-38 -10 -3 -242 0
-38 -10 -3 -122 0
-38 -10 -123 -242 0
-38 -10 -123 -2 0
-38 -10 -123 -122 0
-38 -130 -243 -242 0
-38 -130 -243 -2 0
-38 -130 -243 -122 0
-38 -130 -3 -242 0
-38 -130 -3 -2 0
-38 -130 -3 -122 0
-38 -130 -123 -242 0
-38 -130 -123 -2 0
-158 -250 -243 -2 0
-158 -250 -243 -122 0
-158 -250 -3 -242 0
-158 -250 -3 -2 0
-158 -250 -3 -122 0
-158 -250 -123 -242 0
-158 -250 -123 -2 0
-158 -250 -123 -122 0
-158 -10 -243 -2 0
-158 -10 -243 -122 0
-158 -10 -3 -242 0
-158 -10 -3 -2 0
-158 -10 -3 -122 0
-158 -10 -123 -242 0
-158 -10 -123 -2 0
-158 -10 -123 -122 0
-158 -130 -243 -2 0
-158 -130 -243 -122 0
-158 -130 -3 -2 0
-158 -130 -3 -122 0
-279 -251 -4 -242 0
-279 -251 -4 -2 0
-279 -251 -124 -242 0
-279 -251 -124 -2 0
-279 -11 -244 -242 0
-279 -11 -244 -2 0
-279 -11 -244 -122 0
-279 -11 -4 -242 0
-279 -11 -4 -2 0
-279 -11 -4 -122 0
-279 -11 -124 -242 0
-279 -11 -124 -2 0
-279 -131 -244 -242 0
-279 -131 -244 -2 0
-279 -131 -244 -122 0
-279 -131 -4 -242 0
-279 -131 -4 -2 0
-279 -131 -4 -122 0
-279 -131 -124 -242 0
-279 -131 -124 -2 0
-39 -251 -244 -2 0
-39 -251 -244 -122 0
-39 -251 -4 -242 0
-39 -251 -4 -2 0
-39 -251 -4 -122 0
-39 -251 -124 -242 0
-39 -251 -124 -2 0
-39 -251 -124 -122 0
-39 -11 -244 -242 0
-39 -11 -244 -2 0
-39 -11 -244 -122 0
-39 -11 -4 -242 0
-39 -11 -4 -122 0
-39 -11 -124 -242 0
-39 -11 -124 -2 0
-39 -11 -124 -122 0
-39 -131 -244 -242 0
-39 -131 -244 -2 0
-39 -131 -244 -122 0
-39 -131 -4 -242 0
-39 -131 -4 -2 0
-39 -131 -4 -122 0
-39 -131 -124 -242 0
-39 -131 -124 -2 0
-159 -251 -244 -2 0
-159 -251 -244 -122 0
-159 -251 -4 -242 0
-159 -251 -4 -2 0
-159 -251 -4 -122 0
-159 -251 -124 -242 0
-159 -251 -124 -2 0
-159 -251 -124 -122 0
-159 -11 -244 -2 0
-159 -11 -244 -122 0
-159 -11 -4 -242 0
-159 -11 -4 -2 0
-159 -11 -4 -122 0
-159 -11 -124 -242 0
-159 -11 -124 -2 0
-159 -11 -124 -122 0
-159 -131 -244 -2 0
-159 -131 -244 -122 0
-159 -131 -4 -2 0
-159 -131 -4 -122 0
-280 -252 -5 -242 0
-280 -252 -5 -2 0
-280 -252 -125 -242 0
-280 -252 -125 -2 0
-280 -12 -245 -242 0
-280 -12 -245 -2 0
-280 -12 -245 -122 0
-280 -12 -5 -242 0
-280 -12 -5 -2 0
-280 -12 -5 -122 0
-280 -12 -125 -242 0
-280 -12 -125 -2 0
-280 -132 -245 -242 0
-280 -132 -245 -2 0
-280 -132 -245 -122 0
-280 -132 -5 -242 0
-280 -132 -5 -2 0
-280 -132 -5 -122 0
-280 -132 -125 -242 0
-280 -132 -125 -2 0
-40 -252 -245 -2 0
-40 -252 -245 -122 0
-40 -252 -5 -242 0
-40 -252 -5 -2 0
-40 -252 -5 -122 0
-40 -252 -125 -242 0
-40 -252 -125 -2 0
-40 -252 -125 -122 0
-40 -12 -245 -242 0
-40 -12 -245 -2 0
-40 -12 -245 -122 0
-40 -12 -5 -242 0
-40 -12 -5 -122 0
-40 -12 -125 -242 0
-40 -12 -125 -2 0
-40 -12 -125 -122 0
-40 -132 -245 -242 0
-40 -132 -245 -2 0
-40 -132 -245 -122 0
-40 -132 -5 -242 0
-40 -132 -5 -2 0
-40 -132 -5 -122 0
-40 -132 -125 -242 0
-40 -132 -125 -2 0
-160 -252 -245 -2 0
-160 -252 -245 -122 0
-160 -252 -5 -242 0
-160 -252 -5 -2 0
-160 -252 -5 -122 0
-160 -252 -125 -242 0
-160 -252 -125 -2 0
-160 -252 -125 -122 0
-160 -12 -245 -2 0
-160 -12 -245 -122 0
-160 -12 -5 -242 0
-160 -12 -5 -2 0
-160 -12 -5 -122 0
-160 -12 -125 -242 0
-160 -12 -125 -2 0
-160 -12 -125 -122 0
-160 -132 -245 -2 0
-160 -132 -245 -122 0
-160 -132 -5 -2 0
-160 -132 -5 -122 0
-281 -253 -6 -242 0
-281 -253 -6 -2 0
-281 -253 -126 -242 0
-281 -253 -126 -2 0
-281 -13 -246 -242 0
-281 -13 -246 -2 0
-281 -13 -246 -122 0
-281 -13 -6 -242 0
-281 -13 -6 -2 0
-281 -13 -6 -122 0
-281 -13 -126 -242 0
-281 -13 -126 -2 0
-281 -133 -246 -242 0
-281 -133 -246 -2 0
-281 -133 -246 -122 0
-281 -133 -6 -242 0
-281 -133 -6 -2 0
-281 -133 -6 -122 0
-281 -133 -126 -242 0
-281 -133 -126 -2 0
-41 -253 -246 -2 0
-41 -253 -246 -122 0
-41 -253 -6 -242 0
-41 -253 -6 -2 0
-41 -253 -6 -122 0
-41 -253 -126 -242 0
-41 -253 -126 -2 0
-41 -253 -126 -122 0
-41 -13 -246 -242 0
-41 -13 -246 -2 0
-41 -13 -246 -122 0
-41 -13 -6 -242 0
-41 -13 -6 -122 0
-41 -13 -126 -242 0
-41 -13 -126 -2 0
-41 -13 -126 -122 0
-41 -133 -246 -242 0
-41 -133 -246 -2 0
-41 -133 -246 -122 0
-41 -133 -6 -242 0
-41 -133 -6 -2 0
-41 -133 -6 -122 0
-41 -133 -126 -242 0
-41 -133 -126 -2 0
-161 -253 -246 -2 0
-161 -253 -246 -122 0
-161 -253 -6 -242 0
-161 -253 -6 -2 0
-161 -253 -6 -122 0
-161 -253 -126 -242 0
-161 -253 -126 -2 0
-161 -253 -126 -122 0
-161 -13 -246 -2 0
-161 -13 -246 -122 0
-161 -13 -6 -242 0
-161 -13 -6 -2 0
-161 -13 -6 -122 0
-161 -13 -126 -242 0
-161 -13 -126 -2 0
-161 -13 -126 -122 0
-161 -133 -246 -2 0
-161 -133 -246 -122 0
-161 -133 -6 -2 0
-161 -133 -6 -122 0
-282 -254 -7 -242 0
-282 -254 -7 -2 0
-282 -254 -127 -242 0
-282 -254 -127 -2 0
-282 -14 -247 -242 0
-282 -14 -247 -2 0
-282 -14 -247 -122 0
-282 -14 -7 -242 0
-282 -14 -7 -2 0
-282 -14 -7 -122 0
-282 -14 -127 -242 0
-282 -14 -127 -2 0
-282 -134 -247 -242 0
-282 -134 -247 -2 0
-282 -134 -247 -122 0
-282 -134 -7 -242 0
-282 -134 -7 -2 0
-282 -134 -7 -122 0
-282 -134 -127 -242 0
-282 -134 -127 -2 0
-42 -254 -247 -2 0
-42 -254 -247 -122 0
-42 -254 -7 -242 0
-42 -254 -7 -2 0
-42 -254 -7 -122 0
-42 -254 -127 -242 0
-42 -254 -127 -2 0
-42 -254 -127 -122 0
-42 -14 -247 -242 0
-42 -14 -247 -2 0
-42 -14 -247 -122 0
-42 -14 -7 -242 0
-42 -14 -7 -122 0
-42 -14 -127 -242 0
-42 -14 -127 -2 0
-42 -14 -127 -122 0
-42 -134 -247 -242 0
-42 -134 -247 -2 0
-42 -134 -247 -122 0
-42 -134 -7 -242 0
-42 -134 -7 -2 0
-42 -134 -7 -122 0
-42 -134 -127 -242 0
-42 -134 -127 -2 0
-162 -254 -247 -2 0
-162 -254 -247 -122 0
-162 -254 -7 -242 0
-162 -254 -7 -2 0
-162 -254 -7 -122 0
-162 -254 -127 -242 0
-162 -254 -127 -2 0
-162 -254 -127 -122 0
-162 -14 -247 -2 0
-162 -14 -247 -122 0
-162 -14 -7 -242 0
-162 -14 -7 -2 0
-162 -14 -7 -122 0
-162 -14 -127 -242 0
-162 -14 -127 -2 0
-162 -14 -127 -122 0
-162 -134 -247 -2 0
-162 -134 -247 -122 0
-162 -134 -7 -2 0
-162 -134 -7 -122 0
-283 -255 -8 -242 0
-283 -255 -8 -2 0
-283 -255 -128 -242 0
-283 -255 -128 -2 0
-283 -15 -248 -242 0
-283 -15 -248 -2 0
-283 -15 -248 -122 0
-283 -15 -8 -242 0
-283 -15 -8 -2 0
-283 -15 -8 -122 0
-283 -15 -128 -242 0
-283 -15 -128 -2 0
-283 -135 -248 -242 0
-283 -135 -248 -2 0
-283 -135 -248 -122 0
-283 -135 -8 -242 0
-283 -135 -8 -2 0
-283 -135 -8 -122 0
-283 -135 -128 -242 0
-283 -135 -128 -2 0
-43 -255 -248 -2 0
-43 -255 -248 -122 0
-43 -255 -8 -242 0
-43 -255 -8 -2 0
-43 -255 -8 -122 0
-43 -255 -128 -242 0
-43 -255 -128 -2 0
-43 -255 -128 -122 0
-43 -15 -248 -242 0
-43 -15 -248 -2 0
-43 -15 -248 -122 0
-43 -15 -8 -242 0
-43 -15 -8 -122 0
-43 -15 -128 -242 0
-43 -15 -128 -2 0
-43 -15 -128 -122 0
-43 -135 -248 -242 0
-43 -135 -248 -2 0
-43 -135 -248 -122 0
-43 -135 -8 -242 0
-43 -135 -8 -2 0
-43 -135 -8 -122 0
-43 -135 -128 -242 0
-43 -135 -128 -2 0
-163 -255 -248 -2 0
-163 -255 -248 -122 0
-163 -255 -8 -242 0
-163 -255 -8 -2 0
-163 -255 -8 -122 0
-163 -255 -128 -242 0
-163 -255 -128 -2 0
-163 -255 -128 -122 0
-163 -15 -248 -2 0
-163 -15 -248 -122 0
-163 -15 -8 -242 0
-163 -15 -8 -2 0
-163 -15 -8 -122 0
-163 -15 -128 -242 0
-163 -15 -128 -2 0
-163 -15 -128 -122 0
-163 -135 -248 -2 0
-163 -135 -248 -122 0
-163 -135 -8 -2 0
-163 -135 -8 -122 0
-284 -256 -9 -242 0
-284 -256 -9 -2 0
-284 -256 -129 -242 0
-284 -256 -129 -2 0
-284 -16 -249 -242 0
-284 -16 -249 -2 0
-284 -16 -249 -122 0
-284 -16 -9 -242 0
-284 -16 -9 -2 0
-284 -16 -9 -122 0
-284 -16 -129 -242 0
-284 -16 -129 -2 0
-284 -136 -249 -242 0
-284 -136 -249 -2 0
-284 -136 -249 -122 0
-284 -136 -9 -242 0
-284 -136 -9 -2 0
-284 -136 -9 -122 0
-284 -136 -129 -242 0
-284 -136 -129 -2 0
-44 -256 -249 -2 0
-44 -256 -249 -122 0
-44 -256 -9 -242 0
-44 -256 -9 -2 0
-44 -256 -9 -122 0
-44 -256 -129 -242 0
-44 -256 -129 -2 0
-44 -256 -129 -122 0
-44 -16 -249 -242 0
-44 -16 -249 -2 0
-44 -16 -249 -122 0
-44 -16 -9 -242 0
-44 -16 -9 -122 0
-44 -16 -129 -242 0
-44 -16 -129 -2 0
-44 -16 -129 -122 0
-44 -136 -249 -242 0
-44 -136 -249 -2 0
-44 -136 -249 -122 0
-44 -136 -9 -242 0
-44 -136 -9 -2 0
-44 -136 -9 -122 0
-44 -136 -129 -242 0
-44 -136 -129 -2 0
-164 -256 -249 -2 0
-164 -256 -249 -122 0
-164 -256 -9 -242 0
-164 -256 -9 -2 0
-164 -256 -9 -122 0
-164 -256 -129 -242 0
-164 -256 -129 -2 0
-164 -256 -129 -122 0
-164 -16 -249 -2 0
-164 -16 -249 -122 0
-164 -16 -9 -242 0
-164 -16 -9 -2 0
-164 -16 -9 -122 0
-164 -16 -129 -242 0
-164 -16 -129 -2 0
-164 -16 -129 -122 0
-164 -136 -249 -2 0
-164 -136 -249 -122 0
-164 -136 -9 -2 0
-164 -136 -9 -122 0
-285 -257 -4 -243 0
-285 -257 -4 -3 0
-285 -257 -124 -243 0
-285 -257 -124 -3 0
-285 -17 -244 -243 0
-285 -17 -244 -3 0
-285 -17 -244 -123 0
-285 -17 -4 -243 0
-285 -17 -4 -3 0
-285 -17 -4 -123 0
-285 -17 -124 -243 0
-285 -17 -124 -3 0
-285 -137 -244 -243 0
-285 -137 -244 -3 0
-285 -137 -244 -123 0
-285 -137 -4 -243 0
-285 -137 -4 -3 0
-285 -137 -4 -123 0
-285 -137 -124 -243 0
-285 -137 -124 -3 0
-45 -257 -244 -3 0
-45 -257 -244 -123 0
-45 -257 -4 -243 0
-45 -257 -4 -3 0
-45 -257 -4 -123 0
-45 -257 -124 -243 0
-45 -257 -124 -3 0
-45 -257 -124 -123 0
-45 -17 -244 -243 0
-45 -17 -244 -3 0
-45 -17 -244 -123 0
-45 -17 -4 -243 0
-45 -17 -4 -123 0
-45 -17 -124 -243 0
-45 -17 -124 -3 0
-45 -17 -124 -123 0
-45 -137 -244 -243 0
-45 -137 -244 -3 0
-45 -137 -244 -123 0
-45 -137 -4 -243 0
-45 -137 -4 -3 0
-45 -137 -4 -123 0
-45 -137 -124 -243 0
-45 -137 -124 -3 0
-165 -257 -244 -3 0
-165 -257 -244 -123 0
-165 -257 -4 -243 0
-165 -257 -4 -3 0
-165 -257 -4 -123 0
-165 -257 -124 -243 0
-165 -257 -124 -3 0
-165 -257 -124 -123 0
-165 -17 -244 -3 0
-165 -17 -244 -123 0
-165 -17 -4 -243 0
-165 -17 -4 -3 0
-165 -17 -4 -123 0
-165 -17 -124 -243 0
-165 -17 -124 -3 0
-165 -17 -124 -123 0
-165 -137 -244 -3 0
-165 -137 -244 -123 0
-165 -137 -4 -3 0
-165 -137 -4 -123 0
-286 -258 -5 -243 0
-286 -258 -5 -3 0
-286 -258 -125 -243 0
-286 -258 -125 -3 0
-286 -18 -245 -243 0
-286 -18 -245 -3 0
-286 -18 -245 -123 0
-286 -18 -5 -243 0
-286 -18 -5 -3 0
-286 -18 -5 -123 0
-286 -18 -125 -243 0
-286 -18 -125 -3 0
-286 -138 -245 -243 0
-286 -138 -245 -3 0
-286 -138 -245 -123 0
-286 -138 -5 -243 0
-286 -138 -5 -3 0
-286 -138 -5 -123 0
-286 -138 -125 -243 0
-286 -138 -125 -3 0
-46 -258 -245 -3 0
-46 -258 -245 -123 0
-46 -258 -5 -243 0
-46 -258 -5 -3 0
-46 -258 -5 -123 0
-46 -258 -125 -243 0
-46 -258 -125 -3 0
-46 -258 -125 -123 0
-46 -18 -245 -243 0
-46 -18 -245 -3 0
-46 -18 -245 -123 0
-46 -18 -5 -243 0
-46 -18 -5 -123 0
-46 -18 -125 -243 0
-46 -18 -125 -3 0
-46 -18 -125 -123 0
-46 -138 -245 -243 0
-46 -138 -245 -3 0
-46 -138 -245 -123 0
-46 -138 -5 -243 0
-46 -138 -5 -3 0
-46 -138 -5 -123 0
-46 -138 -125 -243 0
-46 -138 -125 -3 0
-166 -258 -245 -3 0
-166 -258 -245 -123 0
-166 -258 -5 -243 0
-166 -258 -5 -3 0
-166 -258 -5 -123 0
-166 -258 -125 -243 0
-166 -258 -125 -3 0
-166 -258 -125 -123 0
-166 -18 -245 -3 0
-166 -18 -245 -123 0
-166 -18 -5 -243 0
-166 -18 -5 -3 0
-166 -18 -5 -123 0
-166 -18 -125 -243 0
-166 -18 -125 -3 0
-166 -18 -125 -123 0
-166 -138 -245 -3 0
-166 -138 -245 -123 0
-166 -138 -5 -3 0
-166 -138 -5 -123 0
-287 -259 -6 -243 0
-287 -259 -6 -3 0
-287 -259 -126 -243 0
-287 -259 -126 -3 0
-287 -19 -246 -243 0
-287 -19 -246 -3 0
-287 -19 -246 -123 0
-287 -19 -6 -243 0
-287 -19 -6 -3 0
-287 -19 -6 -123 0
-287 -19 -126 -243 0
-287 -19 -126 -3 0
-287 -139 -246 -243 0
-287 -139 -246 -3 0
-287 -139 -246 -123 0
-287 -139 -6 -243 0
-287 -139 -6 -3 0
-287 -139 -6 -123 0
-287 -139 -126 -243 0
-287 -139 -126 -3 0
-47 -259 -246 -3 0
-47 -259 -246 -123 0
-47 -259 -6 -243 0
-47 -259 -6 -3 0
-47 -259 -6 -123 0
-47 -259 -126 -243 0
-47 -259 -126 -3 0
-47 -259 -126 -123 0
-47 -19 -246 -243 0
-47 -19 -246 -3 0
-47 -19 -246 -123 0
-47 -19 -6 -243 0
-47 -19 -6 -123 0
-47 -19 -126 -243 0
-47 -19 -126 -3 0
-47 -19 -126 -123 0
-47 -139 -246 -243 0
-47 -139 -246 -3 0
-47 -139 -246 -123 0
-47 -139 -6 -243 0
-47 -139 -6 -3 0
-47 -139 -6 -123 0
-47 -139 -126 -243 0
-47 -139 -126 -3 0
-167 -259 -246 -3 0
-167 -259 -246 -123 0
-167 -259 -6 -243 0
-167 -259 -6 -3 0
-167 -259 -6 -123 0
-167 -259 -126 -243 0
-167 -259 -126 -3 0
-167 -259 -126 -123 0
-167 -19 -246 -3 0
-167 -19 -246 -123 0
-167 -19 -6 -243 0
-167 -19 -6 -3 0
-167 -19 -6 -123 0
-167 -19 -126 -243 0
-167 -19 -126 -3 0
-167 -19 -126 -123 0
-167 -139 -246 -3 0
-167 -139 -246 -123 0
-167 -139 -6 -3 0
-167 -139 -6 -123 0
-288 -260 -7 -243 0
-288 -260 -7 -3 0
-288 -260 -127 -243 0
-288 -260 -127 -3 0
-288 -20 -247 -243 0
-288 -20 -247 -3 0
-288 -20 -247 -123 0
-288 -20 -7 -243 0
-288 -20 -7 -3 0
-288 -20 -7 -123 0
-288 -20 -127 -243 0
-288 -20 -127 -3 0
-288 -140 -247 -243 0
-288 -140 -247 -3 0
-288 -140 -247 -123 0
-288 -140 -7 -243 0
-288 -140 -7 -3 0
-288 -140 -7 -123 0
-288 -140 -127 -243 0
-288 -140 -127 -3 0
-48 -260 -247 -3 0
-48 -260 -247 -123 0
-48 -260 -7 -243 0
-48 -260 -7 -3 0
-48 -260 -7 -123 0
-48 -260 -127 -243 0
-48 -260 -127 -3 0
-48 -260 -127 -123 0
-48 -20 -247 -243 0
-48 -20 -247 -3 0
-48 -20 -247 -123 0
-48 -20 -7 -243 0
-48 -20 -7 -123 0
-48 -20 -127 -243 0
-48 -20 -127 -3 0
-48 -20 -127 -123 0
-48 -140 -247 -243 0
-48 -140 -247 -3 0
-48 -140 -247 -123 0
-48 -140 -7 -243 0
-48 -140 -7 -3 0
-48 -140 -7 -123 0
-48 -140 -127 -243 0
-48 -140 -127 -3 0
-168 -260 -247 -3 0
-168 -260 -247 -123 0
-168 -260 -7 -243 0
-168 -260 -7 -3 0
-168 -260 -7 -123 0
-168 -260 -127 -243 0
-168 -260 -127 -3 0
-168 -260 -127 -123 0
-168 -20 -247 -3 0
-168 -20 -247 -123 0
-168 -20 -7 -243 0
-168 -20 -7 -3 0
-168 -20 -7 -123 0
-168 -20 -127 -243 0
-168 -20 -127 -3 0
-168 -20 -127 -123 0
-168 -140 -247 -3 0
-168 -140 -247 -123 0
-168 -140 -7 -3 0
-168 -140 -7 -123 0
-289 -261 -8 -243 0
-289 -261 -8 -3 0
-289 -261 -128 -243 0
-289 -261 -128 -3 0
-289 -21 -248 -243 0
-289 -21 -248 -3 0
-289 -21 -248 -123 0
-289 -21 -8 -243 0
-289 -21 -8 -3 0
-289 -21 -8 -123 0
-289 -21 -128 -243 0
-289 -21 -128 -3 0
-289 -141 -248 -243 0
-289 -141 -248 -3 0
-289 -141 -248 -123 0
-289 -141 -8 -243 0
-289 -141 -8 -3 0
-289 -141 -8 -123 0
-289 -141 -128 -243 0
-289 -141 -128 -3 0
-49 -261 -248 -3 0
-49 -261 -248 -123 0
-49 -261 -8 -243 0
-49 -261 -8 -3 0
-49 -261 -8 -123 0
-49 -261 -128 -243 0
-49 -261 -128 -3 0
-49 -261 -128 -123 0
-49 -21 -248 -243 0
-49 -21 -248 -3 0
-49 -21 -248 -123 0
-49 -21 -8 -243 0
-49 -21 -8 -123 0
-49 -21 -128 -243 0
-49 -21 -128 -3 0
-49 -21 -128 -123 0
-49 -141 -248 -243 0
-49 -141 -248 -3 0
-49 -141 -248 -123 0
-49 -141 -8 -243 0
-49 -141 -8 -3 0
-49 -141 -8 -123 0
-49 -141 -128 -243 0
-49 -141 -128 -3 0
-169 -261 -248 -3 0
-169 -261 -248 -123 0
-169 -261 -8 -243 0
-169 -261 -8 -3 0
-169 -261 -8 -123 0
-169 -261 -128 -243 0
-169 -261 -128 -3 0
-169 -261 -128 -123 0
-169 -21 -248 -3 0
-169 -21 -248 -123 0
-169 -21 -8 -243 0
-169 -21 -8 -3 0
-169 -21 -8 -123 0
-169 -21 -128 -243 0
-169 -21 -128 -3 0
-169 -21 -128 -123 0
-169 -141 -248 -3 0
-169 -141 -248 -123 0
-169 -141 -8 -3 0
-169 -141 -8 -123 0
-290 -262 -9 -243 0
-290 -262 -9 -3 0
-290 -262 -129 -243 0
-290 -262 -129 -3 0
-290 -22 -249 -243 0
-290 -22 -249 -3 0
-290 -22 -249 -123 0
-290 -22 -9 -243 0
-290 -22 -9 -3 0
-290 -22 -9 -123 0
-290 -22 -129 -243 0
-290 -22 -129 -3 0
-290 -142 -249 -243 0
-290 -142 -249 -3 0
-290 -142 -249 -123 0
-290 -142 -9 -243 0
-290 -142 -9 -3 0
-290 -142 -9 -123 0
-290 -142 -129 -243 0
-290 -142 -129 -3 0
-50 -262 -249 -3 0
-50 -262 -249 -123 0
-50 -262 -9 -243 0
-50 -262 -9 -3 0
-50 -262 -9 -123 0
-50 -262 -129 -243 0
-50 -262 -129 -3 0
-50 -262 -129 -123 0
-50 -22 -249 -243 0
-50 -22 -249 -3 0
-50 -22 -249 -123 0
-50 -22 -9 -243 0
-50 -22 -9 -123 0
-50 -22 -129 -243 0
-50 -22 -129 -3 0
-50 -22 -129 -123 0
-50 -142 -249 -243 0
-50 -142 -249 -3 0
-50 -142 -249 -123 0
-50 -142 -9 -243 0
-50 -142 -9 -3 0
-50 -142 -9 -123 0
-50 -142 -129 -243 0
-50 -142 -129 -3 0
-170 -262 -249 -3 0
-170 -262 -249 -123 0
-170 -262 -9 -243 0
-170 -262 -9 -3 0
-170 -262 -9 -123 0
-170 -262 -129 -243 0
-170 -262 -129 -3 0
-170 -262 -129 -123 0
-170 -22 -249 -3 0
-170 -22 -249 -123 0
-170 -22 -9 -243 0
-170 -22 -9 -3 0
-170 -22 -9 -123 0
-170 -22 -129 -243 0
-170 -22 -129 -3 0
-170 -22 -129 -123 0
-170 -142 -249 -3 0
-170 -142 -249 -123 0
-170 -142 -9 -3 0
-170 -142 -9 -123 0
-291 -263 -5 -244 0
-291 -263 -5 -4 0
-291 -263 -125 -244 0
-291 -263 -125 -4 0
-291 -23 -245 -244 0
-291 -23 -245 -4 0
-291 -23 -245 -124 0
-291 -23 -5 -244 0
-291 -23 -5 -4 0
-291 -23 -5 -124 0
-291 -23 -125 -244 0
-291 -23 -125 -4 0
-291 -143 -245 -244 0
-291 -143 -245 -4 0
-291 -143 -245 -124 0
-291 -143 -5 -244 0
-291 -143 -5 -4 0
-291 -143 -5 -124 0
-291 -143 -125 -244 0
-291 -143 -125 -4 0
-51 -263 -245 -4 0
-51 -263 -245 -124 0
-51 -263 -5 -244 0
-51 -263 -5 -4 0
-51 -263 -5 -124 0
-51 -263 -125 -244 0
-51 -263 -125 -4 0
-51 -263 -125 -124 0
-51 -23 -245 -244 0
-51 -23 -245 -4 0
-51 -23 -245 -124 0
-51 -23 -5 -244 0
-51 -23 -5 -124 0
-51 -23 -125 -244 0
-51 -23 -125 -4 0
-51 -23 -125 -124 0
-51 -143 -245 -244 0
-51 -143 -245 -4 0
-51 -143 -245 -124 0
-51 -143 -5 -244 0
-51 -143 -5 -4 0
-51 -143 -5 -124 0
-51 -143 -125 -244 0
-51 -143 -125 -4 0
-171 -263 -245 -4 0
-171 -263 -245 -124 0
-171 -263 -5 -244 0
-171 -263 -5 -4 0
-171 -263 -5 -124 0
-171 -263 -125 -244 0
-171 -263 -125 -4 0
-171 -263 -125 -124 0
-171 -23 -245 -4 0
-171 -23 -245 -124 0
-171 -23 -5 -244 0
-171 -23 -5 -4 0
-171 -23 -5 -124 0
-171 -23 -125 -244 0
-171 -23 -125 -4 0
-171 -23 -125 -124 0
-171 -143 -245 -4 0
-171 -143 -245 -124 0
-171 -143 -5 -4 0
-171 -143 -5 -124 0
-292 -264 -6 -244 0
-292 -264 -6 -4 0
-292 -264 -126 -244 0
-292 -264 -126 -4 0
-292 -24 -246 -244 0
-292 -24 -246 -4 0
-292 -24 -246 -124 0
-292 -24 -6 -244 0
-292 -24 -6 -4 0
-292 -24 -6 -124 0
-292 -24 -126 -244 0
-292 -24 -126 -4 0
-292 -144 -246 -244 0
-292 -144 -246 -4 0
-292 -144 -246 -124 0
-292 -144 -6 -244 0
-292 -144 -6 -4 0
-292 -144 -6 -124 0
-292 -144 -126 -244 0
-292 -144 -126 -4 0
-52 -264 -246 -4 0
-52 -264 -246 -124 0
-52 -264 -6 -244 0
-52 -264 -6 -4 0
-52 -264 -6 -124 0
-52 -264 -126 -244 0
-52 -264 -126 -4 0
-52 -264 -126 -124 0
-52 -24 -246 -244 0
-52 -24 -246 -4 0
-52 -24 -246 -124 0
-52 -24 -6 -244 0
-52 -24 -6 -124 0
-52 -24 -126 -244 0
-52 -24 -126 -4 0
-52 -24 -126 -124 0
-52 -144 -246 -244 0
-52 -144 -246 -4 0
-52 -144 -246 -124 0
-52 -144 -6 -244 0
-52 -144 -6 -4 0
-52 -144 -6 -124 0
-52 -144 -126 -244 0
-52 -144 -126 -4 0
-172 -264 -246 -4 0
-172 -264 -246 -124 0
-172 -264 -6 -244 0
-172 -264 -6 -4 0
-172 -264 -6 -124 0
-172 -264 -126 -244 0
-172 -264 -126 -4 0
-172 -264 -126 -124 0
-172 -24 -246 -4 0
-172 -24 -246 -124 0
-172 -24 -6 -244 0
-172 -24 -6 -4 0
-172 -24 -6 -124 0
-172 -24 -126 -244 0
-172 -24 -126 -4 0
-172 -24 -126 -124 0
-172 -144 -246 -4 0
-172 -144 -246 -124 0
-172 -144 -6 -4 0
-172 -144 -6 -124 0
-293 -265 -7 -244 0
-293 -265 -7 -4 0
-293 -265 -127 -244 0
-293 -265 -127 -4 0
-293 -25 -247 -244 0
-293 -25 -247 -4 0
-293 -25 -247 -124 0
-293 -25 -7 -244 0
-293 -25 -7 -4 0
-293 -25 -7 -124 0
-293 -25 -127 -244 0
-293 -25 -127 -4 0
-293 -145 -247 -244 0
-293 -145 -247 -4 0
-293 -145 -247 -124 0
-293 -145 -7 -244 0
-293 -145 -7 -4 0
-293 -145 -7 -124 0
-293 -145 -127 -244 0
-293 -145 -127 -4 0
-53 -265 -247 -4 0
-53 -265 -247 -124 0
-53 -265 -7 -244 0
-53 -265 -7 -4 0
-53 -265 -7 -124 0
-53 -265 -127 -244 0
-53 -265 -127 -4 0
-53 -265 -127 -124 0
-53 -25 -247 -244 0
-53 -25 -247 -4 0
-53 -25 -247 -124 0
-53 -25 -7 -244 0
-53 -25 -7 -124 0
-53 -25 -127 -244 0
-53 -25 -127 -4 0
-53 -25 -127 -124 0
-53 -145 -247 -244 0
-53 -145 -247 -4 0
-53 -145 -247 -124 0
-53 -145 -7 -244 0
-53 -145 -7 -4 0
-53 -145 -7 -124 0
-53 -145 -127 -244 0
-53 -145 -127 -4 0
-173 -265 -247 -4 0
-173 -265 -247 -124 0
-173 -265 -7 -244 0
-173 -265 -7 -4 0
-173 -265 -7 -124 0
-173 -265 -127 -244 0
-173 -265 -127 -4 0
-173 -265 -127 -124 0
-173 -25 -247 -4 0
-173 -25 -247 -124 0
-173 -25 -7 -244 0
-173 -25 -7 -4 0
-173 -25 -7 -124 0
-173 -25 -127 -244 0
-173 -25 -127 -4 0
-173 -25 -127 -124 0
-173 -145 -247 -4 0
-173 -145 -247 -124 0
-173 -145 -7 -4 0
-173 -145 -7 -124 0
-294 -266 -8 -244 0
-294 -266 -8 -4 0
-294 -266 -128 -244 0
-294 -266 -128 -4 0
-294 -26 -248 -244 0
-294 -26 -248 -4 0
-294 -26 -248 -124 0
-294 -26 -8 -244 0
-294 -26 -8 -4 0
-294 -26 -8 -124 0
-294 -26 -128 -244 0
-294 -26 -128 -4 0
-294 -146 -248 -244 0
-294 -146 -248 -4 0
-294 -146 -248 -124 0
-294 -146 -8 -244 0
-294 -146 -8 -4 0
-294 -146 -8 -124 0
-294 -146 -128 -244 0
-294 -146 -128 -4 0
-54 -266 -248 -4 0
-54 -266 -248 -124 0
-54 -266 -8 -244 0
-54 -266 -8 -4 0
-54 -266 -8 -124 0
-54 -266 -128 -244 0
-54 -266 -128 -4 0
-54 -266 -128 -124 0
-54 -26 -248 -244 0
-54 -26 -248 -4 0
-54 -26 -248 -124 0
-54 -26 -8 -244 0
-54 -26 -8 -124 0
-54 -26 -128 -244 0
-54 -26 -128 -4 0
-54 -26 -128 -124 0
-54 -146 -248 -244 0
-54 -146 -248 -4 0
-54 -146 -248 -124 0
-54 -146 -8 -244 0
-54 -146 -8 -4 0
-54 -146 -8 -124 0
-54 -146 -128 -244 0
-54 -146 -128 -4 0
-174 -266 -248 -4 0
-174 -266 -248 -124 0
-174 -266 -8 -244 0
-174 -266 -8 -4 0
-174 -266 -8 -124 0
-174 -266 -128 -244 0
-174 -266 -128 -4 0
-174 -266 -128 -124 0
-174 -26 -248 -4 0
-174 -26 -248 -124 0
-174 -26 -8 -244 0
-174 -26 -8 -4 0
-174 -26 -8 -124 0
-174 -26 -128 -244 0
-174 -26 -128 -4 0
-174 -26 -128 -124 0
-174 -146 -248 -4 0
-174 -146 -248 -124 0
-174 -146 -8 -4 0
-174 -146 -8 -124 0
-295 -267 -9 -244 0
-295 -267 -9 -4 0
-295 -267 -129 -244 0
-295 -267 -129 -4 0
-295 -27 -249 -244 0
-295 -27 -249 -4 0
-295 -27 -249 -124 0
-295 -27 -9 -244 0
-295 -27 -9 -4 0
-295 -27 -9 -124 0
-295 -27 -129 -244 0
-295 -27 -129 -4 0
-295 -147 -249 -244 0
-295 -147 -249 -4 0
-295 -147 -249 -124 0
-295 -147 -9 -244 0
-295 -147 -9 -4 0
-295 -147 -9 -124 0
-295 -147 -129 -244 0
-295 -147 -129 -4 0
-55 -267 -249 -4 0
-55 -267 -249 -124 0
-55 -267 -9 -244 0
-55 -267 -9 -4 0
-55 -267 -9 -124 0
-55 -267 -129 -244 0
-55 -267 -129 -4 0
-55 -267 -129 -124 0
-55 -27 -249 -244 0
-55 -27 -249 -4 0
-55 -27 -249 -124 0
-55 -27 -9 -244 0
-55 -27 -9 -124 0
-55 -27 -129 -244 0
-55 -27 -129 -4 0
-55 -27 -129 -124 0
-55 -147 -249 -244 0
-55 -147 -249 -4 0
-55 -147 -249 -124 0
-55 -147 -9 -244 0
-55 -147 -9 -4 0
-55 -147 -9 -124 0
-55 -147 -129 -244 0
-55 -147 -129 -4 0
-175 -267 -249 -4 0
-175 -267 -249 -124 0
-175 -267 -9 -244 0
-175 -267 -9 -4 0
-175 -267 -9 -124 0
-175 -267 -129 -244 0
-175 -267 -129 -4 0
-175 -267 -129 -124 0
-175 -27 -249 -4 0
-175 -27 -249 -124 0
-175 -27 -9 -244 0
-175 -27 -9 -4 0
-175 -27 -9 -124 0
-175 -27 -129 -244 0
-175 -27 -129 -4 0
-175 -27 -129 -124 0
-175 -147 -249 -4 0
-175 -147 -249 -124 0
-175 -147 -9 -4 0
-175 -147 -9 -124 0
-296 -268 -6 -245 0
-296 -268 -6 -5 0
-296 -268 -126 -245 0
-296 -268 -126 -5 0
-296 -28 -246 -245 0
-296 -28 -246 -5 0
-296 -28 -246 -125 0
-296 -28 -6 -245 0
-296 -28 -6 -5 0
-296 -28 -6 -125 0
-296 -28 -126 -245 0
-296 -28 -126 -5 0
-296 -148 -246 -245 0
-296 -148 -246 -5 0
-296 -148 -246 -125 0
-296 -148 -6 -245 0
-296 -148 -6 -5 0
-296 -148 -6 -125 0
-296 -148 -126 -245 0
-296 -148 -126 -5 0
-56 -268 -246 -5 0
-56 -268 -246 -125 0
-56 -268 -6 -245 0
-56 -268 -6 -5 0
-56 -268 -6 -125 0
-56 -268 -126 -245 0
-56 -268 -126 -5 0
-56 -268 -126 -125 0
-56 -28 -246 -245 0
-56 -28 -246 -5 0
-56 -28 -246 -125 0
-56 -28 -6 -245 0
-56 -28 -6 -125 0
-56 -28 -126 -245 0
-56 -28 -126 -5 0
-56 -28 -126 -125 0
-56 -148 -246 -245 0
-56 -148 -246 -5 0
-56 -148 -246 -125 0
-56 -148 -6 -245 0
-56 -148 -6 -5 0
-56 -148 -6 -125 0
-56 -148 -126 -245 0
-56 -148 -126 -5 0
-176 -268 -246 -5 0
-176 -268 -246 -125 0
-176 -268 -6 -245 0
-176 -268 -6 -5 0
-176 -268 -6 -125 0
-176 -268 -126 -245 0
-176 -268 -126 -5 0
-176 -268 -126 -125 0
-176 -28 -246 -5 0
-176 -28 -246 -125 0
-176 -28 -6 -245 0
-176 -28 -6 -5 0
-176 -28 -6 -125 0
-176 -28 -126 -245 0
-176 -28 -126 -5 0
-176 -28 -126 -125 0
-176 -148 -246 -5 0
-176 -148 -246 -125 0
-176 -148 -6 -5 0
-176 -148 -6 -125 0
-297 -269 -7 -245 0
-297 -269 -7 -5 0
-297 -269 -127 -245 0
-297 -269 -127 -5 0
-297 -29 -247 -245 0
-297 -29 -247 -5 0
-297 -29 -247 -125 0
-297 -29 -7 -245 0
-297 -29 -7 -5 0
-297 -29 -7 -125 0
-297 -29 -127 -245 0
-297 -29 -127 -5 0
-297 -149 -247 -245 0
-297 -149 -247 -5 0
-297 -149 -247 -125 0
-297 -149 -7 -245 0
-297 -149 -7 -5 0
-297 -149 -7 -125 0
-297 -149 -127 -245 0
-297 -149 -127 -5 0
-57 -269 -247 -5 0
-57 -269 -247 -125 0
-57 -269 -7 -245 0
-57 -269 -7 -5 0
-57 -269 -7 -125 0
-57 -269 -127 -245 0
-57 -269 -127 -5 0
-57 -269 -127 -125 0
-57 -29 -247 -245 0
-57 -29 -247 -5 0
-57 -29 -247 -125 0
-57 -29 -7 -245 0
-57 -29 -7 -125 0
-57 -29 -127 -245 0
-57 -29 -127 -5 0
-57 -29 -127 -125 0
-57 -149 -247 -245 0
-57 -149 -247 -5 0
-57 -149 -247 -125 0
-57 -149 -7 -245 0
-57 -149 -7 -5 0
-57 -149 -7 -125 0
-57 -149 -127 -245 0
-57 -149 -127 -5 0
-177 -269 -247 -5 0
-177 -269 -247 -125 0
-177 -269 -7 -245 0
-177 -269 -7 -5 0
-177 -269 -7 -125 0
-177 -269 -127 -245 0
-177 -269 -127 -5 0
-177 -269 -127 -125 0
-177 -29 -247 -5 0
-177 -29 -247 -125 0
-177 -29 -7 -245 0
-177 -29 -7 -5 0
-177 -29 -7 -125 0
-177 -29 -127 -245 0
-177 -29 -127 -5 0
-177 -29 -127 -125 0
-177 -149 -247 -5 0
-177 -149 -247 -125 0
-177 -149 -7 -5 0
-177 -149 -7 -125 0
-298 -270 -8 -245 0
-298 -270 -8 -5 0
-298 -270 -128 -245 0
-298 -270 -128 -5 0
-298 -30 -248 -245 0
-298 -30 -248 -5 0
-298 -30 -248 -125 0
-298 -30 -8 -245 0
-298 -30 -8 -5 0
-298 -30 -8 -125 0
-298 -30 -128 -245 0
-298 -30 -128 -5 0
-298 -150 -248 -245 0
-298 -150 -248 -5 0
-298 -150 -248 -125 0
-298 -150 -8 -245 0
-298 -150 -8 -5 0
-298 -150 -8 -125 0
-298 -150 -128 -245 0
-298 -150 -128 -5 0
-58 -270 -248 -5 0
-58 -270 -248 -125 0
-58 -270 -8 -245 0
-58 -270 -8 -5 0
-58 -270 -8 -125 0
-58 -270 -128 -245 0
-58 -270 -128 -5 0
-58 -270 -128 -125 0
-58 -30 -248 -245 0
-58 -30 -248 -5 0
-58 -30 -248 -125 0
-58 -30 -8 -245 0
-58 -30 -8 -125 0
-58 -30 -128 -245 0
-58 -30 -128 -5 0
-58 -30 -128 -125 0
-58 -150 -248 -245 0
-58 -150 -248 -5 0
-58 -150 -248 -125 0
-58 -150 -8 -245 0
-58 -150 -8 -5 0
-58 -150 -8 -125 0
-58 -150 -128 -245 0
-58 -150 -128 -5 0
-178 -270 -248 -5 0
-178 -270 -248 -125 0
-178 -270 -8 -245 0
-178 -270 -8 -5 0
-178 -270 -8 -125 0
-178 -270 -128 -245 0
-178 -270 -128 -5 0
-178 -270 -128 -125 0
-178 -30 -248 -5 0
-178 -30 -248 -125 0
-178 -30 -8 -245 0
-178 -30 -8 -5 0
-178 -30 -8 -125 0
-178 -30 -128 -245 0
-178 -30 -128 -5 0
-178 -30 -128 -125 0
-178 -150 -248 -5 0
-178 -150 -248 -125 0
-178 -150 -8 -5 0
-178 -150 -8 -125 0
-299 -271 -9 -245 0
-299 -271 -9 -5 0
-299 -271 -129 -245 0
-299 -271 -129 -5 0
-299 -31 -249 -245 0
-299 -31 -249 -5 0
-299 -31 -249 -125 0
-299 -31 -9 -245 0
-299 -31 -9 -5 0
-299 -31 -9 -125 0
-299 -31 -129 -245 0
-299 -31 -129 -5 0
-299 -151 -249 -245 0
-299 -151 -249 -5 0
-299 -151 -249 -125 0
-299 -151 -9 -245 0
-299 -151 -9 -5 0
-299 -151 -9 -125 0
-299 -151 -129 -245 0
-299 -151 -129 -5 0
-59 -271 -249 -5 0
-59 -271 -249 -125 0
-59 -271 -9 -245 0
-59 -271 -9 -5 0
-59 -271 -9 -125 0
-59 -271 -129 -245 0
-59 -271 -129 -5 0
-59 -271 -129 -125 0
-59 -31 -249 -245 0
-59 -31 -249 -5 0
-59 -31 -249 -125 0
-59 -31 -9 -245 0
-59 -31 -9 -125 0
-59 -31 -129 -245 0
-59 -31 -129 -5 0
-59 -31 -129 -125 0
-59 -151 -249 -245 0
-59 -151 -249 -5 0
-59 -151 -249 -125 0
-59 -151 -9 -245 0
-59 -151 -9 -5 0
-59 -151 -9 -125 0
-59 -151 -129 -245 0
-59 -151 -129 -5 0
-179 -271 -249 -5 0
-179 -271 -249 -125 0
-179 -271 -9 -245 0
-179 -271 -9 -5 0
-179 -271 -9 -125 0
-179 -271 -129 -245 0
-179 -271 -129 -5 0
-179 -271 -129 -125 0
-179 -31 -249 -5 0
-179 -31 -249 -125 0
-179 -31 -9 -245 0
-179 -31 -9 -5 0
-179 -31 -9 -125 0
-179 -31 -129 -245 0
-179 -31 -129 -5 0
-179 -31 -129 -125 0
-179 -151 -249 -5 0
-179 -151 -249 -125 0
-179 -151 -9 -5 0
-179 -151 -9 -125 0
-300 -272 -7 -246 0
-300 -272 -7 -6 0
-300 -272 -127 -246 0
-300 -272 -127 -6 0
-300 -32 -247 -246 0
-300 -32 -247 -6 0
-300 -32 -247 -126 0
-300 -32 -7 -246 0
-300 -32 -7 -6 0
-300 -32 -7 -126 0
-300 -32 -127 -246 0
-300 -32 -127 -6 0
-300 -152 -247 -246 0
-300 -152 -247 -6 0
-300 -152 -247 -126 0
-300 -152 -7 -246 0
-300 -152 -7 -6 0
-300 -152 -7 -126 0
-300 -152 -127 -246 0
-300 -152 -127 -6 0
-60 -272 -247 -6 0
-60 -272 -247 -126 0
-60 -272 -7 -246 0
-60 -272 -7 -6 0
-60 -272 -7 -126 0
-60 -272 -127 -246 0
-60 -272 -127 -6 0
-60 -272 -127 -126 0
-60 -32 -247 -246 0
-60 -32 -247 -6 0
-60 -32 -247 -126 0
-60 -32 -7 -246 0
-60 -32 -7 -126 0
-60 -32 -127 -246 0
-60 -32 -127 -6 0
-60 -32 -127 -126 0
-60 -152 -247 -246 0
-60 -152 -247 -6 0
-60 -152 -247 -126 0
-60 -152 -7 -246 0
-60 -152 -7 -6 0
-60 -152 -7 -126 0
-60 -152 -127 -246 0
-60 -152 -127 -6 0
-180 -272 -247 -6 0
-180 -272 -247 -126 0
-180 -272 -7 -246 0
-180 -272 -7 -6 0
-180 -272 -7 -126 0
-180 -272 -127 -246 0
-180 -272 -127 -6 0
-180 -272 -127 -126 0
-180 -32 -247 -6 0
-180 -32 -247 -126 0
-180 -32 -7 -246 0
-180 -32 -7 -6 0
-180 -32 -7 -126 0
-180 -32 -127 -246 0
-180 -32 -127 -6 0
-180 -32 -127 -126 0
-180 -152 -247 -6 0
-180 -152 -247 -126 0
-180 -152 -7 -6 0
-180 -152 -7 -126 0
-301 -273 -8 -246 0
-301 -273 -8 -6 0
-301 -273 -128 -246 0
-301 -273 -128 -6 0
-301 -33 -248 -246 0
-301 -33 -248 -6 0
-301 -33 -248 -126 0
-301 -33 -8 -246 0
-301 -33 -8 -6 0
-301 -33 -8 -126 0
-301 -33 -128 -246 0
-301 -33 -128 -6 0
-301 -153 -248 -246 0
-301 -153 -248 -6 0
-301 -153 -248 -126 0
-301 -153 -8 -246 0
-301 -153 -8 -6 0
-301 -153 -8 -126 0
-301 -153 -128 -246 0
-301 -153 -128 -6 0
-61 -273 -248 -6 0
-61 -273 -248 -126 0
-61 -273 -8 -246 0
-61 -273 -8 -6 0
-61 -273 -8 -126 0
-61 -273 -128 -246 0
-61 -273 -128 -6 0
-61 -273 -128 -126 0
-61 -33 -248 -246 0
-61 -33 -248 -6 0
-61 -33 -248 -126 0
-61 -33 -8 -246 0
-61 -33 -8 -126 0
-61 -33 -128 -246 0
-61 -33 -128 -6 0
-61 -33 -128 -126 0
-61 -153 -248 -246 0
-61 -153 -248 -6 0
-61 -153 -248 -126 0
-61 -153 -8 -246 0
-61 -153 -8 -6 0
-61 -153 -8 -126 0
-61 -153 -128 -246 0
-61 -153 -128 -6 0
-181 -273 -248 -6 0
-181 -273 -248 -126 0
-181 -273 -8 -246 0
-181 -273 -8 -6 0
-181 -273 -8 -126 0
-181 -273 -128 -246 0
-181 -273 -128 -6 0
-181 -273 -128 -126 0
-181 -33 -248 -6 0
-181 -33 -248 -126 0
-181 -33 -8 -246 0
-181 -33 -8 -6 0
-181 -33 -8 -126 0
-181 -33 -128 -246 0
-181 -33 -128 -6 0
-181 -33 -128 -126 0
-181 -153 -248 -6 0
-181 -153 -248 -126 0
-181 -153 -8 -6 0
-181 -153 -8 -126 0
-302 -274 -9 -246 0
-302 -274 -9 -6 0
-302 -274 -129 -246 0
-302 -274 -129 -6 0
-302 -34 -249 -246 0
-302 -34 -249 -6 0
-302 -34 -249 -126 0
-302 -34 -9 -246 0
-302 -34 -9 -6 0
-302 -34 -9 -126 0
-302 -34 -129 -246 0
-302 -34 -129 -6 0
-302 -154 -249 -246 0
-302 -154 -249 -6 0
-302 -154 -249 -126 0
-302 -154 -9 -246 0
-302 -154 -9 -6 0
-302 -154 -9 -126 0
-302 -154 -129 -246 0
-302 -154 -129 -6 0
-62 -274 -249 -6 0
-62 -274 -249 -126 0
-62 -274 -9 -246 0
-62 -274 -9 -6 0
-62 -274 -9 -126 0
-62 -274 -129 -246 0
-62 -274 -129 -6 0
-62 -274 -129 -126 0
-62 -34 -249 -246 0
-62 -34 -249 -6 0
-62 -34 -249 -126 0
-62 -34 -9 -246 0
-62 -34 -9 -126 0
-62 -34 -129 -246 0
-62 -34 -129 -6 0
-62 -34 -129 -126 0
-62 -154 -249 -246 0
-62 -154 -249 -6 0
-62 -154 -249 -126 0
-62 -154 -9 -246 0
-62 -154 -9 -6 0
-62 -154 -9 -126 0
-62 -154 -129 -246 0
-62 -154 -129 -6 0
-182 -274 -249 -6 0
-182 -274 -249 -126 0
-182 -274 -9 -246 0
-182 -274 -9 -6 0
-182 -274 -9 -126 0
-182 -274 -129 -246 0
-182 -274 -129 -6 0
-182 -274 -129 -126 0
-182 -34 -249 -6 0
-182 -34 -249 -126 0
-182 -34 -9 -246 0
-182 -34 -9 -6 0
-182 -34 -9 -126 0
-182 -34 -129 -246 0
-182 -34 -129 -6 0
-182 -34 -129 -126 0
-182 -154 -249 -6 0
-182 -154 -249 -126 0
-182 -154 -9 -6 0
-182 -154 -9 -126 0
-303 -275 -8 -247 0
-303 -275 -8 -7 0
-303 -275 -128 -247 0
-303 -275 -128 -7 0
-303 -35 -248 -247 0
-303 -35 -248 -7 0
-303 -35 -248 -127 0
-303 -35 -8 -247 0
-303 -35 -8 -7 0
-303 -35 -8 -127 0
-303 -35 -128 -247 0
-303 -35 -128 -7 0
-303 -155 -248 -247 0
-303 -155 -248 -7 0
-303 -155 -248 -127 0
-303 -155 -8 -247 0
-303 -155 -8 -7 0
-303 -155 -8 -127 0
-303 -155 -128 -247 0
-303 -155 -128 -7 0
-63 -275 -248 -7 0
-63 -275 -248 -127 0
-63 -275 -8 -247 0
-63 -275 -8 -7 0
-63 -275 -8 -127 0
-63 -275 -128 -247 0
-63 -275 -128 -7 0
-63 -275 -128 -127 0
-63 -35 -248 -247 0
-63 -35 -248 -7 0
-63 -35 -248 -127 0
-63 -35 -8 -247 0
-63 -35 -8 -127 0
-63 -35 -128 -247 0
-63 -35 -128 -7 0
-63 -35 -128 -127 0
-63 -155 -248 -247 0
-63 -155 -248 -7 0
-63 -155 -248 -127 0
-63 -155 -8 -247 0
-63 -155 -8 -7 0
-63 -155 -8 -127 0
-63 -155 -128 -247 0
-63 -155 -128 -7 0
-183 -275 -248 -7 0
-183 -275 -248 -127 0
-183 -275 -8 -247 0
-183 -275 -8 -7 0
-183 -275 -8 -127 0
-183 -275 -128 -247 0
-183 -275 -128 -7 0
-183 -275 -128 -127 0
-183 -35 -248 -7 0
-183 -35 -248 -127 0
-183 -35 -8 -247 0
-183 -35 -8 -7 0
-183 -35 -8 -127 0
-183 -35 -128 -247 0
-183 -35 -128 -7 0
-183 -35 -128 -127 0
-183 -155 -248 -7 0
-183 -155 -248 -127 0
-183 -155 -8 -7 0
-183 -155 -8 -127 0
-304 -276 -9 -247 0
-304 -276 -9 -7 0
-304 -276 -129 -247 0
-304 -276 -129 -7 0
-304 -36 -249 -247 0
-304 -36 -249 -7 0
-304 -36 -249 -127 0
-304 -36 -9 -247 0
-304 -36 -9 -7 0
-304 -36 -9 -127 0
-304 -36 -129 -247 0
-304 -36 -129 -7 0
-304 -156 -249 -247 0
-304 -156 -249 -7 0
-304 -156 -249 -127 0
-304 -156 -9 -247 0
-304 -156 -9 -7 0
-304 -156 -9 -127 0
-304 -156 -129 -247 0
-304 -156 -129 -7 0
-64 -276 -249 -7 0
-64 -276 -249 -127 0
-64 -276 -9 -247 0
-64 -276 -9 -7 0
-64 -276 -9 -127 0
-64 -276 -129 -247 0
-64 -276 -129 -7 0
-64 -276 -129 -127 0
-64 -36 -249 -247 0
-64 -36 -249 -7 0
-64 -36 -249 -127 0
-64 -36 -9 -247 0
-64 -36 -9 -127 0
-64 -36 -129 -247 0
-64 -36 -129 -7 0
-64 -36 -129 -127 0
-64 -156 -249 -247 0
-64 -156 -249 -7 0
-64 -156 -249 -127 0
-64 -156 -9 -247 0
-64 -156 -9 -7 0
-64 -156 -9 -127 0
-64 -156 -129 -247 0
-64 -156 -129 -7 0
-184 -276 -249 -7 0
-184 -276 -249 -127 0
-184 -276 -9 -247 0
-184 -276 -9 -7 0
-184 -276 -9 -127 0
-184 -276 -129 -247 0
-184 -276 -129 -7 0
-184 -276 -129 -127 0
-184 -36 -249 -7 0
-184 -36 -249 -127 0
-184 -36 -9 -247 0
-184 -36 -9 -7 0
-184 -36 -9 -127 0
-184 -36 -129 -247 0
-184 -36 -129 -7 0
-184 -36 -129 -127 0
-184 -156 -249 -7 0
-184 -156 -249 -127 0
-184 -156 -9 -7 0
-184 -156 -9 -127 0
-305 -277 -9 -248 0
-305 -277 -9 -8 0
-305 -277 -129 -248 0
-305 -277 -129 -8 0
-305 -37 -249 -248 0
-305 -37 -249 -8 0
-305 -37 -249 -128 0
-305 -37 -9 -248 0
-305 -37 -9 -8 0
-305 -37 -9 -128 0
-305 -37 -129 -248 0
-305 -37 -129 -8 0
-305 -157 -249 -248 0
-305 -157 -249 -8 0
-305 -157 -249 -128 0
-305 -157 -9 -248 0
-305 -157 -9 -8 0
-305 -157 -9 -128 0
-305 -157 -129 -248 0
-305 -157 -129 -8 0
-65 -277 -249 -8 0
-65 -277 -249 -128 0
-65 -277 -9 -248 0
-65 -277 -9 -8 0
-65 -277 -9 -128 0
-65 -277 -129 -248 0
-65 -277 -129 -8 0
-65 -277 -129 -128 0
-65 -37 -249 -248 0
-65 -37 -249 -8 0
-65 -37 -249 -128 0
-65 -37 -9 -248 0
-65 -37 -9 -128 0
-65 -37 -129 -248 0
-65 -37 -129 -8 0
-65 -37 -129 -128 0
-65 -157 -249 -248 0
-65 -157 -249 -8 0
-65 -157 -249 -128 0
-65 -157 -9 -248 0
-65 -157 -9 -8 0
-65 -157 -9 -128 0
-65 -157 -129 -248 0
-65 -157 -129 -8 0
-185 -277 -249 -8 0
-185 -277 -249 -128 0
-185 -277 -9 -248 0
-185 -277 -9 -8 0
-185 -277 -9 -128 0
-185 -277 -129 -248 0
-185 -277 -129 -8 0
-185 -277 -129 -128 0
-185 -37 -249 -8 0
-185 -37 -249 -128 0
-185 -37 -9 -248 0
-185 -37 -9 -8 0
-185 -37 -9 -128 0
-185 -37 -129 -248 0
-185 -37 -129 -8 0
-185 -37 -129 -128 0
-185 -157 -249 -8 0
-185 -157 -249 -128 0
-185 -157 -9 -8 0
-185 -157 -9 -128 0
-306 -257 -11 -250 0
-306 -257 -11 -10 0
-306 -257 -131 -250 0
-306 -257 -131 -10 0
-306 -17 -251 -250 0
-306 -17 -251 -10 0
-306 -17 -251 -130 0
-306 -17 -11 -250 0
-306 -17 -11 -10 0
-306 -17 -11 -130 0
-306 -17 -131 -250 0
-306 -17 -131 -10 0
-306 -137 -251 -250 0
-306 -137 -251 -10 0
-306 -137 -251 -130 0
-306 -137 -11 -250 0
-306 -137 -11 -10 0
-306 -137 -11 -130 0
-306 -137 -131 -250 0
-306 -137 -131 -10 0
-66 -257 -251 -10 0
-66 -257 -251 -130 0
-66 -257 -11 -250 0
-66 -257 -11 -10 0
-66 -257 -11 -130 0
-66 -257 -131 -250 0
-66 -257 -131 -10 0
-66 -257 -131 -130 0
-66 -17 -251 -250 0
-66 -17 -251 -10 0
-66 -17 -251 -130 0
-66 -17 -11 -250 0
-66 -17 -11 -130 0
-66 -17 -131 -250 0
-66 -17 -131 -10 0
-66 -17 -131 -130 0
-66 -137 -251 -250 0
-66 -137 -251 -10 0
-66 -137 -251 -130 0
-66 -137 -11 -250 0
-66 -137 -11 -10 0
-66 -137 -11 -130 0
-66 -137 -131 -250 0
-66 -137 -131 -10 0
-186 -257 -251 -10 0
-186 -257 -251 -130 0
-186 -257 -11 -250 0
-186 -257 -11 -10 0
-186 -257 -11 -130 0
-186 -257 -131 -250 0
-186 -257 -131 -10 0
-186 -257 -131 -130 0
-186 -17 -251 -10 0
-186 -17 -251 -130 0
-186 -17 -11 -250 0
-186 -17 -11 -10 0
-186 -17 -11 -130 0
-186 -17 -131 -250 0
-186 -17 -131 -10 0
-186 -17 -131 -130 0
-186 -137 -251 -10 0
-186 -137 -251 -130 0
-186 -137 -11 -10 0
-186 -137 -11 -130 0
-307 -258 -12 -250 0
-307 -258 -12 -10 0
-307 -258 -132 -250 0
-307 -258 -132 -10 0
-307 -18 -252 -250 0
-307 -18 -252 -10 0
-307 -18 -252 -130 0
-307 -18 -12 -250 0
-307 -18 -12 -10 0
-307 -18 -12 -130 0
-307 -18 -132 -250 0
-307 -18 -132 -10 0
-307 -138 -252 -250 0
-307 -138 -252 -10 0
-307 -138 -252 -130 0
-307 -138 -12 -250 0
-307 -138 -12 -10 0
-307 -138 -12 -130 0
-307 -138 -132 -250 0
-307 -138 -132 -10 0
-67 -258 -252 -10 0
-67 -258 -252 -130 0
-67 -258 -12 -250 0
-67 -258 -12 -10 0
-67 -258 -12 -130 0
-67 -258 -132 -250 0
-67 -258 -132 -10 0
-67 -258 -132 -130 0
-67 -18 -252 -250 0
-67 -18 -252 -10 0
-67 -18 -252 -130 0
-67 -18 -12 -250 0
-67 -18 -12 -130 0
-67 -18 -132 -250 0
-67 -18 -132 -10 0
-67 -18 -132 -130 0
-67 -138 -252 -250 0
-67 -138 -252 -10 0
-67 -138 -252 -130 0
-67 -138 -12 -250 0
-67 -138 -12 -10 0
-67 -138 -12 -130 0
-67 -138 -132 -250 0
-67 -138 -132 -10 0
-187 -258 -252 -10 0
-187 -258 -252 -130 0
-187 -258 -12 -250 0
-187 -258 -12 -10 0
-187 -258 -12 -130 0
-187 -258 -132 -250 0
-187 -258 -132 -10 0
-187 -258 -132 -130 0
-187 -18 -252 -10 0
-187 -18 -252 -130 0
-187 -18 -12 -250 0
-187 -18 -12 -10 0
-187 -18 -12 -130 0
-187 -18 -132 -250 0
-187 -18 -132 -10 0
-187 -18 -132 -130 0
-187 -138 -252 -10 0
-187 -138 -252 -130 0
-187 -138 -12 -10 0
-187 -138 -12 -130 0
-308 -259 -13 -250 0
-308 -259 -13 -10 0
-308 -259 -133 -250 0
-308 -259 -133 -10 0
-308 -19 -253 -250 0
-308 -19 -253 -10 0
-308 -19 -253 -130 0
-308 -19 -13 -250 0
-308 -19 -13 -10 0
-308 -19 -13 -130 0
-308 -19 -133 -250 0
-308 -19 -133 -10 0
-308 -139 -253 -250 0
-308 -139 -253 -10 0
-308 -139 -253 -130 0
-308 -139 -13 -250 0
-308 -139 -13 -10 0
-308 -139 -13 -130 0
-308 -139 -133 -250 0
-308 -139 -133 -10 0
-68 -259 -253 -10 0
-68 -259 -253 -130 0
-68 -259 -13 -250 0
-68 -259 -13 -10 0
-68 -259 -13 -130 0
-68 -259 -133 -250 0
-68 -259 -133 -10 0
-68 -259 -133 -130 0
-68 -19 -253 -250 0
-68 -19 -253 -10 0
-68 -19 -253 -130 0
-68 -19 -13 -250 0
-68 -19 -13 -130 0
-68 -19 -133 -250 0
-68 -19 -133 -10 0
-68 -19 -133 -130 0
-68 -139 -253 -250 0
-68 -139 -253 -10 0
-68 -139 -253 -130 0
-68 -139 -13 -250 0
-68 -139 -13 -10 0
-68 -139 -13 -130 0
-68 -139 -133 -250 0
-68 -139 -133 -10 0
-188 -259 -253 -10 0
-188 -259 -253 -130 0
-188 -259 -13 -250 0
-188 -259 -13 -10 0
-188 -259 -13 -130 0
-188 -259 -133 -250 0
-188 -259 -133 -10 0
-188 -259 -133 -130 0
-188 -19 -253 -10 0
-188 -19 -253 -130 0
-188 -19 -13 -250 0
-188 -19 -13 -10 0
-188 -19 -13 -130 0
-188 -19 -133 -250 0
-188 -19 -133 -10 0
-188 -19 -133 -130 0
-188 -139 -253 -10 0
-188 -139 -253 -130 0
-188 -139 -13 -10 0
-188 -139 -13 -130 0
-309 -260 -14 -250 0
-309 -260 -14 -10 0
-309 -260 -134 -250 0
-309 -260 -134 -10 0
-309 -20 -254 -250 0
-309 -20 -254 -10 0
-309 -20 -254 -130 0
-309 -20 -14 -250 0
-309 -20 -14 -10 0
-309 -20 -14 -130 0
-309 -20 -134 -250 0
-309 -20 -134 -10 0
-309 -140 -254 -250 0
-309 -140 -254 -10 0
-309 -140 -254 -130 0
-309 -140 -14 -250 0
-309 -140 -14 -10 0
-309 -140 -14 -130 0
-309 -140 -134 -250 0
-309 -140 -134 -10 0
-69 -260 -254 -10 0
-69 -260 -254 -130 0
-69 -260 -14 -250 0
-69 -260 -14 -10 0
-69 -260 -14 -130 0
-69 -260 -134 -250 0
-69 -260 -134 -10 0
-69 -260 -134 -130 0
-69 -20 -254 -250 0
-69 -20 -254 -10 0
-69 -20 -254 -130 0
-69 -20 -14 -250 0
-69 -20 -14 -130 0
-69 -20 -134 -250 0
-69 -20 -134 -10 0
-69 -20 -134 -130 0
-69 -140 -254 -250 0
-69 -140 -254 -10 0
-69 -140 -254 -130 0
-69 -140 -14 -250 0
-69 -140 -14 -10 0
-69 -140 -14 -130 0
-69 -140 -134 -250 0
-69 -140 -134 -10 0
-189 -260 -254 -10 0
-189 -260 -254 -130 0
-189 -260 -14 -250 0
-189 -260 -14 -10 0
-189 -260 -14 -130 0
-189 -260 -134 -250 0
-189 -260 -134 -10 0
-189 -260 -134 -130 0
-189 -20 -254 -10 0
-189 -20 -254 -130 0
-189 -20 -14 -250 0
-189 -20 -14 -10 0
-189 -20 -14 -130 0
-189 -20 -134 -250 0
-189 -20 -134 -10 0
-189 -20 -134 -130 0
-189 -140 -254 -10 0
-189 -140 -254 -130 0
-189 -140 -14 -10 0
-189 -140 -14 -130 0
-310 -261 -15 -250 0
-310 -261 -15 -10 0
-310 -261 -135 -250 0
-310 -261 -135 -10 0
-310 -21 -255 -250 0
-310 -21 -255 -10 0
-310 -21 -255 -130 0
-310 -21 -15 -250 0
-310 -21 -15 -10 0
-310 -21 -15 -130 0
-310 -21 -135 -250 0
-310 -21 -135 -10 0
-310 -141 -255 -250 0
-310 -141 -255 -10 0
-310 -141 -255 -130 0
-310 -141 -15 -250 0
-310 -141 -15 -10 0
-310 -141 -15 -130 0
-310 -141 -135 -250 0
-310 -141 -135 -10 0
-70 -261 -255 -10 0
-70 -261 -255 -130 0
-70 -261 -15 -250 0
-70 -261 -15 -10 0
-70 -261 -15 -130 0
-70 -261 -135 -250 0
-70 -261 -135 -10 0
-70 -261 -135 -130 0
-70 -21 -255 -250 0
-70 -21 -255 -10 0
-70 -21 -255 -130 0
-70 -21 -15 -250 0
-70 -21 -15 -130 0
-70 -21 -135 -250 0
-70 -21 -135 -10 0
-70 -21 -135 -130 0
-70 -141 -255 -250 0
-70 -141 -255 -10 0
-70 -141 -255 -130 0
-70 -141 -15 -250 0
-70 -141 -15 -10 0
-70 -141 -15 -130 0
-70 -141 -135 -250 0
-70 -141 -135 -10 0
-190 -261 -255 -10 0
-190 -261 -255 -130 0
-190 -261 -15 -250 0
-190 -261 -15 -10 0
-190 -261 -15 -130 0
-190 -261 -135 -250 0
-190 -261 -135 -10 0
-190 -261 -135 -130 0
-190 -21 -255 -10 0
-190 -21 -255 -130 0
-190 -21 -15 -250 0
-190 -21 -15 -10 0
-190 -21 -15 -130 0
-190 -21 -135 -250 0
-190 -21 -135 -10 0
-190 -21 -135 -130 0
-190 -141 -255 -10 0
-190 -141 -255 -130 0
-190 -141 -15 -10 0
-190 -141 -15 -130 0
-311 -262 -16 -250 0
-311 -262 -16 -10 0
-311 -262 -136 -250 0
-311 -262 -136 -10 0
-311 -22 -256 -250 0
-311 -22 -256 -10 0
-311 -22 -256 -130 0
-311 -22 -16 -250 0
-311 -22 -16 -10 0
-311 -22 -16 -130 0
-311 -22 -136 -250 0
-311 -22 -136 -10 0
-311 -142 -256 -250 0
-311 -142 -256 -10 0
-311 -142 -256 -130 0
-311 -142 -16 -250 0
-311 -142 -16 -10 0
-311 -142 -16 -130 0
-311 -142 -136 -250 0
-311 -142 -136 -10 0
-71 -262 -256 -10 0
-71 -262 -256 -130 0
-71 -262 -16 -250 0
-71 -262 -16 -10 0
-71 -262 -16 -130 0
-71 -262 -136 -250 0
-71 -262 -136 -10 0
-71 -262 -136 -130 0
-71 -22 -256 -250 0
-71 -22 -256 -10 0
-71 -22 -256 -130 0
-71 -22 -16 -250 0
-71 -22 -16 -130 0
-71 -22 -136 -250 0
-71 -22 -136 -10 0
-71 -22 -136 -130 0
-71 -142 -256 -250 0
-71 -142 -256 -10 0
-71 -142 -256 -130 0
-71 -142 -16 -250 0
-71 -142 -16 -10 0
-71 -142 -16 -130 0
-71 -142 -136 -250 0
-71 -142 -136 -10 0
-191 -262 -256 -10 0
-191 -262 -256 -130 0
-191 -262 -16 -250 0
-191 -262 -16 -10 0
-191 -262 -16 -130 0
-191 -262 -136 -250 0
-191 -262 -136 -10 0
-191 -262 -136 -130 0
-191 -22 -256 -10 0
-191 -22 -256 -130 0
-191 -22 -16 -250 0
-191 -22 -16 -10 0
-191 -22 -16 -130 0
-191 -22 -136 -250 0
-191 -22 -136 -10 0
-191 -22 -136 -130 0
-191 -142 -256 -10 0
-191 -142 -256 -130 0
-191 -142 -16 -10 0
-191 -142 -16 -130 0
-312 -263 -12 -251 0
-312 -263 -12 -11 0
-312 -263 -132 -251 0
-312 -263 -132 -11 0
-312 -23 -252 -251 0
-312 -23 -252 -11 0
-312 -23 -252 -131 0
-312 -23 -12 -251 0
-312 -23 -12 -11 0
-312 -23 -12 -131 0
-312 -23 -132 -251 0
-312 -23 -132 -11 0
-312 -143 -252 -251 0
-312 -143 -252 -11 0
-312 -143 -252 -131 0
-312 -143 -12 -251 0
-312 -143 -12 -11 0
-312 -143 -12 -131 0
-312 -143 -132 -251 0
-312 -143 -132 -11 0
-72 -263 -252 -11 0
-72 -263 -252 -131 0
-72 -263 -12 -251 0
-72 -263 -12 -11 0
-72 -263 -12 -131 0
-72 -263 -132 -251 0
-72 -263 -132 -11 0
-72 -263 -132 -131 0
-72 -23 -252 -251 0
-72 -23 -252 -11 0
-72 -23 -252 -131 0
-72 -23 -12 -251 0
-72 -23 -12 -131 0
-72 -23 -132 -251 0
-72 -23 -132 -11 0
-72 -23 -132 -131 0
-72 -143 -252 -251 0
-72 -143 -252 -11 0
-72 -143 -252 -131 0
-72 -143 -12 -251 0
-72 -143 -12 -11 0
-72 -143 -12 -131 0
-72 -143 -132 -251 0
-72 -143 -132 -11 0
-192 -263 -252 -11 0
-192 -263 -252 -131 0
-192 -263 -12 -251 0
-192 -263 -12 -11 0
-192 -263 -12 -131 0
-192 -263 -132 -251 0
-192 -263 -132 -11 0
-192 -263 -132 -131 0
-192 -23 -252 -11 0
-192 -23 -252 -131 0
-192 -23 -12 -251 0
-192 -23 -12 -11 0
-192 -23 -12 -131 0
-192 -23 -132 -251 0
-192 -23 -132 -11 0
-192 -23 -132 -131 0
-192 -143 -252 -11 0
-192 -143 -252 -131 0
-192 -143 -12 -11 0
-192 -143 -12 -131 0
-313 -264 -13 -251 0
-313 -264 -13 -11 0
-313 -264 -133 -251 0
-313 -264 -133 -11 0
-313 -24 -253 -251 0
-313 -24 -253 -11 0
-313 -24 -253 -131 0
-313 -24 -13 -251 0
-313 -24 -13 -11 0
-313 -24 -13 -131 0
-313 -24 -133 -251 0
-313 -24 -133 -11 0
-313 -144 -253 -251 0
-313 -144 -253 -11 0
-313 -144 -253 -131 0
-313 -144 -13 -251 0
-313 -144 -13 -11 0
-313 -144 -13 -131 0
-313 -144 -133 -251 0
-313 -144 -133 -11 0
-73 -264 -253 -11 0
-73 -264 -253 -131 0
-73 -264 -13 -251 0
-73 -264 -13 -11 0
-73 -264 -13 -131 0
-73 -264 -133 -251 0
-73 -264 -133 -11 0
-73 -264 -133 -131 0
-73 -24 -253 -251 0
-73 -24 -253 -11 0
-73 -24 -253 -131 0
-73 -24 -13 -251 0
-73 -24 -13 -131 0
-73 -24 -133 -251 0
-73 -24 -133 -11 0
-73 -24 -133 -131 0
-73 -144 -253 -251 0
-73 -144 -253 -11 0
-73 -144 -253 -131 0
-73 -144 -13 -251 0
-73 -144 -13 -11 0
-73 -144 -13 -131 0
-73 -144 -133 -251 0
-73 -144 -133 -11 0
-193 -264 -253 -11 0
-193 -264 -253 -131 0
-193 -264 -13 -251 0
-193 -264 -13 -11 0
-193 -264 -13 -131 0
-193 -264 -133 -251 0
-193 -264 -133 -11 0
-193 -264 -133 -131 0
-193 -24 -253 -11 0
-193 -24 -253 -131 0
-193 -24 -13 -251 0
-193 -24 -13 -11 0
-193 -24 -13 -131 0
-193 -24 -133 -251 0
-193 -24 -133 -11 0
-193 -24 -133 -131 0
-193 -144 -253 -11 0
-193 -144 -253 -131 0
-193 -144 -13 -11 0
-193 -144 -13 -131 0
-314 -265 -14 -251 0
-314 -265 -14 -11 0
-314 -265 -134 -251 0
-314 -265 -134 -11 0
-314 -25 -254 -251 0
-314 -25 -254 -11 0
-314 -25 -254 -131 0
-314 -25 -14 -251 0
-314 -25 -14 -11 0
-314 -25 -14 -131 0
-314 -25 -134 -251 0
-314 -25 -134 -11 0
-314 -145 -254 -251 0
-314 -145 -254 -11 0
-314 -145 -254 -131 0
-314 -145 -14 -251 0
-314 -145 -14 -11 0
-314 -145 -14 -131 0
-314 -145 -134 -251 0
-314 -145 -134 -11 0
-74 -265 -254 -11 0
-74 -265 -254 -131 0
-74 -265 -14 -251 0
-74 -265 -14 -11 0
-74 -265 -14 -131 0
-74 -265 -134 -251 0
-74 -265 -134 -11 0
-74 -265 -134 -131 0
-74 -25 -254 -251 0
-74 -25 -254 -11 0
-74 -25 -254 -131 0
-74 -25 -14 -251 0
-74 -25 -14 -131 0
-74 -25 -134 -251 0
-74 -25 -134 -11 0
-74 -25 -134 -131 0
-74 -145 -254 -251 0
-74 -145 -254 -11 0
-74 -145 -254 -131 0
-74 -145 -14 -251 0
-74 -145 -14 -11 0
-74 -145 -14 -131 0
-74 -145 -134 -251 0
-74 -145 -134 -11 0
-194 -265 -254 -11 0
-194 -265 -254 -131 0
-194 -265 -14 -251 0
-194 -265 -14 -11 0
-194 -265 -14 -131 0
-194 -265 -134 -251 0
-194 -265 -134 -11 0
-194 -265 -134 -131 0
-194 -25 -254 -11 0
-194 -25 -254 -131 0
-194 -25 -14 -251 0
-194 -25 -14 -11 0
-194 -25 -14 -131 0
-194 -25 -134 -251 0
-194 -25 -134 -11 0
-194 -25 -134 -131 0
-194 -145 -254 -11 0
-194 -145 -254 -131 0
-194 -145 -14 -11 0
-194 -145 -14 -131 0
-315 -266 -15 -251 0
-315 -266 -15 -11 0
-315 -266 -135 -251 0
-315 -266 -135 -11 0
-315 -26 -255 -251 0
-315 -26 -255 -11 0
-315 -26 -255 -131 0
-315 -26 -15 -251 0
-315 -26 -15 -11 0
-315 -26 -15 -131 0
-315 -26 -135 -251 0
-315 -26 -135 -11 0
-315 -146 -255 -251 0
-315 -146 -255 -11 0
-315 -146 -255 -131 0
-315 -146 -15 -251 0
-315 -146 -15 -11 0
-315 -146 -15 -131 0
-315 -146 -135 -251 0
-315 -146 -135 -11 0
-75 -266 -255 -11 0
-75 -266 -255 -131 0
-75 -266 -15 -251 0
-75 -266 -15 -11 0
-75 -266 -15 -131 0
-75 -266 -135 -251 0
-75 -266 -135 -11 0
-75 -266 -135 -131 0
-75 -26 -255 -251 0
-75 -26 -255 -11 0
-75 -26 -255 -131 0
-75 -26 -15 -251 0
-75 -26 -15 -131 0
-75 -26 -135 -251 0
-75 -26 -135 -11 0
-75 -26 -135 -131 0
-75 -146 -255 -251 0
-75 -146 -255 -11 0
-75 -146 -255 -131 0
-75 -146 -15 -251 0
-75 -146 -15 -11 0
-75 -146 -15 -131 0
-75 -146 -135 -251 0
-75 -146 -135 -11 0
-195 -266 -255 -11 0
-195 -266 -255 -131 0
-195 -266 -15 -251 0
-195 -266 -15 -11 0
-195 -266 -15 -131 0
-195 -266 -135 -251 0
-195 -266 -135 -11 0
-195 -266 -135 -131 0
-195 -26 -255 -11 0
-195 -26 -255 -131 0
-195 -26 -15 -251 0
-195 -26 -15 -11 0
-195 -26 -15 -131 0
-195 -26 -135 -251 0
-195 -26 -135 -11 0
-195 -26 -135 -131 0
-195 -146 -255 -11 0
-195 -146 -255 -131 0
-195 -146 -15 -11 0
-195 -146 -15 -131 0
-316 -267 -16 -251 0
-316 -267 -16 -11 0
-316 -267 -136 -251 0
-316 -267 -136 -11 0
-316 -27 -256 -251 0
-316 -27 -256 -11 0
-316 -27 -256 -131 0
-316 -27 -16 -251 0
-316 -27 -16 -11 0
-316 -27 -16 -131 0
-316 -27 -136 -251 0
-316 -27 -136 -11 0
-316 -147 -256 -251 0
-316 -147 -256 -11 0
-316 -147 -256 -131 0
-316 -147 -16 -251 0
-316 -147 -16 -11 0
-316 -147 -16 -131 0
-316 -147 -136 -251 0
-316 -147 -136 -11 0
-76 -267 -256 -11 0
-76 -267 -256 -131 0
-76 -267 -16 -251 0
-76 -267 -16 -11 0
-76 -267 -16 -131 0
-76 -267 -136 -251 0
-76 -267 -136 -11 0
-76 -267 -136 -131 0
-76 -27 -256 -251 0
-76 -27 -256 -11 0
-76 -27 -256 -131 0
-76 -27 -16 -251 0
-76 -27 -16 -131 0
-76 -27 -136 -251 0
-76 -27 -136 -11 0
-76 -27 -136 -131 0
-76 -147 -256 -251 0
-76 -147 -256 -11 0
-76 -147 -256 -131 0
-76 -147 -16 -251 0
-76 -147 -16 -11 0
-76 -147 -16 -131 0
-76 -147 -136 -251 0
-76 -147 -136 -11 0
-196 -267 -256 -11 0
-196 -267 -256 -131 0
-196 -267 -16 -251 0
-196 -267 -16 -11 0
-196 -267 -16 -131 0
-196 -267 -136 -251 0
-196 -267 -136 -11 0
-196 -267 -136 -131 0
-196 -27 -256 -11 0
-196 -27 -256 -131 0
-196 -27 -16 -251 0
-196 -27 -16 -11 0
-196 -27 -16 -131 0
-196 -27 -136 -251 0
-196 -27 -136 -11 0
-196 -27 -136 -131 0
-196 -147 -256 -11 0
-196 -147 -256 -131 0
-196 -147 -16 -11 0
-196 -147 -16 -131 0
-317 -268 -13 -252 0
-317 -268 -13 -12 0
-317 -268 -133 -252 0
-317 -268 -133 -12 0
-317 -28 -253 -252 0
-317 -28 -253 -12 0
-317 -28 -253 -132 0
-317 -28 -13 -252 0
-317 -28 -13 -12 0
-317 -28 -13 -132 0
-317 -28 -133 -252 0
-317 -28 -133 -12 0
-317 -148 -253 -252 0
-317 -148 -253 -12 0
-317 -148 -253 -132 0
-317 -148 -13 -252 0
-317 -148 -13 -12 0
-317 -148 -13 -132 0
-317 -148 -133 -252 0
-317 -148 -133 -12 0
-77 -268 -253 -12 0
-77 -268 -253 -132 0
-77 -268 -13 -252 0
-77 -268 -13 -12 0
-77 -268 -13 -132 0
-77 -268 -133 -252 0
-77 -268 -133 -12 0
-77 -268 -133 -132 0
-77 -28 -253 -252 0
-77 -28 -253 -12 0
-77 -28 -253 -132 0
-77 -28 -13 -252 0
-77 -28 -13 -132 0
-77 -28 -133 -252 0
-77 -28 -133 -12 0
-77 -28 -133 -132 0
-77 -148 -253 -252 0
-77 -148 -253 -12 0
-77 -148 -253 -132 0
-77 -148 -13 -252 0
-77 -148 -13 -12 0
-77 -148 -13 -132 0
-77 -148 -133 -252 0
-77 -148 -133 -12 0
-197 -268 -253 -12 0
-197 -268 -253 -132 0
-197 -268 -13 -252 0
-197 -268 -13 -12 0
-197 -268 -13 -132 0
-197 -268 -133 -252 0
-197 -268 -133 -12 0
-197 -268 -133 -132 0
-197 -28 -253 -12 0
-197 -28 -253 -132 0
-197 -28 -13 -252 0
-197 -28 -13 -12 0
-197 -28 -13 -132 0
-197 -28 -133 -252 0
-197 -28 -133 -12 0
-197 -28 -133 -132 0
-197 -148 -253 -12 0
-197 -148 -253 -132 0
-197 -148 -13 -12 0
-197 -148 -13 -132 0
-318 -269 -14 -252 0
-318 -269 -14 -12 0
-318 -269 -134 -252 0
-318 -269 -134 -12 0
-318 -29 -254 -252 0
-318 -29 -254 -12 0
-318 -29 -254 -132 0
-318 -29 -14 -252 0
-318 -29 -14 -12 0
-318 -29 -14 -132 0
-318 -29 -134 -252 0
-318 -29 -134 -12 0
-318 -149 -254 -252 0
-318 -149 -254 -12 0
-318 -149 -254 -132 0
-318 -149 -14 -252 0
-318 -149 -14 -12 0
-318 -149 -14 -132 0
-318 -149 -134 -252 0
-318 -149 -134 -12 0
-78 -269 -254 -12 0
-78 -269 -254 -132 0
-78 -269 -14 -252 0
-78 -269 -14 -12 0
-78 -269 -14 -132 0
-78 -269 -134 -252 0
-78 -269 -134 -12 0
-78 -269 -134 -132 0
-78 -29 -254 -252 0
-78 -29 -254 -12 0
-78 -29 -254 -132 0
-78 -29 -14 -252 0
-78 -29 -14 -132 0
-78 -29 -134 -252 0
-78 -29 -134 -12 0
-78 -29 -134 -132 0
-78 -149 -254 -252 0
-78 -149 -254 -12 0
-78 -149 -254 -132 0
-78 -149 -14 -252 0
-78 -149 -14 -12 0
-78 -149 -14 -132 0
-78 -149 -134 -252 0
-78 -149 -134 -12 0
-198 -269 -254 -12 0
-198 -269 -254 -132 0
-198 -269 -14 -252 0
-198 -269 -14 -12 0
-198 -269 -14 -132 0
-198 -269 -134 -252 0
-198 -269 -134 -12 0
-198 -269 -134 -132 0
-198 -29 -254 -12 0
-198 -29 -254 -132 0
-198 -29 -14 -252 0
-198 -29 -14 -12 0
-198 -29 -14 -132 0
-198 -29 -134 -252 0
-198 -29 -134 -12 0
-198 -29 -134 -132 0
-198 -149 -254 -12 0
-198 -149 -254 -132 0
-198 -149 -14 -12 0
-198 -149 -14 -132 0
-319 -270 -15 -252 0
-319 -270 -15 -12 0
-319 -270 -135 -252 0
-319 -270 -135 -12 0
-319 -30 -255 -252 0
-319 -30 -255 -12 0
-319 -30 -255 -132 0
-319 -30 -15 -252 0
-319 -30 -15 -12 0
-319 -30 -15 -132 0
-319 -30 -135 -252 0
-319 -30 -135 -12 0
-319 -150 -255 -252 0
-319 -150 -255 -12 0
-319 -150 -255 -132 0
-319 -150 -15 -252 0
-319 -150 -15 -12 0
-319 -150 -15 -132 0
-319 -150 -135 -252 0
-319 -150 -135 -12 0
-79 -270 -255 -12 0
-79 -270 -255 -132 0
-79 -270 -15 -252 0
-79 -270 -15 -12 0
-79 -270 -15 -132 0
-79 -270 -135 -252 0
-79 -270 -135 -12 0
-79 -270 -135 -132 0
-79 -30 -255 -252 0
-79 -30 -255 -12 0
-79 -30 -255 -132 0
-79 -30 -15 -252 0
-79 -30 -15 -132 0
-79 -30 -135 -252 0
-79 -30 -135 -12 0
-79 -30 -135 -132 0
-79 -150 -255 -252 0
-79 -150 -255 -12 0
-79 -150 -255 -132 0
-79 -150 -15 -252 0
-79 -150 -15 -12 0
-79 -150 -15 -132 0
-79 -150 -135 -252 0
-79 -150 -135 -12 0
-199 -270 -255 -12 0
-199 -270 -255 -132 0
-199 -270 -15 -252 0
-199 -270 -15 -12 0
-199 -270 -15 -132 0
-199 -270 -135 -252 0
-199 -270 -135 -12 0
-199 -270 -135 -132 0
-199 -30 -255 -12 0
-199 -30 -255 -132 0
-199 -30 -15 -252 0
-199 -30 -15 -12 0
-199 -30 -15 -132 0
-199 -30 -135 -252 0
-199 -30 -135 -12 0
-199 -30 -135 -132 0
-199 -150 -255 -12 0
-199 -150 -255 -132 0
-199 -150 -15 -12 0
-199 -150 -15 -132 0
-320 -271 -16 -252 0
-320 -271 -16 -12 0
-320 -271 -136 -252 0
-320 -271 -136 -12 0
-320 -31 -256 -252 0
-320 -31 -256 -12 0
-320 -31 -256 -132 0
-320 -31 -16 -252 0
-320 -31 -16 -12 0
-320 -31 -16 -132 0
-320 -31 -136 -252 0
-320 -31 -136 -12 0
-320 -151 -256 -252 0
-320 -151 -256 -12 0
-320 -151 -256 -132 0
-320 -151 -16 -252 0
-320 -151 -16 -12 0
-320 -151 -16 -132 0
-320 -151 -136 -252 0
-320 -151 -136 -12 0
-80 -271 -256 -12 0
-80 -271 -256 -132 0
-80 -271 -16 -252 0
-80 -271 -16 -12 0
-80 -271 -16 -132 0
-80 -271 -136 -252 0
-80 -271 -136 -12 0
-80 -271 -136 -132 0
-80 -31 -256 -252 0
-80 -31 -256 -12 0
-80 -31 -256 -132 0
-80 -31 -16 -252 0
-80 -31 -16 -132 0
-80 -31 -136 -252 0
-80 -31 -136 -12 0
-80 -31 -136 -132 0
-80 -151 -256 -252 0
-80 -151 -256 -12 0
-80 -151 -256 -132 0
-80 -151 -16 -252 0
-80 -151 -16 -12 0
-80 -151 -16 -132 0
-80 -151 -136 -252 0
-80 -151 -136 -12 0
-200 -271 -256 -12 0
-200 -271 -256 -132 0
-200 -271 -16 -252 0
-200 -271 -16 -12 0
-200 -271 -16 -132 0
-200 -271 -136 -252 0
-200 -271 -136 -12 0
-200 -271 -136 -132 0
-200 -31 -256 -12 0
-200 -31 -256 -132 0
-200 -31 -16 -252 0
-200 -31 -16 -12 0
-200 -31 -16 -132 0
-200 -31 -136 -252 0
-200 -31 -136 -12 0
-200 -31 -136 -132 0
-200 -151 -256 -12 0
-200 -151 -256 -132 0
-200 -151 -16 -12 0
-200 -151 -16 -132 0
-321 -272 -14 -253 0
-321 -272 -14 -13 0
-321 -272 -134 -253 0
-321 -272 -134 -13 0
-321 -32 -254 -253 0
-321 -32 -254 -13 0
-321 -32 -254 -133 0
-321 -32 -14 -253 0
-321 -32 -14 -13 0
-321 -32 -14 -133 0
-321 -32 -134 -253 0
-321 -32 -134 -13 0
-321 -152 -254 -253 0
-321 -152 -254 -13 0
-321 -152 -254 -133 0
-321 -152 -14 -253 0
-321 -152 -14 -13 0
-321 -152 -14 -133 0
-321 -152 -134 -253 0
-321 -152 -134 -13 0
-81 -272 -254 -13 0
-81 -272 -254 -133 0
-81 -272 -14 -253 0
-81 -272 -14 -13 0
-81 -272 -14 -133 0
-81 -272 -134 -253 0
-81 -272 -134 -13 0
-81 -272 -134 -133 0
-81 -32 -254 -253 0
-81 -32 -254 -13 0
-81 -32 -254 -133 0
-81 -32 -14 -253 0
-81 -32 -14 -133 0
-81 -32 -134 -253 0
-81 -32 -134 -13 0
-81 -32 -134 -133 0
-81 -152 -254 -253 0
-81 -152 -254 -13 0
-81 -152 -254 -133 0
-81 -152 -14 -253 0
-81 -152 -14 -13 0
-81 -152 -14 -133 0
-81 -152 -134 -253 0
-81 -152 -134 -13 0
-201 -272 -254 -13 0
-201 -272 -254 -133 0
-201 -272 -14 -253 0
-201 -272 -14 -13 0
-201 -272 -14 -133 0
-201 -272 -134 -253 0
-201 -272 -134 -13 0
-201 -272 -134 -133 0
-201 -32 -254 -13 0
-201 -32 -254 -133 0
-201 -32 -14 -253 0
-201 -32 -14 -13 0
-201 -32 -14 -133 0
-201 -32 -134 -253 0
-201 -32 -134 -13 0
-201 -32 -134 -133 0
-201 -152 -254 -13 0
-201 -152 -254 -133 0
-201 -152 -14 -13 0
-201 -152 -14 -133 0
-322 -273 -15 -253 0
-322 -273 -15 -13 0
-322 -273 -135 -253 0
-322 -273 -135 -13 0
-322 -33 -255 -253 0
-322 -33 -255 -13 0
-322 -33 -255 -133 0
-322 -33 -15 -253 0
-322 -33 -15 -13 0
-322 -33 -15 -133 0
-322 -33 -135 -253 0
-322 -33 -135 -13 0
-322 -153 -255 -253 0
-322 -153 -255 -13 0
-322 -153 -255 -133 0
-322 -153 -15 -253 0
-322 -153 -15 -13 0
-322 -153 -15 -133 0
-322 -153 -135 -253 0
-322 -153 -135 -13 0
-82 -273 -255 -13 0
-82 -273 -255 -133 0
-82 -273 -15 -253 0
-82 -273 -15 -13 0
-82 -273 -15 -133 0
-82 -273 -135 -253 0
-82 -273 -135 -13 0
-82 -273 -135 -133 0
-82 -33 -255 -253 0
-82 -33 -255 -13 0
-82 -33 -255 -133 0
-82 -33 -15 -253 0
-82 -33 -15 -133 0
-82 -33 -135 -253 0
-82 -33 -135 -13 0
-82 -33 -135 -133 0
-82 -153 -255 -253 0
-82 -153 -255 -13 0
-82 -153 -255 -133 0
-82 -153 -15 -253 0
-82 -153 -15 -13 0
-82 -153 -15 -133 0
-82 -153 -135 -253 0
-82 -153 -135 -13 0
-202 -273 -255 -13 0
-202 -273 -255 -133 0
-202 -273 -15 -253 0
-202 -273 -15 -13 0
-202 -273 -15 -133 0
-202 -273 -135 -253 0
-202 -273 -135 -13 0
-202 -273 -135 -133 0
-202 -33 -255 -13 0
-202 -33 -255 -133 0
-202 -33 -15 -253 0
-202 -33 -15 -13 0
-202 -33 -15 -133 0
-202 -33 -135 -253 0
-202 -33 -135 -13 0
-202 -33 -135 -133 0
-202 -153 -255 -13 0
-202 -153 -255 -133 0
-202 -153 -15 -13 0
-202 -153 -15 -133 0
-323 -274 -16 -253 0
-323 -274 -16 -13 0
-323 -274 -136 -253 0
-323 -274 -136 -13 0
-323 -34 -256 -253 0
-323 -34 -256 -13 0
-323 -34 -256 -133 0
-323 -34 -16 -253 0
-323 -34 -16 -13 0
-323 -34 -16 -133 0
-323 -34 -136 -253 0
-323 -34 -136 -13 0
-323 -154 -256 -253 0
-323 -154 -256 -13 0
-323 -154 -256 -133 0
-323 -154 -16 -253 0
-323 -154 -16 -13 0
-323 -154 -16 -133 0
-323 -154 -136 -253 0
-323 -154 -136 -13 0
-83 -274 -256 -13 0
-83 -274 -256 -133 0
-83 -274 -16 -253 0
-83 -274 -16 -13 0
-83 -274 -16 -133 0
-83 -274 -136 -253 0
-83 -274 -136 -13 0
-83 -274 -136 -133 0
-83 -34 -256 -253 0
-83 -34 -256 -13 0
-83 -34 -256 -133 0
-83 -34 -16 -253 0
-83 -34 -16 -133 0
-83 -34 -136 -253 0
-83 -34 -136 -13 0
-83 -34 -136 -133 0
-83 -154 -256 -253 0
-83 -154 -256 -13 0
-83 -154 -256 -133 0
-83 -154 -16 -253 0
-83 -154 -16 -13 0
-83 -154 -16 -133 0
-83 -154 -136 -253 0
-83 -154 -136 -13 0
-203 -274 -256 -13 0
-203 -274 -256 -133 0
-203 -274 -16 -253 0
-203 -274 -16 -13 0
-203 -274 -16 -133 0
-203 -274 -136 -253 0
-203 -274 -136 -13 0
-203 -274 -136 -133 0
-203 -34 -256 -13 0
-203 -34 -256 -133 0
-203 -34 -16 -253 0
-203 -34 -16 -13 0
-203 -34 -16 -133 0
-203 -34 -136 -253 0
-203 -34 -136 -13 0
-203 -34 -136 -133 0
-203 -154 -256 -13 0
-203 -154 -256 -133 0
-203 -154 -16 -13 0
-203 -154 -16 -133 0
-324 -275 -15 -254 0
-324 -275 -15 -14 0
-324 -275 -135 -254 0
-324 -275 -135 -14 0
-324 -35 -255 -254 0
-324 -35 -255 -14 0
-324 -35 -255 -134 0
-324 -35 -15 -254 0
-324 -35 -15 -14 0
-324 -35 -15 -134 0
-324 -35 -135 -254 0
-324 -35 -135 -14 0
-324 -155 -255 -254 0
-324 -155 -255 -14 0
-324 -155 -255 -134 0
-324 -155 -15 -254 0
-324 -155 -15 -14 0
-324 -155 -15 -134 0
-324 -155 -135 -254 0
-324 -155 -135 -14 0
-84 -275 -255 -14 0
-84 -275 -255 -134 0
-84 -275 -15 -254 0
-84 -275 -15 -14 0
-84 -275 -15 -134 0
-84 -275 -135 -254 0
-84 -275 -135 -14 0
-84 -275 -135 -134 0
-84 -35 -255 -254 0
-84 -35 -255 -14 0
-84 -35 -255 -134 0
-84 -35 -15 -254 0
-84 -35 -15 -134 0
-84 -35 -135 -254 0
-84 -35 -135 -14 0
-84 -35 -135 -134 0
-84 -155 -255 -254 0
-84 -155 -255 -14 0
-84 -155 -255 -134 0
-84 -155 -15 -254 0
-84 -155 -15 -14 0
-84 -155 -15 -134 0
-84 -155 -135 -254 0
-84 -155 -135 -14 0
-204 -275 -255 -14 0
-204 -275 -255 -134 0
-204 -275 -15 -254 0
-204 -275 -15 -14 0
-204 -275 -15 -134 0
-204 -275 -135 -254 0
-204 -275 -135 -14 0
-204 -275 -135 -134 0
-204 -35 -255 -14 0
-204 -35 -255 -134 0
-204 -35 -15 -254 0
-204 -35 -15 -14 0
-204 -35 -15 -134 0
-204 -35 -135 -254 0
-204 -35 -135 -14 0
-204 -35 -135 -134 0
-204 -155 -255 -14 0
-204 -155 -255 -134 0
-204 -155 -15 -14 0
-204 -155 -15 -134 0
-325 -276 -16 -254 0
-325 -276 -16 -14 0
-325 -276 -136 -254 0
-325 -276 -136 -14 0
-325 -36 -256 -254 0
-325 -36 -256 -14 0
-325 -36 -256 -134 0
-325 -36 -16 -254 0
-325 -36 -16 -14 0
-325 -36 -16 -134 0
-325 -36 -136 -254 0
-325 -36 -136 -14 0
-325 -156 -256 -254 0
-325 -156 -256 -14 0
-325 -156 -256 -134 0
-325 -156 -16 -254 0
-325 -156 -16 -14 0
-325 -156 -16 -134 0
-325 -156 -136 -254 0
-325 -156 -136 -14 0
-85 -276 -256 -14 0
-85 -276 -256 -134 0
-85 -276 -16 -254 0
-85 -276 -16 -14 0
-85 -276 -16 -134 0
-85 -276 -136 -254 0
-85 -276 -136 -14 0
-85 -276 -136 -134 0
-85 -36 -256 -254 0
-85 -36 -256 -14 0
-85 -36 -256 -134 0
-85 -36 -16 -254 0
-85 -36 -16 -134 0
-85 -36 -136 -254 0
-85 -36 -136 -14 0
-85 -36 -136 -134 0
-85 -156 -256 -254 0
-85 -156 -256 -14 0
-85 -156 -256 -134 0
-85 -156 -16 -254 0
-85 -156 -16 -14 0
-85 -156 -16 -134 0
-85 -156 -136 -254 0
-85 -156 -136 -14 0
-205 -276 -256 -14 0
-205 -276 -256 -134 0
-205 -276 -16 -254 0
-205 -276 -16 -14 0
-205 -276 -16 -134 0
-205 -276 -136 -254 0
-205 -276 -136 -14 0
-205 -276 -136 -134 0
-205 -36 -256 -14 0
-205 -36 -256 -134 0
-205 -36 -16 -254 0
-205 -36 -16 -14 0
-205 -36 -16 -134 0
-205 -36 -136 -254 0
-205 -36 -136 -14 0
-205 -36 -136 -134 0
-205 -156 -256 -14 0
-205 -156 -256 -134 0
-205 -156 -16 -14 0
-205 -156 -16 -134 0
-326 -277 -16 -255 0
-326 -277 -16 -15 0
-326 -277 -136 -255 0
-326 -277 -136 -15 0
-326 -37 -256 -255 0
-326 -37 -256 -15 0
-326 -37 -256 -135 0
-326 -37 -16 -255 0
-326 -37 -16 -15 0
-326 -37 -16 -135 0
-326 -37 -136 -255 0
-326 -37 -136 -15 0
-326 -157 -256 -255 0
-326 -157 -256 -15 0
-326 -157 -256 -135 0
-326 -157 -16 -255 0
-326 -157 -16 -15 0
-326 -157 -16 -135 0
-326 -157 -136 -255 0
-326 -157 -136 -15 0
-86 -277 -256 -15 0
-86 -277 -256 -135 0
-86 -277 -16 -255 0
-86 -277 -16 -15 0
-86 -277 -16 -135 0
-86 -277 -136 -255 0
-86 -277 -136 -15 0
-86 -277 -136 -135 0
-86 -37 -256 -255 0
-86 -37 -256 -15 0
-86 -37 -256 -135 0
-86 -37 -16 -255 0
-86 -37 -16 -135 0
-86 -37 -136 -255 0
-86 -37 -136 -15 0
-86 -37 -136 -135 0
-86 -157 -256 -255 0
-86 -157 -256 -15 0
-86 -157 -256 -135 0
-86 -157 -16 -255 0
-86 -157 -16 -15 0
-86 -157 -16 -135 0
-86 -157 -136 -255 0
-86 -157 -136 -15 0
-206 -277 -256 -15 0
-206 -277 -256 -135 0
-206 -277 -16 -255 0
-206 -277 -16 -15 0
-206 -277 -16 -135 0
-206 -277 -136 -255 0
-206 -277 -136 -15 0
-206 -277 -136 -135 0
-206 -37 -256 -15 0
-206 -37 -256 -135 0
-206 -37 -16 -255 0
-206 -37 -16 -15 0
-206 -37 -16 -135 0
-206 -37 -136 -255 0
-206 -37 -136 -15 0
-206 -37 -136 -135 0
-206 -157 -256 -15 0
-206 -157 -256 -135 0
-206 -157 -16 -15 0
-206 -157 -16 -135 0
-327 -263 -18 -257 0
-327 -263 -18 -17 0
-327 -263 -138 -257 0
-327 -263 -138 -17 0
-327 -23 -258 -257 0
-327 -23 -258 -17 0
-327 -23 -258 -137 0
-327 -23 -18 -257 0
-327 -23 -18 -17 0
-327 -23 -18 -137 0
-327 -23 -138 -257 0
-327 -23 -138 -17 0
-327 -143 -258 -257 0
-327 -143 -258 -17 0
-327 -143 -258 -137 0
-327 -143 -18 -257 0
-327 -143 -18 -17 0
-327 -143 -18 -137 0
-327 -143 -138 -257 0
-327 -143 -138 -17 0
-87 -263 -258 -17 0
-87 -263 -258 -137 0
-87 -263 -18 -257 0
-87 -263 -18 -17 0
-87 -263 -18 -137 0
-87 -263 -138 -257 0
-87 -263 -138 -17 0
-87 -263 -138 -137 0
-87 -23 -258 -257 0
-87 -23 -258 -17 0
-87 -23 -258 -137 0
-87 -23 -18 -257 0
-87 -23 -18 -137 0
-87 -23 -138 -257 0
-87 -23 -138 -17 0
-87 -23 -138 -137 0
-87 -143 -258 -257 0
-87 -143 -258 -17 0
-87 -143 -258 -137 0
-87 -143 -18 -257 0
-87 -143 -18 -17 0
-87 -143 -18 -137 0
-87 -143 -138 -257 0
-87 -143 -138 -17 0
-207 -263 -258 -17 0
-207 -263 -258 -137 0
-207 -263 -18 -257 0
-207 -263 -18 -17 0
-207 -263 -18 -137 0
-207 -263 -138 -257 0
-207 -263 -138 -17 0
-207 -263 -138 -137 0
-207 -23 -258 -17 0
-207 -23 -258 -137 0
-207 -23 -18 -257 0
-207 -23 -18 -17 0
-207 -23 -18 -137 0
-207 -23 -138 -257 0
-207 -23 -138 -17 0
-207 -23 -138 -137 0
-207 -143 -258 -17 0
-207 -143 -258 -137 0
-207 -143 -18 -17 0
-207 -143 -18 -137 0
-328 -264 -19 -257 0
-328 -264 -19 -17 0
-328 -264 -139 -257 0
-328 -264 -139 -17 0
-328 -24 -259 -257 0
-328 -24 -259 -17 0
-328 -24 -259 -137 0
-328 -24 -19 -257 0
-328 -24 -19 -17 0
-328 -24 -19 -137 0
-328 -24 -139 -257 0
-328 -24 -139 -17 0
-328 -144 -259 -257 0
-328 -144 -259 -17 0
-328 -144 -259 -137 0
-328 -144 -19 -257 0
-328 -144 -19 -17 0
-328 -144 -19 -137 0
-328 -144 -139 -257 0
-328 -144 -139 -17 0
-88 -264 -259 -17 0
-88 -264 -259 -137 0
-88 -264 -19 -257 0
-88 -264 -19 -17 0
-88 -264 -19 -137 0
-88 -264 -139 -257 0
-88 -264 -139 -17 0
-88 -264 -139 -137 0
-88 -24 -259 -257 0
-88 -24 -259 -17 0
-88 -24 -259 -137 0
-88 -24 -19 -257 0
-88 -24 -19 -137 0
-88 -24 -139 -257 0
-88 -24 -139 -17 0
-88 -24 -139 -137 0
-88 -144 -259 -257 0
-88 -144 -259 -17 0
-88 -144 -259 -137 0
-88 -144 -19 -257 0
-88 -144 -19 -17 0
-88 -144 -19 -137 0
-88 -144 -139 -257 0
-88 -144 -139 -17 0
-208 -264 -259 -17 0
-208 -264 -259 -137 0
-208 -264 -19 -257 0
-208 -264 -19 -17 0
-208 -264 -19 -137 0
-208 -264 -139 -257 0
-208 -264 -139 -17 0
-208 -264 -139 -137 0
-208 -24 -259 -17 0
-208 -24 -259 -137 0
-208 -24 -19 -257 0
-208 -24 -19 -17 0
-208 -24 -19 -137 0
-208 -24 -139 -257 0
-208 -24 -139 -17 0
-208 -24 -139 -137 0
-208 -144 -259 -17 0
-208 -144 -259 -137 0
-208 -144 -19 -17 0
-208 -144 -19 -137 0
-329 -265 -20 -257 0
-329 -265 -20 -17 0
-329 -265 -140 -257 0
-329 -265 -140 -17 0
-329 -25 -260 -257 0
-329 -25 -260 -17 0
-329 -25 -260 -137 0
-329 -25 -20 -257 0
-329 -25 -20 -17 0
-329 -25 -20 -137 0
-329 -25 -140 -257 0
-329 -25 -140 -17 0
-329 -145 -260 -257 0
-329 -145 -260 -17 0
-329 -145 -260 -137 0
-329 -145 -20 -257 0
-329 -145 -20 -17 0
-329 -145 -20 -137 0
-329 -145 -140 -257 0
-329 -145 -140 -17 0
-89 -265 -260 -17 0
-89 -265 -260 -137 0
-89 -265 -20 -257 0
-89 -265 -20 -17 0
-89 -265 -20 -137 0
-89 -265 -140 -257 0
-89 -265 -140 -17 0
-89 -265 -140 -137 0
-89 -25 -260 -257 0
-89 -25 -260 -17 0
-89 -25 -260 -137 0
-89 -25 -20 -257 0
-89 -25 -20 -137 0
-89 -25 -140 -257 0
-89 -25 -140 -17 0
-89 -25 -140 -137 0
-89 -145 -260 -257 0
-89 -145 -260 -17 0
-89 -145 -260 -137 0
-89 -145 -20 -257 0
-89 -145 -20 -17 0
-89 -145 -20 -137 0
-89 -145 -140 -257 0
-89 -145 -140 -17 0
-209 -265 -260 -17 0
-209 -265 -260 -137 0
-209 -265 -20 -257 0
-209 -265 -20 -17 0
-209 -265 -20 -137 0
-209 -265 -140 -257 0
-209 -265 -140 -17 0
-209 -265 -140 -137 0
-209 -25 -260 -17 0
-209 -25 -260 -137 0
-209 -25 -20 -257 0
-209 -25 -20 -17 0
-209 -25 -20 -137 0
-209 -25 -140 -257 0
-209 -25 -140 -17 0
-209 -25 -140 -137 0
-209 -145 -260 -17 0
-209 -145 -260 -137 0
-209 -145 -20 -17 0
-209 -145 -20 -137 0
-330 -266 -21 -257 0
-330 -266 -21 -17 0
-330 -266 -141 -257 0
-330 -266 -141 -17 0
-330 -26 -261 -257 0
-330 -26 -261 -17 0
-330 -26 -261 -137 0
-330 -26 -21 -257 0
-330 -26 -21 -17 0
-330 -26 -21 -137 0
-330 -26 -141 -257 0
-330 -26 -141 -17 0
-330 -146 -261 -257 0
-330 -146 -261 -17 0
-330 -146 -261 -137 0
-330 -146 -21 -257 0
-330 -146 -21 -17 0
-330 -146 -21 -137 0
-330 -146 -141 -257 0
-330 -146 -141 -17 0
-90 -266 -261 -17 0
-90 -266 -261 -137 0
-90 -266 -21 -257 0
-90 -266 -21 -17 0
-90 -266 -21 -137 0
-90 -266 -141 -257 0
-90 -266 -141 -17 0
-90 -266 -141 -137 0
-90 -26 -261 -257 0
-90 -26 -261 -17 0
-90 -26 -261 -137 0
-90 -26 -21 -257 0
-90 -26 -21 -137 0
-90 -26 -141 -257 0
-90 -26 -141 -17 0
-90 -26 -141 -137 0
-90 -146 -261 -257 0
-90 -146 -261 -17 0
-90 -146 -261 -137 0
-90 -146 -21 -257 0
-90 -146 -21 -17 0
-90 -146 -21 -137 0
-90 -146 -141 -257 0
-90 -146 -141 -17 0
-210 -266 -261 -17 0
-210 -266 -261 -137 0
-210 -266 -21 -257 0
-210 -266 -21 -17 0
-210 -266 -21 -137 0
-210 -266 -141 -257 0
-210 -266 -141 -17 0
-210 -266 -141 -137 0
-210 -26 -261 -17 0
-210 -26 -261 -137 0
-210 -26 -21 -257 0
-210 -26 -21 -17 0
-210 -26 -21 -137 0
-210 -26 -141 -257 0
-210 -26 -141 -17 0
-210 -26 -141 -137 0
-210 -146 -261 -17 0
-210 -146 -261 -137 0
-210 -146 -21 -17 0
-210 -146 -21 -137 0
-331 -267 -22 -257 0
-331 -267 -22 -17 0
-331 -267 -142 -257 0
-331 -267 -142 -17 0
-331 -27 -262 -257 0
-331 -27 -262 -17 0
-331 -27 -262 -137 0
-331 -27 -22 -257 0
-331 -27 -22 -17 0
-331 -27 -22 -137 0
-331 -27 -142 -257 0
-331 -27 -142 -17 0
-331 -147 -262 -257 0
-331 -147 -262 -17 0
-331 -147 -262 -137 0
-331 -147 -22 -257 0
-331 -147 -22 -17 0
-331 -147 -22 -137 0
-331 -147 -142 -257 0
-331 -147 -142 -17 0
-91 -267 -262 -17 0
-91 -267 -262 -137 0
-91 -267 -22 -257 0
-91 -267 -22 -17 0
-91 -267 -22 -137 0
-91 -267 -142 -257 0
-91 -267 -142 -17 0
-91 -267 -142 -137 0
-91 -27 -262 -257 0
-91 -27 -262 -17 0
-91 -27 -262 -137 0
-91 -27 -22 -257 0
-91 -27 -22 -137 0
-91 -27 -142 -257 0
-91 -27 -142 -17 0
-91 -27 -142 -137 0
-91 -147 -262 -257 0
-91 -147 -262 -17 0
-91 -147 -262 -137 0
-91 -147 -22 -257 0
-91 -147 -22 -17 0
-91 -147 -22 -137 0
-91 -147 -142 -257 0
-91 -147 -142 -17 0
-211 -267 -262 -17 0
-211 -267 -262 -137 0
-211 -267 -22 -257 0
-211 -267 -22 -17 0
-211 -267 -22 -137 0
-211 -267 -142 -257 0
-211 -267 -142 -17 0
-211 -267 -142 -137 0
-211 -27 -262 -17 0
-211 -27 -262 -137 0
-211 -27 -22 -257 0
-211 -27 -22 -17 0
-211 -27 -22 -137 0
-211 -27 -142 -257 0
-211 -27 -142 -17 0
-211 -27 -142 -137 0
-211 -147 -262 -17 0
-211 -147 -262 -137 0
-211 -147 -22 -17 0
-211 -147 -22 -137 0
-332 -268 -19 -258 0
-332 -268 -19 -18 0
-332 -268 -139 -258 0
-332 -268 -139 -18 0
-332 -28 -259 -258 0
-332 -28 -259 -18 0
-332 -28 -259 -138 0
-332 -28 -19 -258 0
-332 -28 -19 -18 0
-332 -28 -19 -138 0
-332 -28 -139 -258 0
-332 -28 -139 -18 0
-332 -148 -259 -258 0
-332 -148 -259 -18 0
-332 -148 -259 -138 0
-332 -148 -19 -258 0
-332 -148 -19 -18 0
-332 -148 -19 -138 0
-332 -148 -139 -258 0
-332 -148 -139 -18 0
-92 -268 -259 -18 0
-92 -268 -259 -138 0
-92 -268 -19 -258 0
-92 -268 -19 -18 0
-92 -268 -19 -138 0
-92 -268 -139 -258 0
-92 -268 -139 -18 0
-92 -268 -139 -138 0
-92 -28 -259 -258 0
-92 -28 -259 -18 0
-92 -28 -259 -138 0
-92 -28 -19 -258 0
-92 -28 -19 -138 0
-92 -28 -139 -258 0
-92 -28 -139 -18 0
-92 -28 -139 -138 0
-92 -148 -259 -258 0
-92 -148 -259 -18 0
-92 -148 -259 -138 0
-92 -148 -19 -258 0
-92 -148 -19 -18 0
-92 -148 -19 -138 0
-92 -148 -139 -258 0
-92 -148 -139 -18 0
-212 -268 -259 -18 0
-212 -268 -259 -138 0
-212 -268 -19 -258 0
-212 -268 -19 -18 0
-212 -268 -19 -138 0
-212 -268 -139 -258 0
-212 -268 -139 -18 0
-212 -268 -139 -138 0
-212 -28 -259 -18 0
-212 -28 -259 -138 0
-212 -28 -19 -258 0
-212 -28 -19 -18 0
-212 -28 -19 -138 0
-212 -28 -139 -258 0
-212 -28 -139 -18 0
-212 -28 -139 -138 0
-212 -148 -259 -18 0
-212 -148 -259 -138 0
-212 -148 -19 -18 0
-212 -148 -19 -138 0
-333 -269 -20 -258 0
-333 -269 -20 -18 0
-333 -269 -140 -258 0
-333 -269 -140 -18 0
-333 -29 -260 -258 0
-333 -29 -260 -18 0
-333 -29 -260 -138 0
-333 -29 -20 -258 0
-333 -29 -20 -18 0
-333 -29 -20 -138 0
-333 -29 -140 -258 0
-333 -29 -140 -18 0
-333 -149 -260 -258 0
-333 -149 -260 -18 0
-333 -149 -260 -138 0
-333 -149 -20 -258 0
-333 -149 -20 -18 0
-333 -149 -20 -138 0
-333 -149 -140 -258 0
-333 -149 -140 -18 0
-93 -269 -260 -18 0
-93 -269 -260 -138 0
-93 -269 -20 -258 0
-93 -269 -20 -18 0
-93 -269 -20 -138 0
-93 -269 -140 -258 0
-93 -269 -140 -18 0
-93 -269 -140 -138 0
-93 -29 -260 -258 0
-93 -29 -260 -18 0
-93 -29 -260 -138 0
-93 -29 -20 -258 0
-93 -29 -20 -138 0
-93 -29 -140 -258 0
-93 -29 -140 -18 0
-93 -29 -140 -138 0
-93 -149 -260 -258 0
-93 -149 -260 -18 0
-93 -149 -260 -138 0
-93 -149 -20 -258 0
-93 -149 -20 -18 0
-93 -149 -20 -138 0
-93 -149 -140 -258 0
-93 -149 -140 -18 0
-213 -269 -260 -18 0
-213 -269 -260 -138 0
-213 -269 -20 -258 0
-213 -269 -20 -18 0
-213 -269 -20 -138 0
-213 -269 -140 -258 0
-213 -269 -140 -18 0
-213 -269 -140 -138 0
-213 -29 -260 -18 0
-213 -29 -260 -138 0
-213 -29 -20 -258 0
-213 -29 -20 -18 0
-213 -29 -20 -138 0
-213 -29 -140 -258 0
-213 -29 -140 -18 0
-213 -29 -140 -138 0
-213 -149 -260 -18 0
-213 -149 -260 -138 0
-213 -149 -20 -18 0
-213 -149 -20 -138 0
-334 -270 -21 -258 0
-334 -270 -21 -18 0
-334 -270 -141 -258 0
-334 -270 -141 -18 0
-334 -30 -261 -258 0
-334 -30 -261 -18 0
-334 -30 -261 -138 0
-334 -30 -21 -258 0
-334 -30 -21 -18 0
-334 -30 -21 -138 0
-334 -30 -141 -258 0
-334 -30 -141 -18 0
-334 -150 -261 -258 0
-334 -150 -261 -18 0
-334 -150 -261 -138 0
-334 -150 -21 -258 0
-334 -150 -21 -18 0
-334 -150 -21 -138 0
-334 -150 -141 -258 0
-334 -150 -141 -18 0
-94 -270 -261 -18 0
-94 -270 -261 -138 0
-94 -270 -21 -258 0
-94 -270 -21 -18 0
-94 -270 -21 -138 0
-94 -270 -141 -258 0
-94 -270 -141 -18 0
-94 -270 -141 -138 0
-94 -30 -261 -258 0
-94 -30 -261 -18 0
-94 -30 -261 -138 0
-94 -30 -21 -258 0
-94 -30 -21 -138 0
-94 -30 -141 -258 0
-94 -30 -141 -18 0
-94 -30 -141 -138 0
-94 -150 -261 -258 0
-94 -150 -261 -18 0
-94 -150 -261 -138 0
-94 -150 -21 -258 0
-94 -150 -21 -18 0
-94 -150 -21 -138 0
-94 -150 -141 -258 0
-94 -150 -141 -18 0
-214 -270 -261 -18 0
-214 -270 -261 -138 0
-214 -270 -21 -258 0
-214 -270 -21 -18 0
-214 -270 -21 -138 0
-214 -270 -141 -258 0
-214 -270 -141 -18 0
-214 -270 -141 -138 0
-214 -30 -261 -18 0
-214 -30 -261 -138 0
-214 -30 -21 -258 0
-214 -30 -21 -18 0
-214 -30 -21 -138 0
-214 -30 -141 -258 0
-214 -30 -141 -18 0
-214 -30 -141 -138 0
-214 -150 -261 -18 0
-214 -150 -261 -138 0
-214 -150 -21 -18 0
-214 -150 -21 -138 0
-335 -271 -22 -258 0
-335 -271 -22 -18 0
-335 -271 -142 -258 0
-335 -271 -142 -18 0
-335 -31 -262 -258 0
-335 -31 -262 -18 0
-335 -31 -262 -138 0
-335 -31 -22 -258 0
-335 -31 -22 -18 0
-335 -31 -22 -138 0
-335 -31 -142 -258 0
-335 -31 -142 -18 0
-335 -151 -262 -258 0
-335 -151 -262 -18 0
-335 -151 -262 -138 0
-335 -151 -22 -258 0
-335 -151 -22 -18 0
-335 -151 -22 -138 0
-335 -151 -142 -258 0
-335 -151 -142 -18 0
-95 -271 -262 -18 0
-95 -271 -262 -138 0
-95 -271 -22 -258 0
-95 -271 -22 -18 0
-95 -271 -22 -138 0
-95 -271 -142 -258 0
-95 -271 -142 -18 0
-95 -271 -142 -138 0
-95 -31 -262 -258 0
-95 -31 -262 -18 0
-95 -31 -262 -138 0
-95 -31 -22 -258 0
-95 -31 -22 -138 0
-95 -31 -142 -258 0
-95 -31 -142 -18 0
-95 -31 -142 -138 0
-95 -151 -262 -258 0
-95 -151 -262 -18 0
-95 -151 -262 -138 0
-95 -151 -22 -258 0
-95 -151 -22 -18 0
-95 -151 -22 -138 0
-95 -151 -142 -258 0
-95 -151 -142 -18 0
-215 -271 -262 -18 0
-215 -271 -262 -138 0
-215 -271 -22 -258 0
-215 -271 -22 -18 0
-215 -271 -22 -138 0
-215 -271 -142 -258 0
-215 -271 -142 -18 0
-215 -271 -142 -138 0
-215 -31 -262 -18 0
-215 -31 -262 -138 0
-215 -31 -22 -258 0
-215 -31 -22 -18 0
-215 -31 -22 -138 0
-215 -31 -142 -258 0
-215 -31 -142 -18 0
-215 -31 -142 -138 0
-215 -151 -262 -18 0
-215 -151 -262 -138 0
-215 -151 -22 -18 0
-215 -151 -22 -138 0
-336 -272 -20 -259 0
-336 -272 -20 -19 0
-336 -272 -140 -259 0
-336 -272 -140 -19 0
-336 -32 -260 -259 0
-336 -32 -260 -19 0
-336 -32 -260 -139 0
-336 -32 -20 -259 0
-336 -32 -20 -19 0
-336 -32 -20 -139 0
-336 -32 -140 -259 0
-336 -32 -140 -19 0
-336 -152 -260 -259 0
-336 -152 -260 -19 0
-336 -152 -260 -139 0
-336 -152 -20 -259 0
-336 -152 -20 -19 0
-336 -152 -20 -139 0
-336 -152 -140 -259 0
-336 -152 -140 -19 0
-96 -272 -260 -19 0
-96 -272 -260 -139 0
-96 -272 -20 -259 0
-96 -272 -20 -19 0
-96 -272 -20 -139 0
-96 -272 -140 -259 0
-96 -272 -140 -19 0
-96 -272 -140 -139 0
-96 -32 -260 -259 0
-96 -32 -260 -19 0
-96 -32 -260 -139 0
-96 -32 -20 -259 0
-96 -32 -20 -139 0
-96 -32 -140 -259 0
-96 -32 -140 -19 0
-96 -32 -140 -139 0
-96 -152 -260 -259 0
-96 -152 -260 -19 0
-96 -152 -260 -139 0
-96 -152 -20 -259 0
-96 -152 -20 -19 0
-96 -152 -20 -139 0
-96 -152 -140 -259 0
-96 -152 -140 -19 0
-216 -272 -260 -19 0
-216 -272 -260 -139 0
-216 -272 -20 -259 0
-216 -272 -20 -19 0
-216 -272 -20 -139 0
-216 -272 -140 -259 0
-216 -272 -140 -19 0
-216 -272 -140 -139 0
-216 -32 -260 -19 0
-216 -32 -260 -139 0
-216 -32 -20 -259 0
-216 -32 -20 -19 0
-216 -32 -20 -139 0
-216 -32 -140 -259 0
-216 -32 -140 -19 0
-216 -32 -140 -139 0
-216 -152 -260 -19 0
-216 -152 -260 -139 0
-216 -152 -20 -19 0
-216 -152 -20 -139 0
-337 -273 -21 -259 0
-337 -273 -21 -19 0
-337 -273 -141 -259 0
-337 -273 -141 -19 0
-337 -33 -261 -259 0
-337 -33 -261 -19 0
-337 -33 -261 -139 0
-337 -33 -21 -259 0
-337 -33 -21 -19 0
-337 -33 -21 -139 0
-337 -33 -141 -259 0
-337 -33 -141 -19 0
-337 -153 -261 -259 0
-337 -153 -261 -19 0
-337 -153 -261 -139 0
-337 -153 -21 -259 0
-337 -153 -21 -19 0
-337 -153 -21 -139 0
-337 -153 -141 -259 0
-337 -153 -141 -19 0
-97 -273 -261 -19 0
-97 -273 -261 -139 0
-97 -273 -21 -259 0
-97 -273 -21 -19 0
-97 -273 -21 -139 0
-97 -273 -141 -259 0
-97 -273 -141 -19 0
-97 -273 -141 -139 0
-97 -33 -261 -259 0
-97 -33 -261 -19 0
-97 -33 -261 -139 0
-97 -33 -21 -259 0
-97 -33 -21 -139 0
-97 -33 -141 -259 0
-97 -33 -141 -19 0
-97 -33 -141 -139 0
-97 -153 -261 -259 0
-97 -153 -261 -19 0
-97 -153 -261 -139 0
-97 -153 -21 -259 0
-97 -153 -21 -19 0
-97 -153 -21 -139 0
-97 -153 -141 -259 0
-97 -153 -141 -19 0
-217 -273 -261 -19 0
-217 -273 -261 -139 0
-217 -273 -21 -259 0
-217 -273 -21 -19 0
-217 -273 -21 -139 0
-217 -273 -141 -259 0
-217 -273 -141 -19 0
-217 -273 -141 -139 0
-217 -33 -261 -19 0
-217 -33 -261 -139 0
-217 -33 -21 -259 0
-217 -33 -21 -19 0
-217 -33 -21 -139 0
-217 -33 -141 -259 0
-217 -33 -141 -19 0
-217 -33 -141 -139 0
-217 -153 -261 -19 0
-217 -153 -261 -139 0
-217 -153 -21 -19 0
-217 -153 -21 -139 0
-338 -274 -22 -259 0
-338 -274 -22 -19 0
-338 -274 -142 -259 0
-338 -274 -142 -19 0
-338 -34 -262 -259 0
-338 -34 -262 -19 0
-338 -34 -262 -139 0
-338 -34 -22 -259 0
-338 -34 -22 -19 0
-338 -34 -22 -139 0
-338 -34 -142 -259 0
-338 -34 -142 -19 0
-338 -154 -262 -259 0
-338 -154 -262 -19 0
-338 -154 -262 -139 0
-338 -154 -22 -259 0
-338 -154 -22 -19 0
-338 -154 -22 -139 0
-338 -154 -142 -259 0
-338 -154 -142 -19 0
-98 -274 -262 -19 0
-98 -274 -262 -139 0
-98 -274 -22 -259 0
-98 -274 -22 -19 0
-98 -274 -22 -139 0
-98 -274 -142 -259 0
-98 -274 -142 -19 0
-98 -274 -142 -139 0
-98 -34 -262 -259 0
-98 -34 -262 -19 0
-98 -34 -262 -139 0
-98 -34 -22 -259 0
-98 -34 -22 -139 0
-98 -34 -142 -259 0
-98 -34 -142 -19 0
-98 -34 -142 -139 0
-98 -154 -262 -259 0
-98 -154 -262 -19 0
-98 -154 -262 -139 0
-98 -154 -22 -259 0
-98 -154 -22 -19 0
-98 -154 -22 -139 0
-98 -154 -142 -259 0
-98 -154 -142 -19 0
-218 -274 -262 -19 0
-218 -274 -262 -139 0
-218 -274 -22 -259 0
-218 -274 -22 -19 0
-218 -274 -22 -139 0
-218 -274 -142 -259 0
-218 -274 -142 -19 0
-218 -274 -142 -139 0
-218 -34 -262 -19 0
-218 -34 -262 -139 0
-218 -34 -22 -259 0
-218 -34 -22 -19 0
-218 -34 -22 -139 0
-218 -34 -142 -259 0
-218 -34 -142 -19 0
-218 -34 -142 -139 0
-218 -154 -262 -19 0
-218 -154 -262 -139 0
-218 -154 -22 -19 0
-218 -154 -22 -139 0
-339 -275 -21 -260 0
-339 -275 -21 -20 0
-339 -275 -141 -260 0
-339 -275 -141 -20 0
-339 -35 -261 -260 0
-339 -35 -261 -20 0
-339 -35 -261 -140 0
-339 -35 -21 -260 0
-339 -35 -21 -20 0
-339 -35 -21 -140 0
-339 -35 -141 -260 0
-339 -35 -141 -20 0
-339 -155 -261 -260 0
-339 -155 -261 -20 0
-339 -155 -261 -140 0
-339 -155 -21 -260 0
-339 -155 -21 -20 0
-339 -155 -21 -140 0
-339 -155 -141 -260 0
-339 -155 -141 -20 0
-99 -275 -261 -20 0
-99 -275 -261 -140 0
-99 -275 -21 -260 0
-99 -275 -21 -20 0
-99 -275 -21 -140 0
-99 -275 -141 -260 0
-99 -275 -141 -20 0
-99 -275 -141 -140 0
-99 -35 -261 -260 0
-99 -35 -261 -20 0
-99 -35 -261 -140 0
-99 -35 -21 -260 0
-99 -35 -21 -140 0
-99 -35 -141 -260 0
-99 -35 -141 -20 0
-99 -35 -141 -140 0
-99 -155 -261 -260 0
-99 -155 -261 -20 0
-99 -155 -261 -140 0
-99 -155 -21 -260 0
-99 -155 -21 -20 0
-99 -155 -21 -140 0
-99 -155 -141 -260 0
-99 -155 -141 -20 0
-219 -275 -261 -20 0
-219 -275 -261 -140 0
-219 -275 -21 -260 0
-219 -275 -21 -20 0
-219 -275 -21 -140 0
-219 -275 -141 -260 0
-219 -275 -141 -20 0
-219 -275 -141 -140 0
-219 -35 -261 -20 0
-219 -35 -261 -140 0
-219 -35 -21 -260 0
-219 -35 -21 -20 0
-219 -35 -21 -140 0
-219 -35 -141 -260 0
-219 -35 -141 -20 0
-219 -35 -141 -140 0
-219 -155 -261 -20 0
-219 -155 -261 -140 0
-219 -155 -21 -20 0
-219 -155 -21 -140 0
-340 -276 -22 -260 0
-340 -276 -22 -20 0
-340 -276 -142 -260 0
-340 -276 -142 -20 0
-340 -36 -262 -260 0
-340 -36 -262 -20 0
-340 -36 -262 -140 0
-340 -36 -22 -260 0
-340 -36 -22 -20 0
-340 -36 -22 -140 0
-340 -36 -142 -260 0
-340 -36 -142 -20 0
-340 -156 -262 -260 0
-340 -156 -262 -20 0
-340 -156 -262 -140 0
-340 -156 -22 -260 0
-340 -156 -22 -20 0
-340 -156 -22 -140 0
-340 -156 -142 -260 0
-340 -156 -142 -20 0
-100 -276 -262 -20 0
-100 -276 -262 -140 0
-100 -276 -22 -260 0
-100 -276 -22 -20 0
-100 -276 -22 -140 0
-100 -276 -142 -260 0
-100 -276 -142 -20 0
-100 -276 -142 -140 0
-100 -36 -262 -260 0
-100 -36 -262 -20 0
-100 -36 -262 -140 0
-100 -36 -22 -260 0
-100 -36 -22 -140 0
-100 -36 -142 -260 0
-100 -36 -142 -20 0
-100 -36 -142 -140 0
-100 -156 -262 -260 0
-100 -156 -262 -20 0
-100 -156 -262 -140 0
-100 -156 -22 -260 0
-100 -156 -22 -20 0
-100 -156 -22 -140 0
-100 -156 -142 -260 0
-100 -156 -142 -20 0
-220 -276 -262 -20 0
-220 -276 -262 -140 0
-220 -276 -22 -260 0
-220 -276 -22 -20 0
-220 -276 -22 -140 0
-220 -276 -142 -260 0
-220 -276 -142 -20 0
-220 -276 -142 -140 0
-220 -36 -262 -20 0
-220 -36 -262 -140 0
-220 -36 -22 -260 0
-220 -36 -22 -20 0
-220 -36 -22 -140 0
-220 -36 -142 -260 0
-220 -36 -142 -20 0
-220 -36 -142 -140 0
-220 -156 -262 -20 0
-220 -156 -262 -140 0
-220 -156 -22 -20 0
-220 -156 -22 -140 0
-341 -277 -22 -261 0
-341 -277 -22 -21 0
-341 -277 -142 -261 0
-341 -277 -142 -21 0
-341 -37 -262 -261 0
-341 -37 -262 -21 0
-341 -37 -262 -141 0
-341 -37 -22 -261 0
-341 -37 -22 -21 0
-341 -37 -22 -141 0
-341 -37 -142 -261 0
-341 -37 -142 -21 0
-341 -157 -262 -261 0
-341 -157 -262 -21 0
-341 -157 -262 -141 0
-341 -157 -22 -261 0
-341 -157 -22 -21 0
-341 -157 -22 -141 0
-341 -157 -142 -261 0
-341 -157 -142 -21 0
-101 -277 -262 -21 0
-101 -277 -262 -141 0
-101 -277 -22 -261 0
-101 -277 -22 -21 0
-101 -277 -22 -141 0
-101 -277 -142 -261 0
-101 -277 -142 -21 0
-101 -277 -142 -141 0
-101 -37 -262 -261 0
-101 -37 -262 -21 0
-101 -37 -262 -141 0
-101 -37 -22 -261 0
-101 -37 -22 -141 0
-101 -37 -142 -261 0
-101 -37 -142 -21 0
-101 -37 -142 -141 0
-101 -157 -262 -261 0
-101 -157 -262 -21 0
-101 -157 -262 -141 0
-101 -157 -22 -261 0
-101 -157 -22 -21 0
-101 -157 -22 -141 0
-101 -157 -142 -261 0
-101 -157 -142 -21 0
-221 -277 -262 -21 0
-221 -277 -262 -141 0
-221 -277 -22 -261 0
-221 -277 -22 -21 0
-221 -277 -22 -141 0
-221 -277 -142 -261 0
-221 -277 -142 -21 0
-221 -277 -142 -141 0
-221 -37 -262 -21 0
-221 -37 -262 -141 0
-221 -37 -22 -261 0
-221 -37 -22 -21 0
-221 -37 -22 -141 0
-221 -37 -142 -261 0
-221 -37 -142 -21 0
-221 -37 -142 -141 0
-221 -157 -262 -21 0
-221 -157 -262 -141 0
-221 -157 -22 -21 0
-221 -157 -22 -141 0
-342 -268 -24 -263 0
-342 -268 -24 -23 0
-342 -268 -144 -263 0
-342 -268 -144 -23 0
-342 -28 -264 -263 0
-342 -28 -264 -23 0
-342 -28 -264 -143 0
-342 -28 -24 -263 0
-342 -28 -24 -23 0
-342 -28 -24 -143 0
-342 -28 -144 -263 0
-342 -28 -144 -23 0
-342 -148 -264 -263 0
-342 -148 -264 -23 0
-342 -148 -264 -143 0
-342 -148 -24 -263 0
-342 -148 -24 -23 0
-342 -148 -24 -143 0
-342 -148 -144 -263 0
-342 -148 -144 -23 0
-102 -268 -264 -23 0
-102 -268 -264 -143 0
-102 -268 -24 -263 0
-102 -268 -24 -23 0
-102 -268 -24 -143 0
-102 -268 -144 -263 0
-102 -268 -144 -23 0
-102 -268 -144 -143 0
-102 -28 -264 -263 0
-102 -28 -264 -23 0
-102 -28 -264 -143 0
-102 -28 -24 -263 0
-102 -28 -24 -143 0
-102 -28 -144 -263 0
-102 -28 -144 -23 0
-102 -28 -144 -143 0
-102 -148 -264 -263 0
-102 -148 -264 -23 0
-102 -148 -264 -143 0
-102 -148 -24 -263 0
-102 -148 -24 -23 0
-102 -148 -24 -143 0
-102 -148 -144 -263 0
-102 -148 -144 -23 0
-222 -268 -264 -23 0
-222 -268 -264 -143 0
-222 -268 -24 -263 0
-222 -268 -24 -23 0
-222 -268 -24 -143 0
-222 -268 -144 -263 0
-222 -268 -144 -23 0
-222 -268 -144 -143 0
-222 -28 -264 -23 0
-222 -28 -264 -143 0
-222 -28 -24 -263 0
-222 -28 -24 -23 0
-222 -28 -24 -143 0
-222 -28 -144 -263 0
-222 -28 -144 -23 0
-222 -28 -144 -143 0
-222 -148 -264 -23 0
-222 -148 -264 -143 0
-222 -148 -24 -23 0
-222 -148 -24 -143 0
-343 -269 -25 -263 0
-343 -269 -25 -23 0
-343 -269 -145 -263 0
-343 -269 -145 -23 0
-343 -29 -265 -263 0
-343 -29 -265 -23 0
-343 -29 -265 -143 0
-343 -29 -25 -263 0
-343 -29 -25 -23 0
-343 -29 -25 -143 0
-343 -29 -145 -263 0
-343 -29 -145 -23 0
-343 -149 -265 -263 0
-343 -149 -265 -23 0
-343 -149 -265 -143 0
-343 -149 -25 -263 0
-343 -149 -25 -23 0
-343 -149 -25 -143 0
-343 -149 -145 -263 0
-343 -149 -145 -23 0
-103 -269 -265 -23 0
-103 -269 -265 -143 0
-103 -269 -25 -263 0
-103 -269 -25 -23 0
-103 -269 -25 -143 0
-103 -269 -145 -263 0
-103 -269 -145 -23 0
-103 -269 -145 -143 0
-103 -29 -265 -263 0
-103 -29 -265 -23 0
-103 -29 -265 -143 0
-103 -29 -25 -263 0
-103 -29 -25 -143 0
-103 -29 -145 -263 0
-103 -29 -145 -23 0
-103 -29 -145 -143 0
-103 -149 -265 -263 0
-103 -149 -265 -23 0
-103 -149 -265 -143 0
-103 -149 -25 -263 0
-103 -149 -25 -23 0
-103 -149 -25 -143 0
-103 -149 -145 -263 0
-103 -149 -145 -23 0
-223 -269 -265 -23 0
-223 -269 -265 -143 0
-223 -269 -25 -263 0
-223 -269 -25 -23 0
-223 -269 -25 -143 0
-223 -269 -145 -263 0
-223 -269 -145 -23 0
-223 -269 -145 -143 0
-223 -29 -265 -23 0
-223 -29 -265 -143 0
-223 -29 -25 -263 0
-223 -29 -25 -23 0
-223 -29 -25 -143 0
-223 -29 -145 -263 0
-223 -29 -145 -23 0
-223 -29 -145 -143 0
-223 -149 -265 -23 0
-223 -149 -265 -143 0
-223 -149 -25 -23 0
-223 -149 -25 -143 0
-344 -270 -26 -263 0
-344 -270 -26 -23 0
-344 -270 -146 -263 0
-344 -270 -146 -23 0
-344 -30 -266 -263 0
-344 -30 -266 -23 0
-344 -30 -266 -143 0
-344 -30 -26 -263 0
-344 -30 -26 -23 0
-344 -30 -26 -143 0
-344 -30 -146 -263 0
-344 -30 -146 -23 0
-344 -150 -266 -263 0
-344 -150 -266 -23 0
-344 -150 -266 -143 0
-344 -150 -26 -263 0
-344 -150 -26 -23 0
-344 -150 -26 -143 0
-344 -150 -146 -263 0
-344 -150 -146 -23 0
-104 -270 -266 -23 0
-104 -270 -266 -143 0
-104 -270 -26 -263 0
-104 -270 -26 -23 0
-104 -270 -26 -143 0
-104 -270 -146 -263 0
-104 -270 -146 -23 0
-104 -270 -146 -143 0
-104 -30 -266 -263 0
-104 -30 -266 -23 0
-104 -30 -266 -143 0
-104 -30 -26 -263 0
-104 -30 -26 -143 0
-104 -30 -146 -263 0
-104 -30 -146 -23 0
-104 -30 -146 -143 0
-104 -150 -266 -263 0
-104 -150 -266 -23 0
-104 -150 -266 -143 0
-104 -150 -26 -263 0
-104 -150 -26 -23 0
-104 -150 -26 -143 0
-104 -150 -146 -263 0
-104 -150 -146 -23 0
-224 -270 -266 -23 0
-224 -270 -266 -143 0
-224 -270 -26 -263 0
-224 -270 -26 -23 0
-224 -270 -26 -143 0
-224 -270 -146 -263 0
-224 -270 -146 -23 0
-224 -270 -146 -143 0
-224 -30 -266 -23 0
-224 -30 -266 -143 0
-224 -30 -26 -263 0
-224 -30 -26 -23 0
-224 -30 -26 -143 0
-224 -30 -146 -263 0
-224 -30 -146 -23 0
-224 -30 -146 -143 0
-224 -150 -266 -23 0
-224 -150 -266 -143 0
-224 -150 -26 -23 0
-224 -150 -26 -143 0
-345 -271 -27 -263 0
-345 -271 -27 -23 0
-345 -271 -147 -263 0
-345 -271 -147 -23 0
-345 -31 -267 -263 0
-345 -31 -267 -23 0
-345 -31 -267 -143 0
-345 -31 -27 -263 0
-345 -31 -27 -23 0
-345 -31 -27 -143 0
-345 -31 -147 -263 0
-345 -31 -147 -23 0
-345 -151 -267 -263 0
-345 -151 -267 -23 0
-345 -151 -267 -143 0
-345 -151 -27 -263 0
-345 -151 -27 -23 0
-345 -151 -27 -143 0
-345 -151 -147 -263 0
-345 -151 -147 -23 0
-105 -271 -267 -23 0
-105 -271 -267 -143 0
-105 -271 -27 -263 0
-105 -271 -27 -23 0
-105 -271 -27 -143 0
-105 -271 -147 -263 0
-105 -271 -147 -23 0
-105 -271 -147 -143 0
-105 -31 -267 -263 0
-105 -31 -267 -23 0
-105 -31 -267 -143 0
-105 -31 -27 -263 0
-105 -31 -27 -143 0
-105 -31 -147 -263 0
-105 -31 -147 -23 0
-105 -31 -147 -143 0
-105 -151 -267 -263 0
-105 -151 -267 -23 0
-105 -151 -267 -143 0
-105 -151 -27 -263 0
-105 -151 -27 -23 0
-105 -151 -27 -143 0
-105 -151 -147 -263 0
-105 -151 -147 -23 0
-225 -271 -267 -23 0
-225 -271 -267 -143 0
-225 -271 -27 -263 0
-225 -271 -27 -23 0
-225 -271 -27 -143 0
-225 -271 -147 -263 0
-225 -271 -147 -23 0
-225 -271 -147 -143 0
-225 -31 -267 -23 0
-225 -31 -267 -143 0
-225 -31 -27 -263 0
-225 -31 -27 -23 0
-225 -31 -27 -143 0
-225 -31 -147 -263 0
-225 -31 -147 -23 0
-225 -31 -147 -143 0
-225 -151 -267 -23 0
-225 -151 -267 -143 0
-225 -151 -27 -23 0
-225 -151 -27 -143 0
-346 -272 -25 -264 0
-346 -272 -25 -24 0
-346 -272 -145 -264 0
-346 -272 -145 -24 0
-346 -32 -265 -264 0
-346 -32 -265 -24 0
-346 -32 -265 -144 0
-346 -32 -25 -264 0
-346 -32 -25 -24 0
-346 -32 -25 -144 0
-346 -32 -145 -264 0
-346 -32 -145 -24 0
-346 -152 -265 -264 0
-346 -152 -265 -24 0
-346 -152 -265 -144 0
-346 -152 -25 -264 0
-346 -152 -25 -24 0
-346 -152 -25 -144 0
-346 -152 -145 -264 0
-346 -152 -145 -24 0
-106 -272 -265 -24 0
-106 -272 -265 -144 0
-106 -272 -25 -264 0
-106 -272 -25 -24 0
-106 -272 -25 -144 0
-106 -272 -145 -264 0
-106 -272 -145 -24 0
-106 -272 -145 -144 0
-106 -32 -265 -264 0
-106 -32 -265 -24 0
-106 -32 -265 -144 0
-106 -32 -25 -264 0
-106 -32 -25 -144 0
-106 -32 -145 -264 0
-106 -32 -145 -24 0
-106 -32 -145 -144 0
-106 -152 -265 -264 0
-106 -152 -265 -24 0
-106 -152 -265 -144 0
-106 -152 -25 -264 0
-106 -152 -25 -24 0
-106 -152 -25 -144 0
-106 -152 -145 -264 0
-106 -152 -145 -24 0
-226 -272 -265 -24 0
-226 -272 -265 -144 0
-226 -272 -25 -264 0
-226 -272 -25 -24 0
-226 -272 -25 -144 0
-226 -272 -145 -264 0
-226 -272 -145 -24 0
-226 -272 -145 -144 0
-226 -32 -265 -24 0
-226 -32 -265 -144 0
-226 -32 -25 -264 0
-226 -32 -25 -24 0
-226 -32 -25 -144 0
-226 -32 -145 -264 0
-226 -32 -145 -24 0
-226 -32 -145 -144 0
-226 -152 -265 -24 0
-226 -152 -265 -144 0
-226 -152 -25 -24 0
-226 -152 -25 -144 0
-347 -273 -26 -264 0
-347 -273 -26 -24 0
-347 -273 -146 -264 0
-347 -273 -146 -24 0
-347 -33 -266 -264 0
-347 -33 -266 -24 0
-347 -33 -266 -144 0
-347 -33 -26 -264 0
-347 -33 -26 -24 0
-347 -33 -26 -144 0
-347 -33 -146 -264 0
-347 -33 -146 -24 0
-347 -153 -266 -264 0
-347 -153 -266 -24 0
-347 -153 -266 -144 0
-347 -153 -26 -264 0
-347 -153 -26 -24 0
-347 -153 -26 -144 0
-347 -153 -146 -264 0
-347 -153 -146 -24 0
-107 -273 -266 -24 0
-107 -273 -266 -144 0
-107 -273 -26 -264 0
-107 -273 -26 -24 0
-107 -273 -26 -144 0
-107 -273 -146 -264 0
-107 -273 -146 -24 0
-107 -273 -146 -144 0
-107 -33 -266 -264 0
-107 -33 -266 -24 0
-107 -33 -266 -144 0
-107 -33 -26 -264 0
-107 -33 -26 -144 0
-107 -33 -146 -264 0
-107 -33 -146 -24 0
-107 -33 -146 -144 0
-107 -153 -266 -264 0
-107 -153 -266 -24 0
-107 -153 -266 -144 0
-107 -153 -26 -264 0
-107 -153 -26 -24 0
-107 -153 -26 -144 0
-107 -153 -146 -264 0
-107 -153 -146 -24 0
-227 -273 -266 -24 0
-227 -273 -266 -144 0
-227 -273 -26 -264 0
-227 -273 -26 -24 0
-227 -273 -26 -144 0
-227 -273 -146 -264 0
-227 -273 -146 -24 0
-227 -273 -146 -144 0
-227 -33 -266 -24 0
-227 -33 -266 -144 0
-227 -33 -26 -264 0
-227 -33 -26 -24 0
-227 -33 -26 -144 0
-227 -33 -146 -264 0
-227 -33 -146 -24 0
-227 -33 -146 -144 0
-227 -153 -266 -24 0
-227 -153 -266 -144 0
-227 -153 -26 -24 0
-227 -153 -26 -144 0
-348 -274 -27 -264 0
-348 -274 -27 -24 0
-348 -274 -147 -264 0
-348 -274 -147 -24 0
-348 -34 -267 -264 0
-348 -34 -267 -24 0
-348 -34 -267 -144 0
-348 -34 -27 -264 0
-348 -34 -27 -24 0
-348 -34 -27 -144 0
-348 -34 -147 -264 0
-348 -34 -147 -24 0
-348 -154 -267 -264 0
-348 -154 -267 -24 0
-348 -154 -267 -144 0
-348 -154 -27 -264 0
-348 -154 -27 -24 0
-348 -154 -27 -144 0
-348 -154 -147 -264 0
-348 -154 -147 -24 0
-108 -274 -267 -24 0
-108 -274 -267 -144 0
-108 -274 -27 -264 0
-108 -274 -27 -24 0
-108 -274 -27 -144 0
-108 -274 -147 -264 0
-108 -274 -147 -24 0
-108 -274 -147 -144 0
-108 -34 -267 -264 0
-108 -34 -267 -24 0
-108 -34 -267 -144 0
-108 -34 -27 -264 0
-108 -34 -27 -144 0
-108 -34 -147 -264 0
-108 -34 -147 -24 0
-108 -34 -147 -144 0
-108 -154 -267 -264 0
-108 -154 -267 -24 0
-108 -154 -267 -144 0
-108 -154 -27 -264 0
-108 -154 -27 -24 0
-108 -154 -27 -144 0
-108 -154 -147 -264 0
-108 -154 -147 -24 0
-228 -274 -267 -24 0
-228 -274 -267 -144 0
-228 -274 -27 -264 0
-228 -274 -27 -24 0
-228 -274 -27 -144 0
-228 -274 -147 -264 0
-228 -274 -147 -24 0
-228 -274 -147 -144 0
-228 -34 -267 -24 0
-228 -34 -267 -144 0
-228 -34 -27 -264 0
-228 -34 -27 -24 0
-228 -34 -27 -144 0
-228 -34 -147 -264 0
-228 -34 -147 -24 0
-228 -34 -147 -144 0
-228 -154 -267 -24 0
-228 -154 -267 -144 0
-228 -154 -27 -24 0
-228 -154 -27 -144 0
-349 -275 -26 -265 0
-349 -275 -26 -25 0
-349 -275 -146 -265 0
-349 -275 -146 -25 0
-349 -35 -266 -265 0
-349 -35 -266 -25 0
-349 -35 -266 -145 0
-349 -35 -26 -265 0
-349 -35 -26 -25 0
-349 -35 -26 -145 0
-349 -35 -146 -265 0
-349 -35 -146 -25 0
-349 -155 -266 -265 0
-349 -155 -266 -25 0
-349 -155 -266 -145 0
-349 -155 -26 -265 0
-349 -155 -26 -25 0
-349 -155 -26 -145 0
-349 -155 -146 -265 0
-349 -155 -146 -25 0
-109 -275 -266 -25 0
-109 -275 -266 -145 0
-109 -275 -26 -265 0
-109 -275 -26 -25 0
-109 -275 -26 -145 0
-109 -275 -146 -265 0
-109 -275 -146 -25 0
-109 -275 -146 -145 0
-109 -35 -266 -265 0
-109 -35 -266 -25 0
-109 -35 -266 -145 0
-109 -35 -26 -265 0
-109 -35 -26 -145 0
-109 -35 -146 -265 0
-109 -35 -146 -25 0
-109 -35 -146 -145 0
-109 -155 -266 -265 0
-109 -155 -266 -25 0
-109 -155 -266 -145 0
-109 -155 -26 -265 0
-109 -155 -26 -25 0
-109 -155 -26 -145 0
-109 -155 -146 -265 0
-109 -155 -146 -25 0
-229 -275 -266 -25 0
-229 -275 -266 -145 0
-229 -275 -26 -265 0
-229 -275 -26 -25 0
-229 -275 -26 -145 0
-229 -275 -146 -265 0
-229 -275 -146 -25 0
-229 -275 -146 -145 0
-229 -35 -266 -25 0
-229 -35 -266 -145 0
-229 -35 -26 -265 0
-229 -35 -26 -25 0
-229 -35 -26 -145 0
-229 -35 -146 -265 0
-229 -35 -146 -25 0
-229 -35 -146 -145 0
-229 -155 -266 -25 0
-229 -155 -266 -145 0
-229 -155 -26 -25 0
-229 -155 -26 -145 0
-350 -276 -27 -265 0
-350 -276 -27 -25 0
-350 -276 -147 -265 0
-350 -276 -147 -25 0
-350 -36 -267 -265 0
-350 -36 -267 -25 0
-350 -36 -267 -145 0
-350 -36 -27 -265 0
-350 -36 -27 -25 0
-350 -36 -27 -145 0
-350 -36 -147 -265 0
-350 -36 -147 -25 0
-350 -156 -267 -265 0
-350 -156 -267 -25 0
-350 -156 -267 -145 0
-350 -156 -27 -265 0
-350 -156 -27 -25 0
-350 -156 -27 -145 0
-350 -156 -147 -265 0
-350 -156 -147 -25 0
-110 -276 -267 -25 0
-110 -276 -267 -145 0
-110 -276 -27 -265 0
-110 -276 -27 -25 0
-110 -276 -27 -145 0
-110 -276 -147 -265 0
-110 -276 -147 -25 0
-110 -276 -147 -145 0
-110 -36 -267 -265 0
-110 -36 -267 -25 0
-110 -36 -267 -145 0
-110 -36 -27 -265 0
-110 -36 -27 -145 0
-110 -36 -147 -265 0
-110 -36 -147 -25 0
-110 -36 -147 -145 0
-110 -156 -267 -265 0
-110 -156 -267 -25 0
-110 -156 -267 -145 0
-110 -156 -27 -265 0
-110 -156 -27 -25 0
-110 -156 -27 -145 0
-110 -156 -147 -265 0
-110 -156 -147 -25 0
-230 -276 -267 -25 0
-230 -276 -267 -145 0
-230 -276 -27 -265 0
-230 -276 -27 -25 0
-230 -276 -27 -145 0
-230 -276 -147 -265 0
-230 -276 -147 -25 0
-230 -276 -147 -145 0
-230 -36 -267 -25 0
-230 -36 -267 -145 0
-230 -36 -27 -265 0
-230 -36 -27 -25 0
-230 -36 -27 -145 0
-230 -36 -147 -265 0
-230 -36 -147 -25 0
-230 -36 -147 -145 0
-230 -156 -267 -25 0
-230 -156 -267 -145 0
-230 -156 -27 -25 0
-230 -156 -27 -145 0
-351 -277 -27 -266 0
-351 -277 -27 -26 0
-351 -277 -147 -266 0
-351 -277 -147 -26 0
-351 -37 -267 -266 0
-351 -37 -267 -26 0
-351 -37 -267 -146 0
-351 -37 -27 -266 0
-351 -37 -27 -26 0
-351 -37 -27 -146 0
-351 -37 -147 -266 0
-351 -37 -147 -26 0
-351 -157 -267 -266 0
-351 -157 -267 -26 0
-351 -157 -267 -146 0
-351 -157 -27 -266 0
-351 -157 -27 -26 0
-351 -157 -27 -146 0
-351 -157 -147 -266 0
-351 -157 -147 -26 0
-111 -277 -267 -26 0
-111 -277 -267 -146 0
-111 -277 -27 -266 0
-111 -277 -27 -26 0
-111 -277 -27 -146 0
-111 -277 -147 -266 0
-111 -277 -147 -26 0
-111 -277 -147 -146 0
-111 -37 -267 -266 0
-111 -37 -267 -26 0
-111 -37 -267 -146 0
-111 -37 -27 -266 0
-111 -37 -27 -146 0
-111 -37 -147 -266 0
-111 -37 -147 -26 0
-111 -37 -147 -146 0
-111 -157 -267 -266 0
-111 -157 -267 -26 0
-111 -157 -267 -146 0
-111 -157 -27 -266 0
-111 -157 -27 -26 0
-111 -157 -27 -146 0
-111 -157 -147 -266 0
-111 -157 -147 -26 0
-231 -277 -267 -26 0
-231 -277 -267 -146 0
-231 -277 -27 -266 0
-231 -277 -27 -26 0
-231 -277 -27 -146 0
-231 -277 -147 -266 0
-231 -277 -147 -26 0
-231 -277 -147 -146 0
-231 -37 -267 -26 0
-231 -37 -267 -146 0
-231 -37 -27 -266 0
-231 -37 -27 -26 0
-231 -37 -27 -146 0
-231 -37 -147 -266 0
-231 -37 -147 -26 0
-231 -37 -147 -146 0
-231 -157 -267 -26 0
-231 -157 -267 -146 0
-231 -157 -27 -26 0
-231 -157 -27 -146 0
-352 -272 -29 -268 0
-352 -272 -29 -28 0
-352 -272 -149 -268 0
-352 -272 -149 -28 0
-352 -32 -269 -268 0
-352 -32 -269 -28 0
-352 -32 -269 -148 0
-352 -32 -29 -268 0
-352 -32 -29 -28 0
-352 -32 -29 -148 0
-352 -32 -149 -268 0
-352 -32 -149 -28 0
-352 -152 -269 -268 0
-352 -152 -269 -28 0
-352 -152 -269 -148 0
-352 -152 -29 -268 0
-352 -152 -29 -28 0
-352 -152 -29 -148 0
-352 -152 -149 -268 0
-352 -152 -149 -28 0
-112 -272 -269 -28 0
-112 -272 -269 -148 0
-112 -272 -29 -268 0
-112 -272 -29 -28 0
-112 -272 -29 -148 0
-112 -272 -149 -268 0
-112 -272 -149 -28 0
-112 -272 -149 -148 0
-112 -32 -269 -268 0
-112 -32 -269 -28 0
-112 -32 -269 -148 0
-112 -32 -29 -268 0
-112 -32 -29 -148 0
-112 -32 -149 -268 0
-112 -32 -149 -28 0
-112 -32 -149 -148 0
-112 -152 -269 -268 0
-112 -152 -269 -28 0
-112 -152 -269 -148 0
-112 -152 -29 -268 0
-112 -152 -29 -28 0
-112 -152 -29 -148 0
-112 -152 -149 -268 0
-112 -152 -149 -28 0
-232 -272 -269 -28 0
-232 -272 -269 -148 0
-232 -272 -29 -268 0
-232 -272 -29 -28 0
-232 -272 -29 -148 0
-232 -272 -149 -268 0
-232 -272 -149 -28 0
-232 -272 -149 -148 0
-232 -32 -269 -28 0
-232 -32 -269 -148 0
-232 -32 -29 -268 0
-232 -32 -29 -28 0
-232 -32 -29 -148 0
-232 -32 -149 -268 0
-232 -32 -149 -28 0
-232 -32 -149 -148 0
-232 -152 -269 -28 0
-232 -152 -269 -148 0
-232 -152 -29 -28 0
-232 -152 -29 -148 0
-353 -273 -30 -268 0
-353 -273 -30 -28 0
-353 -273 -150 -268 0
-353 -273 -150 -28 0
-353 -33 -270 -268 0
-353 -33 -270 -28 0
-353 -33 -270 -148 0
-353 -33 -30 -268 0
-353 -33 -30 -28 0
-353 -33 -30 -148 0
-353 -33 -150 -268 0
-353 -33 -150 -28 0
-353 -153 -270 -268 0
-353 -153 -270 -28 0
-353 -153 -270 -148 0
-353 -153 -30 -268 0
-353 -153 -30 -28 0
-353 -153 -30 -148 0
-353 -153 -150 -268 0
-353 -153 -150 -28 0
-113 -273 -270 -28 0
-113 -273 -270 -148 0
-113 -273 -30 -268 0
-113 -273 -30 -28 0
-113 -273 -30 -148 0
-113 -273 -150 -268 0
-113 -273 -150 -28 0
-113 -273 -150 -148 0
-113 -33 -270 -268 0
-113 -33 -270 -28 0
-113 -33 -270 -148 0
-113 -33 -30 -268 0
-113 -33 -30 -148 0
-113 -33 -150 -268 0
-113 -33 -150 -28 0
-113 -33 -150 -148 0
-113 -153 -270 -268 0
-113 -153 -270 -28 0
-113 -153 -270 -148 0
-113 -153 -30 -268 0
-113 -153 -30 -28 0
-113 -153 -30 -148 0
-113 -153 -150 -268 0
-113 -153 -150 -28 0
-233 -273 -270 -28 0
-233 -273 -270 -148 0
-233 -273 -30 -268 0
-233 -273 -30 -28 0
-233 -273 -30 -148 0
-233 -273 -150 -268 0
-233 -273 -150 -28 0
-233 -273 -150 -148 0
-233 -33 -270 -28 0
-233 -33 -270 -148 0
-233 -33 -30 -268 0
-233 -33 -30 -28 0
-233 -33 -30 -148 0
-233 -33 -150 -268 0
-233 -33 -150 -28 0
-233 -33 -150 -148 0
-233 -153 -270 -28 0
-233 -153 -270 -148 0
-233 -153 -30 -28 0
-233 -153 -30 -148 0
-354 -274 -31 -268 0
-354 -274 -31 -28 0
-354 -274 -151 -268 0
-354 -274 -151 -28 0
-354 -34 -271 -268 0
-354 -34 -271 -28 0
-354 -34 -271 -148 0
-354 -34 -31 -268 0
-354 -34 -31 -28 0
-354 -34 -31 -148 0
-354 -34 -151 -268 0
-354 -34 -151 -28 0
-354 -154 -271 -268 0
-354 -154 -271 -28 0
-354 -154 -271 -148 0
-354 -154 -31 -268 0
-354 -154 -31 -28 0
-354 -154 -31 -148 0
-354 -154 -151 -268 0
-354 -154 -151 -28 0
-114 -274 -271 -28 0
-114 -274 -271 -148 0
-114 -274 -31 -268 0
-114 -274 -31 -28 0
-114 -274 -31 -148 0
-114 -274 -151 -268 0
-114 -274 -151 -28 0
-114 -274 -151 -148 0
-114 -34 -271 -268 0
-114 -34 -271 -28 0
-114 -34 -271 -148 0
-114 -34 -31 -268 0
-114 -34 -31 -148 0
-114 -34 -151 -268 0
-114 -34 -151 -28 0
-114 -34 -151 -148 0
-114 -154 -271 -268 0
-114 -154 -271 -28 0
-114 -154 -271 -148 0
-114 -154 -31 -268 0
-114 -154 -31 -28 0
-114 -154 -31 -148 0
-114 -154 -151 -268 0
-114 -154 -151 -28 0
-234 -274 -271 -28 0
-234 -274 -271 -148 0
-234 -274 -31 -268 0
-234 -274 -31 -28 0
-234 -274 -31 -148 0
-234 -274 -151 -268 0
-234 -274 -151 -28 0
-234 -274 -151 -148 0
-234 -34 -271 -28 0
-234 -34 -271 -148 0
-234 -34 -31 -268 0
-234 -34 -31 -28 0
-234 -34 -31 -148 0
-234 -34 -151 -268 0
-234 -34 -151 -28 0
-234 -34 -151 -148 0
-234 -154 -271 -28 0
-234 -154 -271 -148 0
-234 -154 -31 -28 0
-234 -154 -31 -148 0
-355 -275 -30 -269 0
-355 -275 -30 -29 0
-355 -275 -150 -269 0
-355 -275 -150 -29 0
-355 -35 -270 -269 0
-355 -35 -270 -29 0
-355 -35 -270 -149 0
-355 -35 -30 -269 0
-355 -35 -30 -29 0
-355 -35 -30 -149 0
-355 -35 -150 -269 0
-355 -35 -150 -29 0
-355 -155 -270 -269 0
-355 -155 -270 -29 0
-355 -155 -270 -149 0
-355 -155 -30 -269 0
-355 -155 -30 -29 0
-355 -155 -30 -149 0
-355 -155 -150 -269 0
-355 -155 -150 -29 0
-115 -275 -270 -29 0
-115 -275 -270 -149 0
-115 -275 -30 -269 0
-115 -275 -30 -29 0
-115 -275 -30 -149 0
-115 -275 -150 -269 0
-115 -275 -150 -29 0
-115 -275 -150 -149 0
-115 -35 -270 -269 0
-115 -35 -270 -29 0
-115 -35 -270 -149 0
-115 -35 -30 -269 0
-115 -35 -30 -149 0
-115 -35 -150 -269 0
-115 -35 -150 -29 0
-115 -35 -150 -149 0
-115 -155 -270 -269 0
-115 -155 -270 -29 0
-115 -155 -270 -149 0
-115 -155 -30 -269 0
-115 -155 -30 -29 0
-115 -155 -30 -149 0
-115 -155 -150 -269 0
-115 -155 -150 -29 0
-235 -275 -270 -29 0
-235 -275 -270 -149 0
-235 -275 -30 -269 0
-235 -275 -30 -29 0
-235 -275 -30 -149 0
-235 -275 -150 -269 0
-235 -275 -150 -29 0
-235 -275 -150 -149 0
-235 -35 -270 -29 0
-235 -35 -270 -149 0
-235 -35 -30 -269 0
-235 -35 -30 -29 0
-235 -35 -30 -149 0
-235 -35 -150 -269 0
-235 -35 -150 -29 0
-235 -35 -150 -149 0
-235 -155 -270 -29 0
-235 -155 -270 -149 0
-235 -155 -30 -29 0
-235 -155 -30 -149 0
-356 -276 -31 -269 0
-356 -276 -31 -29 0
-356 -276 -151 -269 0
-356 -276 -151 -29 0
-356 -36 -271 -269 0
-356 -36 -271 -29 0
-356 -36 -271 -149 0
-356 -36 -31 -269 0
-356 -36 -31 -29 0
-356 -36 -31 -149 0
-356 -36 -151 -269 0
-356 -36 -151 -29 0
-356 -156 -271 -269 0
-356 -156 -271 -29 0
-356 -156 -271 -149 0
-356 -156 -31 -269 0
-356 -156 -31 -29 0
-356 -156 -31 -149 0
-356 -156 -151 -269 0
-356 -156 -151 -29 0
-116 -276 -271 -29 0
-116 -276 -271 -149 0
-116 -276 -31 -269 0
-116 -276 -31 -29 0
-116 -276 -31 -149 0
-116 -276 -151 -269 0
-116 -276 -151 -29 0
-116 -276 -151 -149 0
-116 -36 -271 -269 0
-116 -36 -271 -29 0
-116 -36 -271 -149 0
-116 -36 -31 -269 0
-116 -36 -31 -149 0
-116 -36 -151 -269 0
-116 -36 -151 -29 0
-116 -36 -151 -149 0
-116 -156 -271 -269 0
-116 -156 -271 -29 0
-116 -156 -271 -149 0
-116 -156 -31 -269 0
-116 -156 -31 -29 0
-116 -156 -31 -149 0
-116 -156 -151 -269 0
-116 -156 -151 -29 0
-236 -276 -271 -29 0
-236 -276 -271 -149 0
-236 -276 -31 -269 0
-236 -276 -31 -29 0
-236 -276 -31 -149 0
-236 -276 -151 -269 0
-236 -276 -151 -29 0
-236 -276 -151 -149 0
-236 -36 -271 -29 0
-236 -36 -271 -149 0
-236 -36 -31 -269 0
-236 -36 -31 -29 0
-236 -36 -31 -149 0
-236 -36 -151 -269 0
-236 -36 -151 -29 0
-236 -36 -151 -149 0
-236 -156 -271 -29 0
-236 -156 -271 -149 0
-236 -156 -31 -29 0
-236 -156 -31 -149 0
-357 -277 -31 -270 0
-357 -277 -31 -30 0
-357 -277 -151 -270 0
-357 -277 -151 -30 0
-357 -37 -271 -270 0
-357 -37 -271 -30 0
-357 -37 -271 -150 0
-357 -37 -31 -270 0
-357 -37 -31 -30 0
-357 -37 -31 -150 0
-357 -37 -151 -270 0
-357 -37 -151 -30 0
-357 -157 -271 -270 0
-357 -157 -271 -30 0
-357 -157 -271 -150 0
-357 -157 -31 -270 0
-357 -157 -31 -30 0
-357 -157 -31 -150 0
-357 -157 -151 -270 0
-357 -157 -151 -30 0
-117 -277 -271 -30 0
-117 -277 -271 -150 0
-117 -277 -31 -270 0
-117 -277 -31 -30 0
-117 -277 -31 -150 0
-117 -277 -151 -270 0
-117 -277 -151 -30 0
-117 -277 -151 -150 0
-117 -37 -271 -270 0
-117 -37 -271 -30 0
-117 -37 -271 -150 0
-117 -37 -31 -270 0
-117 -37 -31 -150 0
-117 -37 -151 -270 0
-117 -37 -151 -30 0
-117 -37 -151 -150 0
-117 -157 -271 -270 0
-117 -157 -271 -30 0
-117 -157 -271 -150 0
-117 -157 -31 -270 0
-117 -157 -31 -30 0
-117 -157 -31 -150 0
-117 -157 -151 -270 0
-117 -157 -151 -30 0
-237 -277 -271 -30 0
-237 -277 -271 -150 0
-237 -277 -31 -270 0
-237 -277 -31 -30 0
-237 -277 -31 -150 0
-237 -277 -151 -270 0
-237 -277 -151 -30 0
-237 -277 -151 -150 0
-237 -37 -271 -30 0
-237 -37 -271 -150 0
-237 -37 -31 -270 0
-237 -37 -31 -30 0
-237 -37 -31 -150 0
-237 -37 -151 -270 0
-237 -37 -151 -30 0
-237 -37 -151 -150 0
-237 -157 -271 -30 0
-237 -157 -271 -150 0
-237 -157 -31 -30 0
-237 -157 -31 -150 0
-358 -275 -33 -272 0
-358 -275 -33 -32 0
-358 -275 -153 -272 0
-358 -275 -153 -32 0
-358 -35 -273 -272 0
-358 -35 -273 -32 0
-358 -35 -273 -152 0
-358 -35 -33 -272 0
-358 -35 -33 -32 0
-358 -35 -33 -152 0
-358 -35 -153 -272 0
-358 -35 -153 -32 0
-358 -155 -273 -272 0
-358 -155 -273 -32 0
-358 -155 -273 -152 0
-358 -155 -33 -272 0
-358 -155 -33 -32 0
-358 -155 -33 -152 0
-358 -155 -153 -272 0
-358 -155 -153 -32 0
-118 -275 -273 -32 0
-118 -275 -273 -152 0
-118 -275 -33 -272 0
-118 -275 -33 -32 0
-118 -275 -33 -152 0
-118 -275 -153 -272 0
-118 -275 -153 -32 0
-118 -275 -153 -152 0
-118 -35 -273 -272 0
-118 -35 -273 -32 0
-118 -35 -273 -152 0
-118 -35 -33 -272 0
-118 -35 -33 -152 0
-118 -35 -153 -272 0
-118 -35 -153 -32 0
-118 -35 -153 -152 0
-118 -155 -273 -272 0
-118 -155 -273 -32 0
-118 -155 -273 -152 0
-118 -155 -33 -272 0
-118 -155 -33 -32 0
-118 -155 -33 -152 0
-118 -155 -153 -272 0
-118 -155 -153 -32 0
-238 -275 -273 -32 0
-238 -275 -273 -152 0
-238 -275 -33 -272 0
-238 -275 -33 -32 0
-238 -275 -33 -152 0
-238 -275 -153 -272 0
-238 -275 -153 -32 0
-238 -275 -153 -152 0
-238 -35 -273 -32 0
-238 -35 -273 -152 0
-238 -35 -33 -272 0
-238 -35 -33 -32 0
-238 -35 -33 -152 0
-238 -35 -153 -272 0
-238 -35 -153 -32 0
-238 -35 -153 -152 0
-238 -155 -273 -32 0
-238 -155 -273 -152 0
-238 -155 -33 -32 0
-238 -155 -33 -152 0
-359 -276 -34 -272 0
-359 -276 -34 -32 0
-359 -276 -154 -272 0
-359 -276 -154 -32 0
-359 -36 -274 -272 0
-359 -36 -274 -32 0
-359 -36 -274 -152 0
-359 -36 -34 -272 0
-359 -36 -34 -32 0
-359 -36 -34 -152 0
-359 -36 -154 -272 0
-359 -36 -154 -32 0
-359 -156 -274 -272 0
-359 -156 -274 -32 0
-359 -156 -274 -152 0
-359 -156 -34 -272 0
-359 -156 -34 -32 0
-359 -156 -34 -152 0
-359 -156 -154 -272 0
-359 -156 -154 -32 0
-119 -276 -274 -32 0
-119 -276 -274 -152 0
-119 -276 -34 -272 0
-119 -276 -34 -32 0
-119 -276 -34 -152 0
-119 -276 -154 -272 0
-119 -276 -154 -32 0
-119 -276 -154 -152 0
-119 -36 -274 -272 0
-119 -36 -274 -32 0
-119 -36 -274 -152 0
-119 -36 -34 -272 0
-119 -36 -34 -152 0
-119 -36 -154 -272 0
-119 -36 -154 -32 0
-119 -36 -154 -152 0
-119 -156 -274 -272 0
-119 -156 -274 -32 0
-119 -156 -274 -152 0
-119 -156 -34 -272 0
-119 -156 -34 -32 0
-119 -156 -34 -152 0
-119 -156 -154 -272 0
-119 -156 -154 -32 0
-239 -276 -274 -32 0
-239 -276 -274 -152 0
-239 -276 -34 -272 0
-239 -276 -34 -32 0
-239 -276 -34 -152 0
-239 -276 -154 -272 0
-239 -276 -154 -32 0
-239 -276 -154 -152 0
-239 -36 -274 -32 0
-239 -36 -274 -152 0
-239 -36 -34 -272 0
-239 -36 -34 -32 0
-239 -36 -34 -152 0
-239 -36 -154 -272 0
-239 -36 -154 -32 0
-239 -36 -154 -152 0
-239 -156 -274 -32 0
-239 -156 -274 -152 0
-239 -156 -34 -32 0
-239 -156 -34 -152 0
-360 -277 -34 -273 0
-360 -277 -34 -33 0
-360 -277 -154 -273 0
-360 -277 -154 -33 0
-360 -37 -274 -273 0
-360 -37 -274 -33 0
-360 -37 -274 -153 0
-360 -37 -34 -273 0
-360 -37 -34 -33 0
-360 -37 -34 -153 0
-360 -37 -154 -273 0
-360 -37 -154 -33 0
-360 -157 -274 -273 0
-360 -157 -274 -33 0
-360 -157 -274 -153 0
-360 -157 -34 -273 0
-360 -157 -34 -33 0
-360 -157 -34 -153 0
-360 -157 -154 -273 0
-360 -157 -154 -33 0
-120 -277 -274 -33 0
-120 -277 -274 -153 0
-120 -277 -34 -273 0
-120 -277 -34 -33 0
-120 -277 -34 -153 0
-120 -277 -154 -273 0
-120 -277 -154 -33 0
-120 -277 -154 -153 0
-120 -37 -274 -273 0
-120 -37 -274 -33 0
-120 -37 -274 -153 0
-120 -37 -34 -273 0
-120 -37 -34 -153 0
-120 -37 -154 -273 0
-120 -37 -154 -33 0
-120 -37 -154 -153 0
-120 -157 -274 -273 0
-120 -157 -274 -33 0
-120 -157 -274 -153 0
-120 -157 -34 -273 0
-120 -157 -34 -33 0
-120 -157 -34 -153 0
-120 -157 -154 -273 0
-120 -157 -154 -33 0
-240 -277 -274 -33 0
-240 -277 -274 -153 0
-240 -277 -34 -273 0
-240 -277 -34 -33 0
-240 -277 -34 -153 0
-240 -277 -154 -273 0
-240 -277 -154 -33 0
-240 -277 -154 -153 0
-240 -37 -274 -33 0
-240 -37 -274 -153 0
-240 -37 -34 -273 0
-240 -37 -34 -33 0
-240 -37 -34 -153 0
-240 -37 -154 -273 0
-240 -37 -154 -33 0
-240 -37 -154 -153 0
-240 -157 -274 -33 0
-240 -157 -274 -153 0
-240 -157 -34 -33 0
-240 -157 -34 -153 0
-361 -277 -36 -275 0
-361 -277 -36 -35 0
-361 -277 -156 -275 0
-361 -277 -156 -35 0
-361 -37 -276 -275 0
-361 -37 -276 -35 0
-361 -37 -276 -155 0
-361 -37 -36 -275 0
-361 -37 -36 -35 0
-361 -37 -36 -155 0
-361 -37 -156 -275 0
-361 -37 -156 -35 0
-361 -157 -276 -275 0
-361 -157 -276 -35 0
-361 -157 -276 -155 0
-361 -157 -36 -275 0
-361 -157 -36 -35 0
-361 -157 -36 -155 0
-361 -157 -156 -275 0
-361 -157 -156 -35 0
-121 -277 -276 -35 0
-121 -277 -276 -155 0
-121 -277 -36 -275 0
-121 -277 -36 -35 0
-121 -277 -36 -155 0
-121 -277 -156 -275 0
-121 -277 -156 -35 0
-121 -277 -156 -155 0
-121 -37 -276 -275 0
-121 -37 -276 -35 0
-121 -37 -276 -155 0
-121 -37 -36 -275 0
-121 -37 -36 -155 0
-121 -37 -156 -275 0
-121 -37 -156 -35 0
-121 -37 -156 -155 0
-121 -157 -276 -275 0
-121 -157 -276 -35 0
-121 -157 -276 -155 0
-121 -157 -36 -275 0
-121 -157 -36 -35 0
-121 -157 -36 -155 0
-121 -157 -156 -275 0
-121 -157 -156 -35 0
-241 -277 -276 -35 0
-241 -277 -276 -155 0
-241 -277 -36 -275 0
-241 -277 -36 -35 0
-241 -277 -36 -155 0
-241 -277 -156 -275 0
-241 -277 -156 -35 0
-241 -277 -156 -155 0
-241 -37 -276 -35 0
-241 -37 -276 -155 0
-241 -37 -36 -275 0
-241 -37 -36 -35 0
-241 -37 -36 -155 0
-241 -37 -156 -275 0
-241 -37 -156 -35 0
-241 -37 -156 -155 0
-241 -157 -276 -35 0
-241 -157 -276 -155 0
-241 -157 -36 -35 0
-241 -157 -36 -155 0
-306 -285 -39 -278 0
-306 -285 -39 -38 0
-306 -285 -159 -278 0
-306 -285 -159 -38 0
-306 -45 -279 -278 0
-306 -45 -279 -38 0
-306 -45 -279 -158 0
-306 -45 -39 -278 0
-306 -45 -39 -38 0
-306 -45 -39 -158 0
-306 -45 -159 -278 0
-306 -45 -159 -38 0
-306 -165 -279 -278 0
-306 -165 -279 -38 0
-306 -165 -279 -158 0
-306 -165 -39 -278 0
-306 -165 -39 -38 0
-306 -165 -39 -158 0
-306 -165 -159 -278 0
-306 -165 -159 -38 0
-66 -285 -279 -38 0
-66 -285 -279 -158 0
-66 -285 -39 -278 0
-66 -285 -39 -38 0
-66 -285 -39 -158 0
-66 -285 -159 -278 0
-66 -285 -159 -38 0
-66 -285 -159 -158 0
-66 -45 -279 -278 0
-66 -45 -279 -38 0
-66 -45 -279 -158 0
-66 -45 -39 -278 0
-66 -45 -39 -158 0
-66 -45 -159 -278 0
-66 -45 -159 -38 0
-66 -45 -159 -158 0
-66 -165 -279 -278 0
-66 -165 -279 -38 0
-66 -165 -279 -158 0
-66 -165 -39 -278 0
-66 -165 -39 -38 0
-66 -165 -39 -158 0
-66 -165 -159 -278 0
-66 -165 -159 -38 0
-186 -285 -279 -38 0
-186 -285 -279 -158 0
-186 -285 -39 -278 0
-186 -285 -39 -38 0
-186 -285 -39 -158 0
-186 -285 -159 -278 0
-186 -285 -159 -38 0
-186 -285 -159 -158 0
-186 -45 -279 -38 0
-186 -45 -279 -158 0
-186 -45 -39 -278 0
-186 -45 -39 -38 0
-186 -45 -39 -158 0
-186 -45 -159 -278 0
-186 -45 -159 -38 0
-186 -45 -159 -158 0
-186 -165 -279 -38 0
-186 -165 -279 -158 0
-186 -165 -39 -38 0
-186 -165 -39 -158 0
-307 -286 -40 -278 0
-307 -286 -40 -38 0
-307 -286 -160 -278 0
-307 -286 -160 -38 0
-307 -46 -280 -278 0
-307 -46 -280 -38 0
-307 -46 -280 -158 0
-307 -46 -40 -278 0
-307 -46 -40 -38 0
-307 -46 -40 -158 0
-307 -46 -160 -278 0
-307 -46 -160 -38 0
-307 -166 -280 -278 0
-307 -166 -280 -38 0
-307 -166 -280 -158 0
-307 -166 -40 -278 0
-307 -166 -40 -38 0
-307 -166 -40 -158 0
-307 -166 -160 -278 0
-307 -166 -160 -38 0
-67 -286 -280 -38 0
-67 -286 -280 -158 0
-67 -286 -40 -278 0
-67 -286 -40 -38 0
-67 -286 -40 -158 0
-67 -286 -160 -278 0
-67 -286 -160 -38 0
-67 -286 -160 -158 0
-67 -46 -280 -278 0
-67 -46 -280 -38 0
-67 -46 -280 -158 0
-67 -46 -40 -278 0
-67 -46 -40 -158 0
-67 -46 -160 -278 0
-67 -46 -160 -38 0
-67 -46 -160 -158 0
-67 -166 -280 -278 0
-67 -166 -280 -38 0
-67 -166 -280 -158 0
-67 -166 -40 -278 0
-67 -166 -40 -38 0
-67 -166 -40 -158 0
-67 -166 -160 -278 0
-67 -166 -160 -38 0
-187 -286 -280 -38 0
-187 -286 -280 -158 0
-187 -286 -40 -278 0
-187 -286 -40 -38 0
-187 -286 -40 -158 0
-187 -286 -160 -278 0
-187 -286 -160 -38 0
-187 -286 -160 -158 0
-187 -46 -280 -38 0
-187 -46 -280 -158 0
-187 -46 -40 -278 0
-187 -46 -40 -38 0
-187 -46 -40 -158 0
-187 -46 -160 -278 0
-187 -46 -160 -38 0
-187 -46 -160 -158 0
-187 -166 -280 -38 0
-187 -166 -280 -158 0
-187 -166 -40 -38 0
-187 -166 -40 -158 0
-308 -287 -41 -278 0
-308 -287 -41 -38 0
-308 -287 -161 -278 0
-308 -287 -161 -38 0
-308 -47 -281 -278 0
-308 -47 -281 -38 0
-308 -47 -281 -158 0
-308 -47 -41 -278 0
-308 -47 -41 -38 0
-308 -47 -41 -158 0
-308 -47 -161 -278 0
-308 -47 -161 -38 0
-308 -167 -281 -278 0
-308 -167 -281 -38 0
-308 -167 -281 -158 0
-308 -167 -41 -278 0
-308 -167 -41 -38 0
-308 -167 -41 -158 0
-308 -167 -161 -278 0
-308 -167 -161 -38 0
-68 -287 -281 -38 0
-68 -287 -281 -158 0
-68 -287 -41 -278 0
-68 -287 -41 -38 0
-68 -287 -41 -158 0
-68 -287 -161 -278 0
-68 -287 -161 -38 0
-68 -287 -161 -158 0
-68 -47 -281 -278 0
-68 -47 -281 -38 0
-68 -47 -281 -158 0
-68 -47 -41 -278 0
-68 -47 -41 -158 0
-68 -47 -161 -278 0
-68 -47 -161 -38 0
-68 -47 -161 -158 0
-68 -167 -281 -278 0
-68 -167 -281 -38 0
-68 -167 -281 -158 0
-68 -167 -41 -278 0
-68 -167 -41 -38 0
-68 -167 -41 -158 0
-68 -167 -161 -278 0
-68 -167 -161 -38 0
-188 -287 -281 -38 0
-188 -287 -281 -158 0
-188 -287 -41 -278 0
-188 -287 -41 -38 0
-188 -287 -41 -158 0
-188 -287 -161 -278 0
-188 -287 -161 -38 0
-188 -287 -161 -158 0
-188 -47 -281 -38 0
-188 -47 -281 -158 0
-188 -47 -41 -278 0
-188 -47 -41 -38 0
-188 -47 -41 -158 0
-188 -47 -161 -278 0
-188 -47 -161 -38 0
-188 -47 -161 -158 0
-188 -167 -281 -38 0
-188 -167 -281 -158 0
-188 -167 -41 -38 0
-188 -167 -41 -158 0
-309 -288 -42 -278 0
-309 -288 -42 -38 0
-309 -288 -162 -278 0
-309 -288 -162 -38 0
-309 -48 -282 -278 0
-309 -48 -282 -38 0
-309 -48 -282 -158 0
-309 -48 -42 -278 0
-309 -48 -42 -38 0
-309 -48 -42 -158 0
-309 -48 -162 -278 0
-309 -48 -162 -38 0
-309 -168 -282 -278 0
-309 -168 -282 -38 0
-309 -168 -282 -158 0
-309 -168 -42 -278 0
-309 -168 -42 -38 0
-309 -168 -42 -158 0
-309 -168 -162 -278 0
-309 -168 -162 -38 0
-69 -288 -282 -38 0
-69 -288 -282 -158 0
-69 -288 -42 -278 0
-69 -288 -42 -38 0
-69 -288 -42 -158 0
-69 -288 -162 -278 0
-69 -288 -162 -38 0
-69 -288 -162 -158 0
-69 -48 -282 -278 0
-69 -48 -282 -38 0
-69 -48 -282 -158 0
-69 -48 -42 -278 0
-69 -48 -42 -158 0
-69 -48 -162 -278 0
-69 -48 -162 -38 0
-69 -48 -162 -158 0
-69 -168 -282 -278 0
-69 -168 -282 -38 0
-69 -168 -282 -158 0
-69 -168 -42 -278 0
-69 -168 -42 -38 0
-69 -168 -42 -158 0
-69 -168 -162 -278 0
-69 -168 -162 -38 0
-189 -288 -282 -38 0
-189 -288 -282 -158 0
-189 -288 -42 -278 0
-189 -288 -42 -38 0
-189 -288 -42 -158 0
-189 -288 -162 -278 0
-189 -288 -162 -38 0
-189 -288 -162 -158 0
-189 -48 -282 -38 0
-189 -48 -282 -158 0
-189 -48 -42 -278 0
-189 -48 -42 -38 0
-189 -48 -42 -158 0
-189 -48 -162 -278 0
-189 -48 -162 -38 0
-189 -48 -162 -158 0
-189 -168 -282 -38 0
-189 -168 -282 -158 0
-189 -168 -42 -38 0
-189 -168 -42 -158 0
-310 -289 -43 -278 0
-310 -289 -43 -38 0
-310 -289 -163 -278 0
-310 -289 -163 -38 0
-310 -49 -283 -278 0
-310 -49 -283 -38 0
-310 -49 -283 -158 0
-310 -49 -43 -278 0
-310 -49 -43 -38 0
-310 -49 -43 -158 0
-310 -49 -163 -278 0
-310 -49 -163 -38 0
-310 -169 -283 -278 0
-310 -169 -283 -38 0
-310 -169 -283 -158 0
-310 -169 -43 -278 0
-310 -169 -43 -38 0
-310 -169 -43 -158 0
-310 -169 -163 -278 0
-310 -169 -163 -38 0
-70 -289 -283 -38 0
-70 -289 -283 -158 0
-70 -289 -43 -278 0
-70 -289 -43 -38 0
-70 -289 -43 -158 0
-70 -289 -163 -278 0
-70 -289 -163 -38 0
-70 -289 -163 -158 0
-70 -49 -283 -278 0
-70 -49 -283 -38 0
-70 -49 -283 -158 0
-70 -49 -43 -278 0
-70 -49 -43 -158 0
-70 -49 -163 -278 0
-70 -49 -163 -38 0
-70 -49 -163 -158 0
-70 -169 -283 -278 0
-70 -169 -283 -38 0
-70 -169 -283 -158 0
-70 -169 -43 -278 0
-70 -169 -43 -38 0
-70 -169 -43 -158 0
-70 -169 -163 -278 0
-70 -169 -163 -38 0
-190 -289 -283 -38 0
-190 -289 -283 -158 0
-190 -289 -43 -278 0
-190 -289 -43 -38 0
-190 -289 -43 -158 0
-190 -289 -163 -278 0
-190 -289 -163 -38 0
-190 -289 -163 -158 0
-190 -49 -283 -38 0
-190 -49 -283 -158 0
-190 -49 -43 -278 0
-190 -49 -43 -38 0
-190 -49 -43 -158 0
-190 -49 -163 -278 0
-190 -49 -163 -38 0
-190 -49 -163 -158 0
-190 -169 -283 -38 0
-190 -169 -283 -158 0
-190 -169 -43 -38 0
-190 -169 -43 -158 0
-311 -290 -44 -278 0
-311 -290 -44 -38 0
-311 -290 -164 -278 0
-311 -290 -164 -38 0
-311 -50 -284 -278 0
-311 -50 -284 -38 0
-311 -50 -284 -158 0
-311 -50 -44 -278 0
-311 -50 -44 -38 0
-311 -50 -44 -158 0
-311 -50 -164 -278 0
-311 -50 -164 -38 0
-311 -170 -284 -278 0
-311 -170 -284 -38 0
-311 -170 -284 -158 0
-311 -170 -44 -278 0
-311 -170 -44 -38 0
-311 -170 -44 -158 0
-311 -170 -164 -278 0
-311 -170 -164 -38 0
-71 -290 -284 -38 0
-71 -290 -284 -158 0
-71 -290 -44 -278 0
-71 -290 -44 -38 0
-71 -290 -44 -158 0
-71 -290 -164 -278 0
-71 -290 -164 -38 0
-71 -290 -164 -158 0
-71 -50 -284 -278 0
-71 -50 -284 -38 0
-71 -50 -284 -158 0
-71 -50 -44 -278 0
-71 -50 -44 -158 0
-71 -50 -164 -278 0
-71 -50 -164 -38 0
-71 -50 -164 -158 0
-71 -170 -284 -278 0
-71 -170 -284 -38 0
-71 -170 -284 -158 0
-71 -170 -44 -278 0
-71 -170 -44 -38 0
-71 -170 -44 -158 0
-71 -170 -164 -278 0
-71 -170 -164 -38 0
-191 -290 -284 -38 0
-191 -290 -284 -158 0
-191 -290 -44 -278 0
-191 -290 -44 -38 0
-191 -290 -44 -158 0
-191 -290 -164 -278 0
-191 -290 -164 -38 0
-191 -290 -164 -158 0
-191 -50 -284 -38 0
-191 -50 -284 -158 0
-191 -50 -44 -278 0
-191 -50 -44 -38 0
-191 -50 -44 -158 0
-191 -50 -164 -278 0
-191 -50 -164 -38 0
-191 -50 -164 -158 0
-191 -170 -284 -38 0
-191 -170 -284 -158 0
-191 -170 -44 -38 0
-191 -170 -44 -158 0
-312 -291 -40 -279 0
-312 -291 -40 -39 0
-312 -291 -160 -279 0
-312 -291 -160 -39 0
-312 -51 -280 -279 0
-312 -51 -280 -39 0
-312 -51 -280 -159 0
-312 -51 -40 -279 0
-312 -51 -40 -39 0
-312 -51 -40 -159 0
-312 -51 -160 -279 0
-312 -51 -160 -39 0
-312 -171 -280 -279 0
-312 -171 -280 -39 0
-312 -171 -280 -159 0
-312 -171 -40 -279 0
-312 -171 -40 -39 0
-312 -171 -40 -159 0
-312 -171 -160 -279 0
-312 -171 -160 -39 0
-72 -291 -280 -39 0
-72 -291 -280 -159 0
-72 -291 -40 -279 0
-72 -291 -40 -39 0
-72 -291 -40 -159 0
-72 -291 -160 -279 0
-72 -291 -160 -39 0
-72 -291 -160 -159 0
-72 -51 -280 -279 0
-72 -51 -280 -39 0
-72 -51 -280 -159 0
-72 -51 -40 -279 0
-72 -51 -40 -159 0
-72 -51 -160 -279 0
-72 -51 -160 -39 0
-72 -51 -160 -159 0
-72 -171 -280 -279 0
-72 -171 -280 -39 0
-72 -171 -280 -159 0
-72 -171 -40 -279 0
-72 -171 -40 -39 0
-72 -171 -40 -159 0
-72 -171 -160 -279 0
-72 -171 -160 -39 0
-192 -291 -280 -39 0
-192 -291 -280 -159 0
-192 -291 -40 -279 0
-192 -291 -40 -39 0
-192 -291 -40 -159 0
-192 -291 -160 -279 0
-192 -291 -160 -39 0
-192 -291 -160 -159 0
-192 -51 -280 -39 0
-192 -51 -280 -159 0
-192 -51 -40 -279 0
-192 -51 -40 -39 0
-192 -51 -40 -159 0
-192 -51 -160 -279 0
-192 -51 -160 -39 0
-192 -51 -160 -159 0
-192 -171 -280 -39 0
-192 -171 -280 -159 0
-192 -171 -40 -39 0
-192 -171 -40 -159 0
-313 -292 -41 -279 0
-313 -292 -41 -39 0
-313 -292 -161 -279 0
-313 -292 -161 -39 0
-313 -52 -281 -279 0
-313 -52 -281 -39 0
-313 -52 -281 -159 0
-313 -52 -41 -279 0
-313 -52 -41 -39 0
-313 -52 -41 -159 0
-313 -52 -161 -279 0
-313 -52 -161 -39 0
-313 -172 -281 -279 0
-313 -172 -281 -39 0
-313 -172 -281 -159 0
-313 -172 -41 -279 0
-313 -172 -41 -39 0
-313 -172 -41 -159 0
-313 -172 -161 -279 0
-313 -172 -161 -39 0
-73 -292 -281 -39 0
-73 -292 -281 -159 0
-73 -292 -41 -279 0
-73 -292 -41 -39 0
-73 -292 -41 -159 0
-73 -292 -161 -279 0
-73 -292 -161 -39 0
-73 -292 -161 -159 0
-73 -52 -281 -279 0
-73 -52 -281 -39 0
-73 -52 -281 -159 0
-73 -52 -41 -279 0
-73 -52 -41 -159 0
-73 -52 -161 -279 0
-73 -52 -161 -39 0
-73 -52 -161 -159 0
-73 -172 -281 -279 0
-73 -172 -281 -39 0
-73 -172 -281 -159 0
-73 -172 -41 -279 0
-73 -172 -41 -39 0
-73 -172 -41 -159 0
-73 -172 -161 -279 0
-73 -172 -161 -39 0
-193 -292 -281 -39 0
-193 -292 -281 -159 0
-193 -292 -41 -279 0
-193 -292 -41 -39 0
-193 -292 -41 -159 0
-193 -292 -161 -279 0
-193 -292 -161 -39 0
-193 -292 -161 -159 0
-193 -52 -281 -39 0
-193 -52 -281 -159 0
-193 -52 -41 -279 0
-193 -52 -41 -39 0
-193 -52 -41 -159 0
-193 -52 -161 -279 0
-193 -52 -161 -39 0
-193 -52 -161 -159 0
-193 -172 -281 -39 0
-193 -172 -281 -159 0
-193 -172 -41 -39 0
-193 -172 -41 -159 0
-314 -293 -42 -279 0
-314 -293 -42 -39 0
-314 -293 -162 -279 0
-314 -293 -162 -39 0
-314 -53 -282 -279 0
-314 -53 -282 -39 0
-314 -53 -282 -159 0
-314 -53 -42 -279 0
-314 -53 -42 -39 0
-314 -53 -42 -159 0
-314 -53 -162 -279 0
-314 -53 -162 -39 0
-314 -173 -282 -279 0
-314 -173 -282 -39 0
-314 -173 -282 -159 0
-314 -173 -42 -279 0
-314 -173 -42 -39 0
-314 -173 -42 -159 0
-314 -173 -162 -279 0
-314 -173 -162 -39 0
-74 -293 -282 -39 0
-74 -293 -282 -159 0
-74 -293 -42 -279 0
-74 -293 -42 -39 0
-74 -293 -42 -159 0
-74 -293 -162 -279 0
-74 -293 -162 -39 0
-74 -293 -162 -159 0
-74 -53 -282 -279 0
-74 -53 -282 -39 0
-74 -53 -282 -159 0
-74 -53 -42 -279 0
-74 -53 -42 -159 0
-74 -53 -162 -279 0
-74 -53 -162 -39 0
-74 -53 -162 -159 0
-74 -173 -282 -279 0
-74 -173 -282 -39 0
-74 -173 -282 -159 0
-74 -173 -42 -279 0
-74 -173 -42 -39 0
-74 -173 -42 -159 0
-74 -173 -162 -279 0
-74 -173 -162 -39 0
-194 -293 -282 -39 0
-194 -293 -282 -159 0
-194 -293 -42 -279 0
-194 -293 -42 -39 0
-194 -293 -42 -159 0
-194 -293 -162 -279 0
-194 -293 -162 -39 0
-194 -293 -162 -159 0
-194 -53 -282 -39 0
-194 -53 -282 -159 0
-194 -53 -42 -279 0
-194 -53 -42 -39 0
-194 -53 -42 -159 0
-194 -53 -162 -279 0
-194 -53 -162 -39 0
-194 -53 -162 -159 0
-194 -173 -282 -39 0
-194 -173 -282 -159 0
-194 -173 -42 -39 0
-194 -173 -42 -159 0
-315 -294 -43 -279 0
-315 -294 -43 -39 0
-315 -294 -163 -279 0
-315 -294 -163 -39 0
-315 -54 -283 -279 0
-315 -54 -283 -39 0
-315 -54 -283 -159 0
-315 -54 -43 -279 0
-315 -54 -43 -39 0
-315 -54 -43 -159 0
-315 -54 -163 -279 0
-315 -54 -163 -39 0
-315 -174 -283 -279 0
-315 -174 -283 -39 0
-315 -174 -283 -159 0
-315 -174 -43 -279 0
-315 -174 -43 -39 0
-315 -174 -43 -159 0
-315 -174 -163 -279 0
-315 -174 -163 -39 0
-75 -294 -283 -39 0
-75 -294 -283 -159 0
-75 -294 -43 -279 0
-75 -294 -43 -39 0
-75 -294 -43 -159 0
-75 -294 -163 -279 0
-75 -294 -163 -39 0
-75 -294 -163 -159 0
-75 -54 -283 -279 0
-75 -54 -283 -39 0
-75 -54 -283 -159 0
-75 -54 -43 -279 0
-75 -54 -43 -159 0
-75 -54 -163 -279 0
-75 -54 -163 -39 0
-75 -54 -163 -159 0
-75 -174 -283 -279 0
-75 -174 -283 -39 0
-75 -174 -283 -159 0
-75 -174 -43 -279 0
-75 -174 -43 -39 0
-75 -174 -43 -159 0
-75 -174 -163 -279 0
-75 -174 -163 -39 0
-195 -294 -283 -39 0
-195 -294 -283 -159 0
-195 -294 -43 -279 0
-195 -294 -43 -39 0
-195 -294 -43 -159 0
-195 -294 -163 -279 0
-195 -294 -163 -39 0
-195 -294 -163 -159 0
-195 -54 -283 -39 0
-195 -54 -283 -159 0
-195 -54 -43 -279 0
-195 -54 -43 -39 0
-195 -54 -43 -159 0
-195 -54 -163 -279 0
-195 -54 -163 -39 0
-195 -54 -163 -159 0
-195 -174 -283 -39 0
-195 -174 -283 -159 0
-195 -174 -43 -39 0
-195 -174 -43 -159 0
-316 -295 -44 -279 0
-316 -295 -44 -39 0
-316 -295 -164 -279 0
-316 -295 -164 -39 0
-316 -55 -284 -279 0
-316 -55 -284 -39 0
-316 -55 -284 -159 0
-316 -55 -44 -279 0
-316 -55 -44 -39 0
-316 -55 -44 -159 0
-316 -55 -164 -279 0
-316 -55 -164 -39 0
-316 -175 -284 -279 0
-316 -175 -284 -39 0
-316 -175 -284 -159 0
-316 -175 -44 -279 0
-316 -175 -44 -39 0
-316 -175 -44 -159 0
-316 -175 -164 -279 0
-316 -175 -164 -39 0
-76 -295 -284 -39 0
-76 -295 -284 -159 0
-76 -295 -44 -279 0
-76 -295 -44 -39 0
-76 -295 -44 -159 0
-76 -295 -164 -279 0
-76 -295 -164 -39 0
-76 -295 -164 -159 0
-76 -55 -284 -279 0
-76 -55 -284 -39 0
-76 -55 -284 -159 0
-76 -55 -44 -279 0
-76 -55 -44 -159 0
-76 -55 -164 -279 0
-76 -55 -164 -39 0
-76 -55 -164 -159 0
-76 -175 -284 -279 0
-76 -175 -284 -39 0
-76 -175 -284 -159 0
-76 -175 -44 -279 0
-76 -175 -44 -39 0
-76 -175 -44 -159 0
-76 -175 -164 -279 0
-76 -175 -164 -39 0
-196 -295 -284 -39 0
-196 -295 -284 -159 0
-196 -295 -44 -279 0
-196 -295 -44 -39 0
-196 -295 -44 -159 0
-196 -295 -164 -279 0
-196 -295 -164 -39 0
-196 -295 -164 -159 0
-196 -55 -284 -39 0
-196 -55 -284 -159 0
-196 -55 -44 -279 0
-196 -55 -44 -39 0
-196 -55 -44 -159 0
-196 -55 -164 -279 0
-196 -55 -164 -39 0
-196 -55 -164 -159 0
-196 -175 -284 -39 0
-196 -175 -284 -159 0
-196 -175 -44 -39 0
-196 -175 -44 -159 0
-317 -296 -41 -280 0
-317 -296 -41 -40 0
-317 -296 -161 -280 0
-317 -296 -161 -40 0
-317 -56 -281 -280 0
-317 -56 -281 -40 0
-317 -56 -281 -160 0
-317 -56 -41 -280 0
-317 -56 -41 -40 0
-317 -56 -41 -160 0
-317 -56 -161 -280 0
-317 -56 -161 -40 0
-317 -176 -281 -280 0
-317 -176 -281 -40 0
-317 -176 -281 -160 0
-317 -176 -41 -280 0
-317 -176 -41 -40 0
-317 -176 -41 -160 0
-317 -176 -161 -280 0
-317 -176 -161 -40 0
-77 -296 -281 -40 0
-77 -296 -281 -160 0
-77 -296 -41 -280 0
-77 -296 -41 -40 0
-77 -296 -41 -160 0
-77 -296 -161 -280 0
-77 -296 -161 -40 0
-77 -296 -161 -160 0
-77 -56 -281 -280 0
-77 -56 -281 -40 0
-77 -56 -281 -160 0
-77 -56 -41 -280 0
-77 -56 -41 -160 0
-77 -56 -161 -280 0
-77 -56 -161 -40 0
-77 -56 -161 -160 0
-77 -176 -281 -280 0
-77 -176 -281 -40 0
-77 -176 -281 -160 0
-77 -176 -41 -280 0
-77 -176 -41 -40 0
-77 -176 -41 -160 0
-77 -176 -161 -280 0
-77 -176 -161 -40 0
-197 -296 -281 -40 0
-197 -296 -281 -160 0
-197 -296 -41 -280 0
-197 -296 -41 -40 0
-197 -296 -41 -160 0
-197 -296 -161 -280 0
-197 -296 -161 -40 0
-197 -296 -161 -160 0
-197 -56 -281 -40 0
-197 -56 -281 -160 0
-197 -56 -41 -280 0
-197 -56 -41 -40 0
-197 -56 -41 -160 0
-197 -56 -161 -280 0
-197 -56 -161 -40 0
-197 -56 -161 -160 0
-197 -176 -281 -40 0
-197 -176 -281 -160 0
-197 -176 -41 -40 0
-197 -176 -41 -160 0
-318 -297 -42 -280 0
-318 -297 -42 -40 0
-318 -297 -162 -280 0
-318 -297 -162 -40 0
-318 -57 -282 -280 0
-318 -57 -282 -40 0
-318 -57 -282 -160 0
-318 -57 -42 -280 0
-318 -57 -42 -40 0
-318 -57 -42 -160 0
-318 -57 -162 -280 0
-318 -57 -162 -40 0
-318 -177 -282 -280 0
-318 -177 -282 -40 0
-318 -177 -282 -160 0
-318 -177 -42 -280 0
-318 -177 -42 -40 0
-318 -177 -42 -160 0
-318 -177 -162 -280 0
-318 -177 -162 -40 0
-78 -297 -282 -40 0
-78 -297 -282 -160 0
-78 -297 -42 -280 0
-78 -297 -42 -40 0
-78 -297 -42 -160 0
-78 -297 -162 -280 0
-78 -297 -162 -40 0
-78 -297 -162 -160 0
-78 -57 -282 -280 0
-78 -57 -282 -40 0
-78 -57 -282 -160 0
-78 -57 -42 -280 0
-78 -57 -42 -160 0
-78 -57 -162 -280 0
-78 -57 -162 -40 0
-78 -57 -162 -160 0
-78 -177 -282 -280 0
-78 -177 -282 -40 0
-78 -177 -282 -160 0
-78 -177 -42 -280 0
-78 -177 -42 -40 0
-78 -177 -42 -160 0
-78 -177 -162 -280 0
-78 -177 -162 -40 0
-198 -297 -282 -40 0
-198 -297 -282 -160 0
-198 -297 -42 -280 0
-198 -297 -42 -40 0
-198 -297 -42 -160 0
-198 -297 -162 -280 0
-198 -297 -162 -40 0
-198 -297 -162 -160 0
-198 -57 -282 -40 0
-198 -57 -282 -160 0
-198 -57 -42 -280 0
-198 -57 -42 -40 0
-198 -57 -42 -160 0
-198 -57 -162 -280 0
-198 -57 -162 -40 0
-198 -57 -162 -160 0
-198 -177 -282 -40 0
-198 -177 -282 -160 0
-198 -177 -42 -40 0
-198 -177 -42 -160 0
-319 -298 -43 -280 0
-319 -298 -43 -40 0
-319 -298 -163 -280 0
-319 -298 -163 -40 0
-319 -58 -283 -280 0
-319 -58 -283 -40 0
-319 -58 -283 -160 0
-319 -58 -43 -280 0
-319 -58 -43 -40 0
-319 -58 -43 -160 0
-319 -58 -163 -280 0
-319 -58 -163 -40 0
-319 -178 -283 -280 0
-319 -178 -283 -40 0
-319 -178 -283 -160 0
-319 -178 -43 -280 0
-319 -178 -43 -40 0
-319 -178 -43 -160 0
-319 -178 -163 -280 0
-319 -178 -163 -40 0
-79 -298 -283 -40 0
-79 -298 -283 -160 0
-79 -298 -43 -280 0
-79 -298 -43 -40 0
-79 -298 -43 -160 0
-79 -298 -163 -280 0
-79 -298 -163 -40 0
-79 -298 -163 -160 0
-79 -58 -283 -280 0
-79 -58 -283 -40 0
-79 -58 -283 -160 0
-79 -58 -43 -280 0
-79 -58 -43 -160 0
-79 -58 -163 -280 0
-79 -58 -163 -40 0
-79 -58 -163 -160 0
-79 -178 -283 -280 0
-79 -178 -283 -40 0
-79 -178 -283 -160 0
-79 -178 -43 -280 0
-79 -178 -43 -40 0
-79 -178 -43 -160 0
-79 -178 -163 -280 0
-79 -178 -163 -40 0
-199 -298 -283 -40 0
-199 -298 -283 -160 0
-199 -298 -43 -280 0
-199 -298 -43 -40 0
-199 -298 -43 -160 0
-199 -298 -163 -280 0
-199 -298 -163 -40 0
-199 -298 -163 -160 0
-199 -58 -283 -40 0
-199 -58 -283 -160 0
-199 -58 -43 -280 0
-199 -58 -43 -40 0
-199 -58 -43 -160 0
-199 -58 -163 -280 0
-199 -58 -163 -40 0
-199 -58 -163 -160 0
-199 -178 -283 -40 0
-199 -178 -283 -160 0
-199 -178 -43 -40 0
-199 -178 -43 -160 0
-320 -299 -44 -280 0
-320 -299 -44 -40 0
-320 -299 -164 -280 0
-320 -299 -164 -40 0
-320 -59 -284 -280 0
-320 -59 -284 -40 0
-320 -59 -284 -160 0
-320 -59 -44 -280 0
-320 -59 -44 -40 0
-320 -59 -44 -160 0
-320 -59 -164 -280 0
-320 -59 -164 -40 0
-320 -179 -284 -280 0
-320 -179 -284 -40 0
-320 -179 -284 -160 0
-320 -179 -44 -280 0
-320 -179 -44 -40 0
-320 -179 -44 -160 0
-320 -179 -164 -280 0
-320 -179 -164 -40 0
-80 -299 -284 -40 0
-80 -299 -284 -160 0
-80 -299 -44 -280 0
-80 -299 -44 -40 0
-80 -299 -44 -160 0
-80 -299 -164 -280 0
-80 -299 -164 -40 0
-80 -299 -164 -160 0
-80 -59 -284 -280 0
-80 -59 -284 -40 0
-80 -59 -284 -160 0
-80 -59 -44 -280 0
-80 -59 -44 -160 0
-80 -59 -164 -280 0
-80 -59 -164 -40 0
-80 -59 -164 -160 0
-80 -179 -284 -280 0
-80 -179 -284 -40 0
-80 -179 -284 -160 0
-80 -179 -44 -280 0
-80 -179 -44 -40 0
-80 -179 -44 -160 0
-80 -179 -164 -280 0
-80 -179 -164 -40 0
-200 -299 -284 -40 0
-200 -299 -284 -160 0
-200 -299 -44 -280 0
-200 -299 -44 -40 0
-200 -299 -44 -160 0
-200 -299 -164 -280 0
-200 -299 -164 -40 0
-200 -299 -164 -160 0
-200 -59 -284 -40 0
-200 -59 -284 -160 0
-200 -59 -44 -280 0
-200 -59 -44 -40 0
-200 -59 -44 -160 0
-200 -59 -164 -280 0
-200 -59 -164 -40 0
-200 -59 -164 -160 0
-200 -179 -284 -40 0
-200 -179 -284 -160 0
-200 -179 -44 -40 0
-200 -179 -44 -160 0
-321 -300 -42 -281 0
-321 -300 -42 -41 0
-321 -300 -162 -281 0
-321 -300 -162 -41 0
-321 -60 -282 -281 0
-321 -60 -282 -41 0
-321 -60 -282 -161 0
-321 -60 -42 -281 0
-321 -60 -42 -41 0
-321 -60 -42 -161 0
-321 -60 -162 -281 0
-321 -60 -162 -41 0
-321 -180 -282 -281 0
-321 -180 -282 -41 0
-321 -180 -282 -161 0
-321 -180 -42 -281 0
-321 -180 -42 -41 0
-321 -180 -42 -161 0
-321 -180 -162 -281 0
-321 -180 -162 -41 0
-81 -300 -282 -41 0
-81 -300 -282 -161 0
-81 -300 -42 -281 0
-81 -300 -42 -41 0
-81 -300 -42 -161 0
-81 -300 -162 -281 0
-81 -300 -162 -41 0
-81 -300 -162 -161 0
-81 -60 -282 -281 0
-81 -60 -282 -41 0
-81 -60 -282 -161 0
-81 -60 -42 -281 0
-81 -60 -42 -161 0
-81 -60 -162 -281 0
-81 -60 -162 -41 0
-81 -60 -162 -161 0
-81 -180 -282 -281 0
-81 -180 -282 -41 0
-81 -180 -282 -161 0
-81 -180 -42 -281 0
-81 -180 -42 -41 0
-81 -180 -42 -161 0
-81 -180 -162 -281 0
-81 -180 -162 -41 0
-201 -300 -282 -41 0
-201 -300 -282 -161 0
-201 -300 -42 -281 0
-201 -300 -42 -41 0
-201 -300 -42 -161 0
-201 -300 -162 -281 0
-201 -300 -162 -41 0
-201 -300 -162 -161 0
-201 -60 -282 -41 0
-201 -60 -282 -161 0
-201 -60 -42 -281 0
-201 -60 -42 -41 0
-201 -60 -42 -161 0
-201 -60 -162 -281 0
-201 -60 -162 -41 0
-201 -60 -162 -161 0
-201 -180 -282 -41 0
-201 -180 -282 -161 0
-201 -180 -42 -41 0
-201 -180 -42 -161 0
-322 -301 -43 -281 0
-322 -301 -43 -41 0
-322 -301 -163 -281 0
-322 -301 -163 -41 0
-322 -61 -283 -281 0
-322 -61 -283 -41 0
-322 -61 -283 -161 0
-322 -61 -43 -281 0
-322 -61 -43 -41 0
-322 -61 -43 -161 0
-322 -61 -163 -281 0
-322 -61 -163 -41 0
-322 -181 -283 -281 0
-322 -181 -283 -41 0
-322 -181 -283 -161 0
-322 -181 -43 -281 0
-322 -181 -43 -41 0
-322 -181 -43 -161 0
-322 -181 -163 -281 0
-322 -181 -163 -41 0
-82 -301 -283 -41 0
-82 -301 -283 -161 0
-82 -301 -43 -281 0
-82 -301 -43 -41 0
-82 -301 -43 -161 0
-82 -301 -163 -281 0
-82 -301 -163 -41 0
-82 -301 -163 -161 0
-82 -61 -283 -281 0
-82 -61 -283 -41 0
-82 -61 -283 -161 0
-82 -61 -43 -281 0
-82 -61 -43 -161 0
-82 -61 -163 -281 0
-82 -61 -163 -41 0
-82 -61 -163 -161 0
-82 -181 -283 -281 0
-82 -181 -283 -41 0
-82 -181 -283 -161 0
-82 -181 -43 -281 0
-82 -181 -43 -41 0
-82 -181 -43 -161 0
-82 -181 -163 -281 0
-82 -181 -163 -41 0
-202 -301 -283 -41 0
-202 -301 -283 -161 0
-202 -301 -43 -281 0
-202 -301 -43 -41 0
-202 -301 -43 -161 0
-202 -301 -163 -281 0
-202 -301 -163 -41 0
-202 -301 -163 -161 0
-202 -61 -283 -41 0
-202 -61 -283 -161 0
-202 -61 -43 -281 0
-202 -61 -43 -41 0
-202 -61 -43 -161 0
-202 -61 -163 -281 0
-202 -61 -163 -41 0
-202 -61 -163 -161 0
-202 -181 -283 -41 0
-202 -181 -283 -161 0
-202 -181 -43 -41 0
-202 -181 -43 -161 0
-323 -302 -44 -281 0
-323 -302 -44 -41 0
-323 -302 -164 -281 0
-323 -302 -164 -41 0
-323 -62 -284 -281 0
-323 -62 -284 -41 0
-323 -62 -284 -161 0
-323 -62 -44 -281 0
-323 -62 -44 -41 0
-323 -62 -44 -161 0
-323 -62 -164 -281 0
-323 -62 -164 -41 0
-323 -182 -284 -281 0
-323 -182 -284 -41 0
-323 -182 -284 -161 0
-323 -182 -44 -281 0
-323 -182 -44 -41 0
-323 -182 -44 -161 0
-323 -182 -164 -281 0
-323 -182 -164 -41 0
-83 -302 -284 -41 0
-83 -302 -284 -161 0
-83 -302 -44 -281 0
-83 -302 -44 -41 0
-83 -302 -44 -161 0
-83 -302 -164 -281 0
-83 -302 -164 -41 0
-83 -302 -164 -161 0
-83 -62 -284 -281 0
-83 -62 -284 -41 0
-83 -62 -284 -161 0
-83 -62 -44 -281 0
-83 -62 -44 -161 0
-83 -62 -164 -281 0
-83 -62 -164 -41 0
-83 -62 -164 -161 0
-83 -182 -284 -281 0
-83 -182 -284 -41 0
-83 -182 -284 -161 0
-83 -182 -44 -281 0
-83 -182 -44 -41 0
-83 -182 -44 -161 0
-83 -182 -164 -281 0
-83 -182 -164 -41 0
-203 -302 -284 -41 0
-203 -302 -284 -161 0
-203 -302 -44 -281 0
-203 -302 -44 -41 0
-203 -302 -44 -161 0
-203 -302 -164 -281 0
-203 -302 -164 -41 0
-203 -302 -164 -161 0
-203 -62 -284 -41 0
-203 -62 -284 -161 0
-203 -62 -44 -281 0
-203 -62 -44 -41 0
-203 -62 -44 -161 0
-203 -62 -164 -281 0
-203 -62 -164 -41 0
-203 -62 -164 -161 0
-203 -182 -284 -41 0
-203 -182 -284 -161 0
-203 -182 -44 -41 0
-203 -182 -44 -161 0
-324 -303 -43 -282 0
-324 -303 -43 -42 0
-324 -303 -163 -282 0
-324 -303 -163 -42 0
-324 -63 -283 -282 0
-324 -63 -283 -42 0
-324 -63 -283 -162 0
-324 -63 -43 -282 0
-324 -63 -43 -42 0
-324 -63 -43 -162 0
-324 -63 -163 -282 0
-324 -63 -163 -42 0
-324 -183 -283 -282 0
-324 -183 -283 -42 0
-324 -183 -283 -162 0
-324 -183 -43 -282 0
-324 -183 -43 -42 0
-324 -183 -43 -162 0
-324 -183 -163 -282 0
-324 -183 -163 -42 0
-84 -303 -283 -42 0
-84 -303 -283 -162 0
-84 -303 -43 -282 0
-84 -303 -43 -42 0
-84 -303 -43 -162 0
-84 -303 -163 -282 0
-84 -303 -163 -42 0
-84 -303 -163 -162 0
-84 -63 -283 -282 0
-84 -63 -283 -42 0
-84 -63 -283 -162 0
-84 -63 -43 -282 0
-84 -63 -43 -162 0
-84 -63 -163 -282 0
-84 -63 -163 -42 0
-84 -63 -163 -162 0
-84 -183 -283 -282 0
-84 -183 -283 -42 0
-84 -183 -283 -162 0
-84 -183 -43 -282 0
-84 -183 -43 -42 0
-84 -183 -43 -162 0
-84 -183 -163 -282 0
-84 -183 -163 -42 0
-204 -303 -283 -42 0
-204 -303 -283 -162 0
-204 -303 -43 -282 0
-204 -303 -43 -42 0
-204 -303 -43 -162 0
-204 -303 -163 -282 0
-204 -303 -163 -42 0
-204 -303 -163 -162 0
-204 -63 -283 -42 0
-204 -63 -283 -162 0
-204 -63 -43 -282 0
-204 -63 -43 -42 0
-204 -63 -43 -162 0
-204 -63 -163 -282 0
-204 -63 -163 -42 0
-204 -63 -163 -162 0
-204 -183 -283 -42 0
-204 -183 -283 -162 0
-204 -183 -43 -42 0
-204 -183 -43 -162 0
-325 -304 -44 -282 0
-325 -304 -44 -42 0
-325 -304 -164 -282 0
-325 -304 -164 -42 0
-325 -64 -284 -282 0
-325 -64 -284 -42 0
-325 -64 -284 -162 0
-325 -64 -44 -282 0
-325 -64 -44 -42 0
-325 -64 -44 -162 0
-325 -64 -164 -282 0
-325 -64 -164 -42 0
-325 -184 -284 -282 0
-325 -184 -284 -42 0
-325 -184 -284 -162 0
-325 -184 -44 -282 0
-325 -184 -44 -42 0
-325 -184 -44 -162 0
-325 -184 -164 -282 0
-325 -184 -164 -42 0
-85 -304 -284 -42 0
-85 -304 -284 -162 0
-85 -304 -44 -282 0
-85 -304 -44 -42 0
-85 -304 -44 -162 0
-85 -304 -164 -282 0
-85 -304 -164 -42 0
-85 -304 -164 -162 0
-85 -64 -284 -282 0
-85 -64 -284 -42 0
-85 -64 -284 -162 0
-85 -64 -44 -282 0
-85 -64 -44 -162 0
-85 -64 -164 -282 0
-85 -64 -164 -42 0
-85 -64 -164 -162 0
-85 -184 -284 -282 0
-85 -184 -284 -42 0
-85 -184 -284 -162 0
-85 -184 -44 -282 0
-85 -184 -44 -42 0
-85 -184 -44 -162 0
-85 -184 -164 -282 0
-85 -184 -164 -42 0
-205 -304 -284 -42 0
-205 -304 -284 -162 0
-205 -304 -44 -282 0
-205 -304 -44 -42 0
-205 -304 -44 -162 0
-205 -304 -164 -282 0
-205 -304 -164 -42 0
-205 -304 -164 -162 0
-205 -64 -284 -42 0
-205 -64 -284 -162 0
-205 -64 -44 -282 0
-205 -64 -44 -42 0
-205 -64 -44 -162 0
-205 -64 -164 -282 0
-205 -64 -164 -42 0
-205 -64 -164 -162 0
-205 -184 -284 -42 0
-205 -184 -284 -162 0
-205 -184 -44 -42 0
-205 -184 -44 -162 0
-326 -305 -44 -283 0
-326 -305 -44 -43 0
-326 -305 -164 -283 0
-326 -305 -164 -43 0
-326 -65 -284 -283 0
-326 -65 -284 -43 0
-326 -65 -284 -163 0
-326 -65 -44 -283 0
-326 -65 -44 -43 0
-326 -65 -44 -163 0
-326 -65 -164 -283 0
-326 -65 -164 -43 0
-326 -185 -284 -283 0
-326 -185 -284 -43 0
-326 -185 -284 -163 0
-326 -185 -44 -283 0
-326 -185 -44 -43 0
-326 -185 -44 -163 0
-326 -185 -164 -283 0
-326 -185 -164 -43 0
-86 -305 -284 -43 0
-86 -305 -284 -163 0
-86 -305 -44 -283 0
-86 -305 -44 -43 0
-86 -305 -44 -163 0
-86 -305 -164 -283 0
-86 -305 -164 -43 0
-86 -305 -164 -163 0
-86 -65 -284 -283 0
-86 -65 -284 -43 0
-86 -65 -284 -163 0
-86 -65 -44 -283 0
-86 -65 -44 -163 0
-86 -65 -164 -283 0
-86 -65 -164 -43 0
-86 -65 -164 -163 0
-86 -185 -284 -283 0
-86 -185 -284 -43 0
-86 -185 -284 -163 0
-86 -185 -44 -283 0
-86 -185 -44 -43 0
-86 -185 -44 -163 0
-86 -185 -164 -283 0
-86 -185 -164 -43 0
-206 -305 -284 -43 0
-206 -305 -284 -163 0
-206 -305 -44 -283 0
-206 -305 -44 -43 0
-206 -305 -44 -163 0
-206 -305 -164 -283 0
-206 -305 -164 -43 0
-206 -305 -164 -163 0
-206 -65 -284 -43 0
-206 -65 -284 -163 0
-206 -65 -44 -283 0
-206 -65 -44 -43 0
-206 -65 -44 -163 0
-206 -65 -164 -283 0
-206 -65 -164 -43 0
-206 -65 -164 -163 0
-206 -185 -284 -43 0
-206 -185 -284 -163 0
-206 -185 -44 -43 0
-206 -185 -44 -163 0
-327 -291 -46 -285 0
-327 -291 -46 -45 0
-327 -291 -166 -285 0
-327 -291 -166 -45 0
-327 -51 -286 -285 0
-327 -51 -286 -45 0
-327 -51 -286 -165 0
-327 -51 -46 -285 0
-327 -51 -46 -45 0
-327 -51 -46 -165 0
-327 -51 -166 -285 0
-327 -51 -166 -45 0
-327 -171 -286 -285 0
-327 -171 -286 -45 0
-327 -171 -286 -165 0
-327 -171 -46 -285 0
-327 -171 -46 -45 0
-327 -171 -46 -165 0
-327 -171 -166 -285 0
-327 -171 -166 -45 0
-87 -291 -286 -45 0
-87 -291 -286 -165 0
-87 -291 -46 -285 0
-87 -291 -46 -45 0
-87 -291 -46 -165 0
-87 -291 -166 -285 0
-87 -291 -166 -45 0
-87 -291 -166 -165 0
-87 -51 -286 -285 0
-87 -51 -286 -45 0
-87 -51 -286 -165 0
-87 -51 -46 -285 0
-87 -51 -46 -165 0
-87 -51 -166 -285 0
-87 -51 -166 -45 0
-87 -51 -166 -165 0
-87 -171 -286 -285 0
-87 -171 -286 -45 0
-87 -171 -286 -165 0
-87 -171 -46 -285 0
-87 -171 -46 -45 0
-87 -171 -46 -165 0
-87 -171 -166 -285 0
-87 -171 -166 -45 0
-207 -291 -286 -45 0
-207 -291 -286 -165 0
-207 -291 -46 -285 0
-207 -291 -46 -45 0
-207 -291 -46 -165 0
-207 -291 -166 -285 0
-207 -291 -166 -45 0
-207 -291 -166 -165 0
-207 -51 -286 -45 0
-207 -51 -286 -165 0
-207 -51 -46 -285 0
-207 -51 -46 -45 0
-207 -51 -46 -165 0
-207 -51 -166 -285 0
-207 -51 -166 -45 0
-207 -51 -166 -165 0
-207 -171 -286 -45 0
-207 -171 -286 -165 0
-207 -171 -46 -45 0
-207 -171 -46 -165 0
-328 -292 -47 -285 0
-328 -292 -47 -45 0
-328 -292 -167 -285 0
-328 -292 -167 -45 0
-328 -52 -287 -285 0
-328 -52 -287 -45 0
-328 -52 -287 -165 0
-328 -52 -47 -285 0
-328 -52 -47 -45 0
-328 -52 -47 -165 0
-328 -52 -167 -285 0
-328 -52 -167 -45 0
-328 -172 -287 -285 0
-328 -172 -287 -45 0
-328 -172 -287 -165 0
-328 -172 -47 -285 0
-328 -172 -47 -45 0
-328 -172 -47 -165 0
-328 -172 -167 -285 0
-328 -172 -167 -45 0
-88 -292 -287 -45 0
-88 -292 -287 -165 0
-88 -292 -47 -285 0
-88 -292 -47 -45 0
-88 -292 -47 -165 0
-88 -292 -167 -285 0
-88 -292 -167 -45 0
-88 -292 -167 -165 0
-88 -52 -287 -285 0
-88 -52 -287 -45 0
-88 -52 -287 -165 0
-88 -52 -47 -285 0
-88 -52 -47 -165 0
-88 -52 -167 -285 0
-88 -52 -167 -45 0
-88 -52 -167 -165 0
-88 -172 -287 -285 0
-88 -172 -287 -45 0
-88 -172 -287 -165 0
-88 -172 -47 -285 0
-88 -172 -47 -45 0
-88 -172 -47 -165 0
-88 -172 -167 -285 0
-88 -172 -167 -45 0
-208 -292 -287 -45 0
-208 -292 -287 -165 0
-208 -292 -47 -285 0
-208 -292 -47 -45 0
-208 -292 -47 -165 0
-208 -292 -167 -285 0
-208 -292 -167 -45 0
-208 -292 -167 -165 0
-208 -52 -287 -45 0
-208 -52 -287 -165 0
-208 -52 -47 -285 0
-208 -52 -47 -45 0
-208 -52 -47 -165 0
-208 -52 -167 -285 0
-208 -52 -167 -45 0
-208 -52 -167 -165 0
-208 -172 -287 -45 0
-208 -172 -287 -165 0
-208 -172 -47 -45 0
-208 -172 -47 -165 0
-329 -293 -48 -285 0
-329 -293 -48 -45 0
-329 -293 -168 -285 0
-329 -293 -168 -45 0
-329 -53 -288 -285 0
-329 -53 -288 -45 0
-329 -53 -288 -165 0
-329 -53 -48 -285 0
-329 -53 -48 -45 0
-329 -53 -48 -165 0
-329 -53 -168 -285 0
-329 -53 -168 -45 0
-329 -173 -288 -285 0
-329 -173 -288 -45 0
-329 -173 -288 -165 0
-329 -173 -48 -285 0
-329 -173 -48 -45 0
-329 -173 -48 -165 0
-329 -173 -168 -285 0
-329 -173 -168 -45 0
-89 -293 -288 -45 0
-89 -293 -288 -165 0
-89 -293 -48 -285 0
-89 -293 -48 -45 0
-89 -293 -48 -165 0
-89 -293 -168 -285 0
-89 -293 -168 -45 0
-89 -293 -168 -165 0
-89 -53 -288 -285 0
-89 -53 -288 -45 0
-89 -53 -288 -165 0
-89 -53 -48 -285 0
-89 -53 -48 -165 0
-89 -53 -168 -285 0
-89 -53 -168 -45 0
-89 -53 -168 -165 0
-89 -173 -288 -285 0
-89 -173 -288 -45 0
-89 -173 -288 -165 0
-89 -173 -48 -285 0
-89 -173 -48 -45 0
-89 -173 -48 -165 0
-89 -173 -168 -285 0
-89 -173 -168 -45 0
-209 -293 -288 -45 0
-209 -293 -288 -165 0
-209 -293 -48 -285 0
-209 -293 -48 -45 0
-209 -293 -48 -165 0
-209 -293 -168 -285 0
-209 -293 -168 -45 0
-209 -293 -168 -165 0
-209 -53 -288 -45 0
-209 -53 -288 -165 0
-209 -53 -48 -285 0
-209 -53 -48 -45 0
-209 -53 -48 -165 0
-209 -53 -168 -285 0
-209 -53 -168 -45 0
-209 -53 -168 -165 0
-209 -173 -288 -45 0
-209 -173 -288 -165 0
-209 -173 -48 -45 0
-209 -173 -48 -165 0
-330 -294 -49 -285 0
-330 -294 -49 -45 0
-330 -294 -169 -285 0
-330 -294 -169 -45 0
-330 -54 -289 -285 0
-330 -54 -289 -45 0
-330 -54 -289 -165 0
-330 -54 -49 -285 0
-330 -54 -49 -45 0
-330 -54 -49 -165 0
-330 -54 -169 -285 0
-330 -54 -169 -45 0
-330 -174 -289 -285 0
-330 -174 -289 -45 0
-330 -174 -289 -165 0
-330 -174 -49 -285 0
-330 -174 -49 -45 0
-330 -174 -49 -165 0
-330 -174 -169 -285 0
-330 -174 -169 -45 0
-90 -294 -289 -45 0
-90 -294 -289 -165 0
-90 -294 -49 -285 0
-90 -294 -49 -45 0
-90 -294 -49 -165 0
-90 -294 -169 -285 0
-90 -294 -169 -45 0
-90 -294 -169 -165 0
-90 -54 -289 -285 0
-90 -54 -289 -45 0
-90 -54 -289 -165 0
-90 -54 -49 -285 0
-90 -54 -49 -165 0
-90 -54 -169 -285 0
-90 -54 -169 -45 0
-90 -54 -169 -165 0
-90 -174 -289 -285 0
-90 -174 -289 -45 0
-90 -174 -289 -165 0
-90 -174 -49 -285 0
-90 -174 -49 -45 0
-90 -174 -49 -165 0
-90 -174 -169 -285 0
-90 -174 -169 -45 0
-210 -294 -289 -45 0
-210 -294 -289 -165 0
-210 -294 -49 -285 0
-210 -294 -49 -45 0
-210 -294 -49 -165 0
-210 -294 -169 -285 0
-210 -294 -169 -45 0
-210 -294 -169 -165 0
-210 -54 -289 -45 0
-210 -54 -289 -165 0
-210 -54 -49 -285 0
-210 -54 -49 -45 0
-210 -54 -49 -165 0
-210 -54 -169 -285 0
-210 -54 -169 -45 0
-210 -54 -169 -165 0
-210 -174 -289 -45 0
-210 -174 -289 -165 0
-210 -174 -49 -45 0
-210 -174 -49 -165 0
-331 -295 -50 -285 0
-331 -295 -50 -45 0
-331 -295 -170 -285 0
-331 -295 -170 -45 0
-331 -55 -290 -285 0
-331 -55 -290 -45 0
-331 -55 -290 -165 0
-331 -55 -50 -285 0
-331 -55 -50 -45 0
-331 -55 -50 -165 0
-331 -55 -170 -285 0
-331 -55 -170 -45 0
-331 -175 -290 -285 0
-331 -175 -290 -45 0
-331 -175 -290 -165 0
-331 -175 -50 -285 0
-331 -175 -50 -45 0
-331 -175 -50 -165 0
-331 -175 -170 -285 0
-331 -175 -170 -45 0
-91 -295 -290 -45 0
-91 -295 -290 -165 0
-91 -295 -50 -285 0
-91 -295 -50 -45 0
-91 -295 -50 -165 0
-91 -295 -170 -285 0
-91 -295 -170 -45 0
-91 -295 -170 -165 0
-91 -55 -290 -285 0
-91 -55 -290 -45 0
-91 -55 -290 -165 0
-91 -55 -50 -285 0
-91 -55 -50 -165 0
-91 -55 -170 -285 0
-91 -55 -170 -45 0
-91 -55 -170 -165 0
-91 -175 -290 -285 0
-91 -175 -290 -45 0
-91 -175 -290 -165 0
-91 -175 -50 -285 0
-91 -175 -50 -45 0
-91 -175 -50 -165 0
-91 -175 -170 -285 0
-91 -175 -170 -45 0
-211 -295 -290 -45 0
-211 -295 -290 -165 0
-211 -295 -50 -285 0
-211 -295 -50 -45 0
-211 -295 -50 -165 0
-211 -295 -170 -285 0
-211 -295 -170 -45 0
-211 -295 -170 -165 0
-211 -55 -290 -45 0
-211 -55 -290 -165 0
-211 -55 -50 -285 0
-211 -55 -50 -45 0
-211 -55 -50 -165 0
-211 -55 -170 -285 0
-211 -55 -170 -45 0
-211 -55 -170 -165 0
-211 -175 -290 -45 0
-211 -175 -290 -165 0
-211 -175 -50 -45 0
-211 -175 -50 -165 0
-332 -296 -47 -286 0
-332 -296 -47 -46 0
-332 -296 -167 -286 0
-332 -296 -167 -46 0
-332 -56 -287 -286 0
-332 -56 -287 -46 0
-332 -56 -287 -166 0
-332 -56 -47 -286 0
-332 -56 -47 -46 0
-332 -56 -47 -166 0
-332 -56 -167 -286 0
-332 -56 -167 -46 0
-332 -176 -287 -286 0
-332 -176 -287 -46 0
-332 -176 -287 -166 0
-332 -176 -47 -286 0
-332 -176 -47 -46 0
-332 -176 -47 -166 0
-332 -176 -167 -286 0
-332 -176 -167 -46 0
-92 -296 -287 -46 0
-92 -296 -287 -166 0
-92 -296 -47 -286 0
-92 -296 -47 -46 0
-92 -296 -47 -166 0
-92 -296 -167 -286 0
-92 -296 -167 -46 0
-92 -296 -167 -166 0
-92 -56 -287 -286 0
-92 -56 -287 -46 0
-92 -56 -287 -166 0
-92 -56 -47 -286 0
-92 -56 -47 -166 0
-92 -56 -167 -286 0
-92 -56 -167 -46 0
-92 -56 -167 -166 0
-92 -176 -287 -286 0
-92 -176 -287 -46 0
-92 -176 -287 -166 0
-92 -176 -47 -286 0
-92 -176 -47 -46 0
-92 -176 -47 -166 0
-92 -176 -167 -286 0
-92 -176 -167 -46 0
-212 -296 -287 -46 0
-212 -296 -287 -166 0
-212 -296 -47 -286 0
-212 -296 -47 -46 0
-212 -296 -47 -166 0
-212 -296 -167 -286 0
-212 -296 -167 -46 0
-212 -296 -167 -166 0
-212 -56 -287 -46 0
-212 -56 -287 -166 0
-212 -56 -47 -286 0
-212 -56 -47 -46 0
-212 -56 -47 -166 0
-212 -56 -167 -286 0
-212 -56 -167 -46 0
-212 -56 -167 -166 0
-212 -176 -287 -46 0
-212 -176 -287 -166 0
-212 -176 -47 -46 0
-212 -176 -47 -166 0
-333 -297 -48 -286 0
-333 -297 -48 -46 0
-333 -297 -168 -286 0
-333 -297 -168 -46 0
-333 -57 -288 -286 0
-333 -57 -288 -46 0
-333 -57 -288 -166 0
-333 -57 -48 -286 0
-333 -57 -48 -46 0
-333 -57 -48 -166 0
-333 -57 -168 -286 0
-333 -57 -168 -46 0
-333 -177 -288 -286 0
-333 -177 -288 -46 0
-333 -177 -288 -166 0
-333 -177 -48 -286 0
-333 -177 -48 -46 0
-333 -177 -48 -166 0
-333 -177 -168 -286 0
-333 -177 -168 -46 0
-93 -297 -288 -46 0
-93 -297 -288 -166 0
-93 -297 -48 -286 0
-93 -297 -48 -46 0
-93 -297 -48 -166 0
-93 -297 -168 -286 0
-93 -297 -168 -46 0
-93 -297 -168 -166 0
-93 -57 -288 -286 0
-93 -57 -288 -46 0
-93 -57 -288 -166 0
-93 -57 -48 -286 0
-93 -57 -48 -166 0
-93 -57 -168 -286 0
-93 -57 -168 -46 0
-93 -57 -168 -166 0
-93 -177 -288 -286 0
-93 -177 -288 -46 0
-93 -177 -288 -166 0
-93 -177 -48 -286 0
-93 -177 -48 -46 0
-93 -177 -48 -166 0
-93 -177 -168 -286 0
-93 -177 -168 -46 0
-213 -297 -288 -46 0
-213 -297 -288 -166 0
-213 -297 -48 -286 0
-213 -297 -48 -46 0
-213 -297 -48 -166 0
-213 -297 -168 -286 0
-213 -297 -168 -46 0
-213 -297 -168 -166 0
-213 -57 -288 -46 0
-213 -57 -288 -166 0
-213 -57 -48 -286 0
-213 -57 -48 -46 0
-213 -57 -48 -166 0
-213 -57 -168 -286 0
-213 -57 -168 -46 0
-213 -57 -168 -166 0
-213 -177 -288 -46 0
-213 -177 -288 -166 0
-213 -177 -48 -46 0
-213 -177 -48 -166 0
-334 -298 -49 -286 0
-334 -298 -49 -46 0
-334 -298 -169 -286 0
-334 -298 -169 -46 0
-334 -58 -289 -286 0
-334 -58 -289 -46 0
-334 -58 -289 -166 0
-334 -58 -49 -286 0
-334 -58 -49 -46 0
-334 -58 -49 -166 0
-334 -58 -169 -286 0
-334 -58 -169 -46 0
-334 -178 -289 -286 0
-334 -178 -289 -46 0
-334 -178 -289 -166 0
-334 -178 -49 -286 0
-334 -178 -49 -46 0
-334 -178 -49 -166 0
-334 -178 -169 -286 0
-334 -178 -169 -46 0
-94 -298 -289 -46 0
-94 -298 -289 -166 0
-94 -298 -49 -286 0
-94 -298 -49 -46 0
-94 -298 -49 -166 0
-94 -298 -169 -286 0
-94 -298 -169 -46 0
-94 -298 -169 -166 0
-94 -58 -289 -286 0
-94 -58 -289 -46 0
-94 -58 -289 -166 0
-94 -58 -49 -286 0
-94 -58 -49 -166 0
-94 -58 -169 -286 0
-94 -58 -169 -46 0
-94 -58 -169 -166 0
-94 -178 -289 -286 0
-94 -178 -289 -46 0
-94 -178 -289 -166 0
-94 -178 -49 -286 0
-94 -178 -49 -46 0
-94 -178 -49 -166 0
-94 -178 -169 -286 0
-94 -178 -169 -46 0
-214 -298 -289 -46 0
-214 -298 -289 -166 0
-214 -298 -49 -286 0
-214 -298 -49 -46 0
-214 -298 -49 -166 0
-214 -298 -169 -286 0
-214 -298 -169 -46 0
-214 -298 -169 -166 0
-214 -58 -289 -46 0
-214 -58 -289 -166 0
-214 -58 -49 -286 0
-214 -58 -49 -46 0
-214 -58 -49 -166 0
-214 -58 -169 -286 0
-214 -58 -169 -46 0
-214 -58 -169 -166 0
-214 -178 -289 -46 0
-214 -178 -289 -166 0
-214 -178 -49 -46 0
-214 -178 -49 -166 0
-335 -299 -50 -286 0
-335 -299 -50 -46 0
-335 -299 -170 -286 0
-335 -299 -170 -46 0
-335 -59 -290 -286 0
-335 -59 -290 -46 0
-335 -59 -290 -166 0
-335 -59 -50 -286 0
-335 -59 -50 -46 0
-335 -59 -50 -166 0
-335 -59 -170 -286 0
-335 -59 -170 -46 0
-335 -179 -290 -286 0
-335 -179 -290 -46 0
-335 -179 -290 -166 0
-335 -179 -50 -286 0
-335 -179 -50 -46 0
-335 -179 -50 -166 0
-335 -179 -170 -286 0
-335 -179 -170 -46 0
-95 -299 -290 -46 0
-95 -299 -290 -166 0
-95 -299 -50 -286 0
-95 -299 -50 -46 0
-95 -299 -50 -166 0
-95 -299 -170 -286 0
-95 -299 -170 -46 0
-95 -299 -170 -166 0
-95 -59 -290 -286 0
-95 -59 -290 -46 0
-95 -59 -290 -166 0
-95 -59 -50 -286 0
-95 -59 -50 -166 0
-95 -59 -170 -286 0
-95 -59 -170 -46 0
-95 -59 -170 -166 0
-95 -179 -290 -286 0
-95 -179 -290 -46 0
-95 -179 -290 -166 0
-95 -179 -50 -286 0
-95 -179 -50 -46 0
-95 -179 -50 -166 0
-95 -179 -170 -286 0
-95 -179 -170 -46 0
-215 -299 -290 -46 0
-215 -299 -290 -166 0
-215 -299 -50 -286 0
-215 -299 -50 -46 0
-215 -299 -50 -166 0
-215 -299 -170 -286 0
-215 -299 -170 -46 0
-215 -299 -170 -166 0
-215 -59 -290 -46 0
-215 -59 -290 -166 0
-215 -59 -50 -286 0
-215 -59 -50 -46 0
-215 -59 -50 -166 0
-215 -59 -170 -286 0
-215 -59 -170 -46 0
-215 -59 -170 -166 0
-215 -179 -290 -46 0
-215 -179 -290 -166 0
-215 -179 -50 -46 0
-215 -179 -50 -166 0
-336 -300 -48 -287 0
-336 -300 -48 -47 0
-336 -300 -168 -287 0
-336 -300 -168 -47 0
-336 -60 -288 -287 0
-336 -60 -288 -47 0
-336 -60 -288 -167 0
-336 -60 -48 -287 0
-336 -60 -48 -47 0
-336 -60 -48 -167 0
-336 -60 -168 -287 0
-336 -60 -168 -47 0
-336 -180 -288 -287 0
-336 -180 -288 -47 0
-336 -180 -288 -167 0
-336 -180 -48 -287 0
-336 -180 -48 -47 0
-336 -180 -48 -167 0
-336 -180 -168 -287 0
-336 -180 -168 -47 0
-96 -300 -288 -47 0
-96 -300 -288 -167 0
-96 -300 -48 -287 0
-96 -300 -48 -47 0
-96 -300 -48 -167 0
-96 -300 -168 -287 0
-96 -300 -168 -47 0
-96 -300 -168 -167 0
-96 -60 -288 -287 0
-96 -60 -288 -47 0
-96 -60 -288 -167 0
-96 -60 -48 -287 0
-96 -60 -48 -167 0
-96 -60 -168 -287 0
-96 -60 -168 -47 0
-96 -60 -168 -167 0
-96 -180 -288 -287 0
-96 -180 -288 -47 0
-96 -180 -288 -167 0
-96 -180 -48 -287 0
-96 -180 -48 -47 0
-96 -180 -48 -167 0
-96 -180 -168 -287 0
-96 -180 -168 -47 0
-216 -300 -288 -47 0
-216 -300 -288 -167 0
-216 -300 -48 -287 0
-216 -300 -48 -47 0
-216 -300 -48 -167 0
-216 -300 -168 -287 0
-216 -300 -168 -47 0
-216 -300 -168 -167 0
-216 -60 -288 -47 0
-216 -60 -288 -167 0
-216 -60 -48 -287 0
-216 -60 -48 -47 0
-216 -60 -48 -167 0
-216 -60 -168 -287 0
-216 -60 -168 -47 0
-216 -60 -168 -167 0
-216 -180 -288 -47 0
-216 -180 -288 -167 0
-216 -180 -48 -47 0
-216 -180 -48 -167 0
-337 -301 -49 -287 0
-337 -301 -49 -47 0
-337 -301 -169 -287 0
-337 -301 -169 -47 0
-337 -61 -289 -287 0
-337 -61 -289 -47 0
-337 -61 -289 -167 0
-337 -61 -49 -287 0
-337 -61 -49 -47 0
-337 -61 -49 -167 0
-337 -61 -169 -287 0
-337 -61 -169 -47 0
-337 -181 -289 -287 0
-337 -181 -289 -47 0
-337 -181 -289 -167 0
-337 -181 -49 -287 0
-337 -181 -49 -47 0
-337 -181 -49 -167 0
-337 -181 -169 -287 0
-337 -181 -169 -47 0
-97 -301 -289 -47 0
-97 -301 -289 -167 0
-97 -301 -49 -287 0
-97 -301 -49 -47 0
-97 -301 -49 -167 0
-97 -301 -169 -287 0
-97 -301 -169 -47 0
-97 -301 -169 -167 0
-97 -61 -289 -287 0
-97 -61 -289 -47 0
-97 -61 -289 -167 0
-97 -61 -49 -287 0
-97 -61 -49 -167 0
-97 -61 -169 -287 0
-97 -61 -169 -47 0
-97 -61 -169 -167 0
-97 -181 -289 -287 0
-97 -181 -289 -47 0
-97 -181 -289 -167 0
-97 -181 -49 -287 0
-97 -181 -49 -47 0
-97 -181 -49 -167 0
-97 -181 -169 -287 0
-97 -181 -169 -47 0
-217 -301 -289 -47 0
-217 -301 -289 -167 0
-217 -301 -49 -287 0
-217 -301 -49 -47 0
-217 -301 -49 -167 0
-217 -301 -169 -287 0
-217 -301 -169 -47 0
-217 -301 -169 -167 0
-217 -61 -289 -47 0
-217 -61 -289 -167 0
-217 -61 -49 -287 0
-217 -61 -49 -47 0
-217 -61 -49 -167 0
-217 -61 -169 -287 0
-217 -61 -169 -47 0
-217 -61 -169 -167 0
-217 -181 -289 -47 0
-217 -181 -289 -167 0
-217 -181 -49 -47 0
-217 -181 -49 -167 0
-338 -302 -50 -287 0
-338 -302 -50 -47 0
-338 -302 -170 -287 0
-338 -302 -170 -47 0
-338 -62 -290 -287 0
-338 -62 -290 -47 0
-338 -62 -290 -167 0
-338 -62 -50 -287 0
-338 -62 -50 -47 0
-338 -62 -50 -167 0
-338 -62 -170 -287 0
-338 -62 -170 -47 0
-338 -182 -290 -287 0
-338 -182 -290 -47 0
-338 -182 -290 -167 0
-338 -182 -50 -287 0
-338 -182 -50 -47 0
-338 -182 -50 -167 0
-338 -182 -170 -287 0
-338 -182 -170 -47 0
-98 -302 -290 -47 0
-98 -302 -290 -167 0
-98 -302 -50 -287 0
-98 -302 -50 -47 0
-98 -302 -50 -167 0
-98 -302 -170 -287 0
-98 -302 -170 -47 0
-98 -302 -170 -167 0
-98 -62 -290 -287 0
-98 -62 -290 -47 0
-98 -62 -290 -167 0
-98 -62 -50 -287 0
-98 -62 -50 -167 0
-98 -62 -170 -287 0
-98 -62 -170 -47 0
-98 -62 -170 -167 0
-98 -182 -290 -287 0
-98 -182 -290 -47 0
-98 -182 -290 -167 0
-98 -182 -50 -287 0
-98 -182 -50 -47 0
-98 -182 -50 -167 0
-98 -182 -170 -287 0
-98 -182 -170 -47 0
-218 -302 -290 -47 0
-218 -302 -290 -167 0
-218 -302 -50 -287 0
-218 -302 -50 -47 0
-218 -302 -50 -167 0
-218 -302 -170 -287 0
-218 -302 -170 -47 0
-218 -302 -170 -167 0
-218 -62 -290 -47 0
-218 -62 -290 -167 0
-218 -62 -50 -287 0
-218 -62 -50 -47 0
-218 -62 -50 -167 0
-218 -62 -170 -287 0
-218 -62 -170 -47 0
-218 -62 -170 -167 0
-218 -182 -290 -47 0
-218 -182 -290 -167 0
-218 -182 -50 -47 0
-218 -182 -50 -167 0
-339 -303 -49 -288 0
-339 -303 -49 -48 0
-339 -303 -169 -288 0
-339 -303 -169 -48 0
-339 -63 -289 -288 0
-339 -63 -289 -48 0
-339 -63 -289 -168 0
-339 -63 -49 -288 0
-339 -63 -49 -48 0
-339 -63 -49 -168 0
-339 -63 -169 -288 0
-339 -63 -169 -48 0
-339 -183 -289 -288 0
-339 -183 -289 -48 0
-339 -183 -289 -168 0
-339 -183 -49 -288 0
-339 -183 -49 -48 0
-339 -183 -49 -168 0
-339 -183 -169 -288 0
-339 -183 -169 -48 0
-99 -303 -289 -48 0
-99 -303 -289 -168 0
-99 -303 -49 -288 0
-99 -303 -49 -48 0
-99 -303 -49 -168 0
-99 -303 -169 -288 0
-99 -303 -169 -48 0
-99 -303 -169 -168 0
-99 -63 -289 -288 0
-99 -63 -289 -48 0
-99 -63 -289 -168 0
-99 -63 -49 -288 0
-99 -63 -49 -168 0
-99 -63 -169 -288 0
-99 -63 -169 -48 0
-99 -63 -169 -168 0
-99 -183 -289 -288 0
-99 -183 -289 -48 0
-99 -183 -289 -168 0
-99 -183 -49 -288 0
-99 -183 -49 -48 0
-99 -183 -49 -168 0
-99 -183 -169 -288 0
-99 -183 -169 -48 0
-219 -303 -289 -48 0
-219 -303 -289 -168 0
-219 -303 -49 -288 0
-219 -303 -49 -48 0
-219 -303 -49 -168 0
-219 -303 -169 -288 0
-219 -303 -169 -48 0
-219 -303 -169 -168 0
-219 -63 -289 -48 0
-219 -63 -289 -168 0
-219 -63 -49 -288 0
-219 -63 -49 -48 0
-219 -63 -49 -168 0
-219 -63 -169 -288 0
-219 -63 -169 -48 0
-219 -63 -169 -168 0
-219 -183 -289 -48 0
-219 -183 -289 -168 0
-219 -183 -49 -48 0
-219 -183 -49 -168 0
-340 -304 -50 -288 0
-340 -304 -50 -48 0
-340 -304 -170 -288 0
-340 -304 -170 -48 0
-340 -64 -290 -288 0
-340 -64 -290 -48 0
-340 -64 -290 -168 0
-340 -64 -50 -288 0
-340 -64 -50 -48 0
-340 -64 -50 -168 0
-340 -64 -170 -288 0
-340 -64 -170 -48 0
-340 -184 -290 -288 0
-340 -184 -290 -48 0
-340 -184 -290 -168 0
-340 -184 -50 -288 0
-340 -184 -50 -48 0
-340 -184 -50 -168 0
-340 -184 -170 -288 0
-340 -184 -170 -48 0
-100 -304 -290 -48 0
-100 -304 -290 -168 0
-100 -304 -50 -288 0
-100 -304 -50 -48 0
-100 -304 -50 -168 0
-100 -304 -170 -288 0
-100 -304 -170 -48 0
-100 -304 -170 -168 0
-100 -64 -290 -288 0
-100 -64 -290 -48 0
-100 -64 -290 -168 0
-100 -64 -50 -288 0
-100 -64 -50 -168 0
-100 -64 -170 -288 0
-100 -64 -170 -48 0
-100 -64 -170 -168 0
-100 -184 -290 -288 0
-100 -184 -290 -48 0
-100 -184 -290 -168 0
-100 -184 -50 -288 0
-100 -184 -50 -48 0
-100 -184 -50 -168 0
-100 -184 -170 -288 0
-100 -184 -170 -48 0
-220 -304 -290 -48 0
-220 -304 -290 -168 0
-220 -304 -50 -288 0
-220 -304 -50 -48 0
-220 -304 -50 -168 0
-220 -304 -170 -288 0
-220 -304 -170 -48 0
-220 -304 -170 -168 0
-220 -64 -290 -48 0
-220 -64 -290 -168 0
-220 -64 -50 -288 0
-220 -64 -50 -48 0
-220 -64 -50 -168 0
-220 -64 -170 -288 0
-220 -64 -170 -48 0
-220 -64 -170 -168 0
-220 -184 -290 -48 0
-220 -184 -290 -168 0
-220 -184 -50 -48 0
-220 -184 -50 -168 0
-341 -305 -50 -289 0
-341 -305 -50 -49 0
-341 -305 -170 -289 0
-341 -305 -170 -49 0
-341 -65 -290 -289 0
-341 -65 -290 -49 0
-341 -65 -290 -169 0
-341 -65 -50 -289 0
-341 -65 -50 -49 0
-341 -65 -50 -169 0
-341 -65 -170 -289 0
-341 -65 -170 -49 0
-341 -185 -290 -289 0
-341 -185 -290 -49 0
-341 -185 -290 -169 0
-341 -185 -50 -289 0
-341 -185 -50 -49 0
-341 -185 -50 -169 0
-341 -185 -170 -289 0
-341 -185 -170 -49 0
-101 -305 -290 -49 0
-101 -305 -290 -169 0
-101 -305 -50 -289 0
-101 -305 -50 -49 0
-101 -305 -50 -169 0
-101 -305 -170 -289 0
-101 -305 -170 -49 0
-101 -305 -170 -169 0
-101 -65 -290 -289 0
-101 -65 -290 -49 0
-101 -65 -290 -169 0
-101 -65 -50 -289 0
-101 -65 -50 -169 0
-101 -65 -170 -289 0
-101 -65 -170 -49 0
-101 -65 -170 -169 0
-101 -185 -290 -289 0
-101 -185 -290 -49 0
-101 -185 -290 -169 0
-101 -185 -50 -289 0
-101 -185 -50 -49 0
-101 -185 -50 -169 0
-101 -185 -170 -289 0
-101 -185 -170 -49 0
-221 -305 -290 -49 0
-221 -305 -290 -169 0
-221 -305 -50 -289 0
-221 -305 -50 -49 0
-221 -305 -50 -169 0
-221 -305 -170 -289 0
-221 -305 -170 -49 0
-221 -305 -170 -169 0
-221 -65 -290 -49 0
-221 -65 -290 -169 0
-221 -65 -50 -289 0
-221 -65 -50 -49 0
-221 -65 -50 -169 0
-221 -65 -170 -289 0
-221 -65 -170 -49 0
-221 -65 -170 -169 0
-221 -185 -290 -49 0
-221 -185 -290 -169 0
-221 -185 -50 -49 0
-221 -185 -50 -169 0
-342 -296 -52 -291 0
-342 -296 -52 -51 0
-342 -296 -172 -291 0
-342 -296 -172 -51 0
-342 -56 -292 -291 0
-342 -56 -292 -51 0
-342 -56 -292 -171 0
-342 -56 -52 -291 0
-342 -56 -52 -51 0
-342 -56 -52 -171 0
-342 -56 -172 -291 0
-342 -56 -172 -51 0
-342 -176 -292 -291 0
-342 -176 -292 -51 0
-342 -176 -292 -171 0
-342 -176 -52 -291 0
-342 -176 -52 -51 0
-342 -176 -52 -171 0
-342 -176 -172 -291 0
-342 -176 -172 -51 0
-102 -296 -292 -51 0
-102 -296 -292 -171 0
-102 -296 -52 -291 0
-102 -296 -52 -51 0
-102 -296 -52 -171 0
-102 -296 -172 -291 0
-102 -296 -172 -51 0
-102 -296 -172 -171 0
-102 -56 -292 -291 0
-102 -56 -292 -51 0
-102 -56 -292 -171 0
-102 -56 -52 -291 0
-102 -56 -52 -171 0
-102 -56 -172 -291 0
-102 -56 -172 -51 0
-102 -56 -172 -171 0
-102 -176 -292 -291 0
-102 -176 -292 -51 0
-102 -176 -292 -171 0
-102 -176 -52 -291 0
-102 -176 -52 -51 0
-102 -176 -52 -171 0
-102 -176 -172 -291 0
-102 -176 -172 -51 0
-222 -296 -292 -51 0
-222 -296 -292 -171 0
-222 -296 -52 -291 0
-222 -296 -52 -51 0
-222 -296 -52 -171 0
-222 -296 -172 -291 0
-222 -296 -172 -51 0
-222 -296 -172 -171 0
-222 -56 -292 -51 0
-222 -56 -292 -171 0
-222 -56 -52 -291 0
-222 -56 -52 -51 0
-222 -56 -52 -171 0
-222 -56 -172 -291 0
-222 -56 -172 -51 0
-222 -56 -172 -171 0
-222 -176 -292 -51 0
-222 -176 -292 -171 0
-222 -176 -52 -51 0
-222 -176 -52 -171 0
-343 -297 -53 -291 0
-343 -297 -53 -51 0
-343 -297 -173 -291 0
-343 -297 -173 -51 0
-343 -57 -293 -291 0
-343 -57 -293 -51 0
-343 -57 -293 -171 0
-343 -57 -53 -291 0
-343 -57 -53 -51 0
-343 -57 -53 -171 0
-343 -57 -173 -291 0
-343 -57 -173 -51 0
-343 -177 -293 -291 0
-343 -177 -293 -51 0
-343 -177 -293 -171 0
-343 -177 -53 -291 0
-343 -177 -53 -51 0
-343 -177 -53 -171 0
-343 -177 -173 -291 0
-343 -177 -173 -51 0
-103 -297 -293 -51 0
-103 -297 -293 -171 0
-103 -297 -53 -291 0
-103 -297 -53 -51 0
-103 -297 -53 -171 0
-103 -297 -173 -291 0
-103 -297 -173 -51 0
-103 -297 -173 -171 0
-103 -57 -293 -291 0
-103 -57 -293 -51 0
-103 -57 -293 -171 0
-103 -57 -53 -291 0
-103 -57 -53 -171 0
-103 -57 -173 -291 0
-103 -57 -173 -51 0
-103 -57 -173 -171 0
-103 -177 -293 -291 0
-103 -177 -293 -51 0
-103 -177 -293 -171 0
-103 -177 -53 -291 0
-103 -177 -53 -51 0
-103 -177 -53 -171 0
-103 -177 -173 -291 0
-103 -177 -173 -51 0
-223 -297 -293 -51 0
-223 -297 -293 -171 0
-223 -297 -53 -291 0
-223 -297 -53 -51 0
-223 -297 -53 -171 0
-223 -297 -173 -291 0
-223 -297 -173 -51 0
-223 -297 -173 -171 0
-223 -57 -293 -51 0
-223 -57 -293 -171 0
-223 -57 -53 -291 0
-223 -57 -53 -51 0
-223 -57 -53 -171 0
-223 -57 -173 -291 0
-223 -57 -173 -51 0
-223 -57 -173 -171 0
-223 -177 -293 -51 0
-223 -177 -293 -171 0
-223 -177 -53 -51 0
-223 -177 -53 -171 0
-344 -298 -54 -291 0
-344 -298 -54 -51 0
-344 -298 -174 -291 0
-344 -298 -174 -51 0
-344 -58 -294 -291 0
-344 -58 -294 -51 0
-344 -58 -294 -171 0
-344 -58 -54 -291 0
-344 -58 -54 -51 0
-344 -58 -54 -171 0
-344 -58 -174 -291 0
-344 -58 -174 -51 0
-344 -178 -294 -291 0
-344 -178 -294 -51 0
-344 -178 -294 -171 0
-344 -178 -54 -291 0
-344 -178 -54 -51 0
-344 -178 -54 -171 0
-344 -178 -174 -291 0
-344 -178 -174 -51 0
-104 -298 -294 -51 0
-104 -298 -294 -171 0
-104 -298 -54 -291 0
-104 -298 -54 -51 0
-104 -298 -54 -171 0
-104 -298 -174 -291 0
-104 -298 -174 -51 0
-104 -298 -174 -171 0
-104 -58 -294 -291 0
-104 -58 -294 -51 0
-104 -58 -294 -171 0
-104 -58 -54 -291 0
-104 -58 -54 -171 0
-104 -58 -174 -291 0
-104 -58 -174 -51 0
-104 -58 -174 -171 0
-104 -178 -294 -291 0
-104 -178 -294 -51 0
-104 -178 -294 -171 0
-104 -178 -54 -291 0
-104 -178 -54 -51 0
-104 -178 -54 -171 0
-104 -178 -174 -291 0
-104 -178 -174 -51 0
-224 -298 -294 -51 0
-224 -298 -294 -171 0
-224 -298 -54 -291 0
-224 -298 -54 -51 0
-224 -298 -54 -171 0
-224 -298 -174 -291 0
-224 -298 -174 -51 0
-224 -298 -174 -171 0
-224 -58 -294 -51 0
-224 -58 -294 -171 0
-224 -58 -54 -291 0
-224 -58 -54 -51 0
-224 -58 -54 -171 0
-224 -58 -174 -291 0
-224 -58 -174 -51 0
-224 -58 -174 -171 0
-224 -178 -294 -51 0
-224 -178 -294 -171 0
-224 -178 -54 -51 0
-224 -178 -54 -171 0
-345 -299 -55 -291 0
-345 -299 -55 -51 0
-345 -299 -175 -291 0
-345 -299 -175 -51 0
-345 -59 -295 -291 0
-345 -59 -295 -51 0
-345 -59 -295 -171 0
-345 -59 -55 -291 0
-345 -59 -55 -51 0
-345 -59 -55 -171 0
-345 -59 -175 -291 0
-345 -59 -175 -51 0
-345 -179 -295 -291 0
-345 -179 -295 -51 0
-345 -179 -295 -171 0
-345 -179 -55 -291 0
-345 -179 -55 -51 0
-345 -179 -55 -171 0
-345 -179 -175 -291 0
-345 -179 -175 -51 0
-105 -299 -295 -51 0
-105 -299 -295 -171 0
-105 -299 -55 -291 0
-105 -299 -55 -51 0
-105 -299 -55 -171 0
-105 -299 -175 -291 0
-105 -299 -175 -51 0
-105 -299 -175 -171 0
-105 -59 -295 -291 0
-105 -59 -295 -51 0
-105 -59 -295 -171 0
-105 -59 -55 -291 0
-105 -59 -55 -171 0
-105 -59 -175 -291 0
-105 -59 -175 -51 0
-105 -59 -175 -171 0
-105 -179 -295 -291 0
-105 -179 -295 -51 0
-105 -179 -295 -171 0
-105 -179 -55 -291 0
-105 -179 -55 -51 0
-105 -179 -55 -171 0
-105 -179 -175 -291 0
-105 -179 -175 -51 0
-225 -299 -295 -51 0
-225 -299 -295 -171 0
-225 -299 -55 -291 0
-225 -299 -55 -51 0
-225 -299 -55 -171 0
-225 -299 -175 -291 0
-225 -299 -175 -51 0
-225 -299 -175 -171 0
-225 -59 -295 -51 0
-225 -59 -295 -171 0
-225 -59 -55 -291 0
-225 -59 -55 -51 0
-225 -59 -55 -171 0
-225 -59 -175 -291 0
-225 -59 -175 -51 0
-225 -59 -175 -171 0
-225 -179 -295 -51 0
-225 -179 -295 -171 0
-225 -179 -55 -51 0
-225 -179 -55 -171 0
-346 -300 -53 -292 0
-346 -300 -53 -52 0
-346 -300 -173 -292 0
-346 -300 -173 -52 0
-346 -60 -293 -292 0
-346 -60 -293 -52 0
-346 -60 -293 -172 0
-346 -60 -53 -292 0
-346 -60 -53 -52 0
-346 -60 -53 -172 0
-346 -60 -173 -292 0
-346 -60 -173 -52 0
-346 -180 -293 -292 0
-346 -180 -293 -52 0
-346 -180 -293 -172 0
-346 -180 -53 -292 0
-346 -180 -53 -52 0
-346 -180 -53 -172 0
-346 -180 -173 -292 0
-346 -180 -173 -52 0
-106 -300 -293 -52 0
-106 -300 -293 -172 0
-106 -300 -53 -292 0
-106 -300 -53 -52 0
-106 -300 -53 -172 0
-106 -300 -173 -292 0
-106 -300 -173 -52 0
-106 -300 -173 -172 0
-106 -60 -293 -292 0
-106 -60 -293 -52 0
-106 -60 -293 -172 0
-106 -60 -53 -292 0
-106 -60 -53 -172 0
-106 -60 -173 -292 0
-106 -60 -173 -52 0
-106 -60 -173 -172 0
-106 -180 -293 -292 0
-106 -180 -293 -52 0
-106 -180 -293 -172 0
-106 -180 -53 -292 0
-106 -180 -53 -52 0
-106 -180 -53 -172 0
-106 -180 -173 -292 0
-106 -180 -173 -52 0
-226 -300 -293 -52 0
-226 -300 -293 -172 0
-226 -300 -53 -292 0
-226 -300 -53 -52 0
-226 -300 -53 -172 0
-226 -300 -173 -292 0
-226 -300 -173 -52 0
-226 -300 -173 -172 0
-226 -60 -293 -52 0
-226 -60 -293 -172 0
-226 -60 -53 -292 0
-226 -60 -53 -52 0
-226 -60 -53 -172 0
-226 -60 -173 -292 0
-226 -60 -173 -52 0
-226 -60 -173 -172 0
-226 -180 -293 -52 0
-226 -180 -293 -172 0
-226 -180 -53 -52 0
-226 -180 -53 -172 0
-347 -301 -54 -292 0
-347 -301 -54 -52 0
-347 -301 -174 -292 0
-347 -301 -174 -52 0
-347 -61 -294 -292 0
-347 -61 -294 -52 0
-347 -61 -294 -172 0
-347 -61 -54 -292 0
-347 -61 -54 -52 0
-347 -61 -54 -172 0
-347 -61 -174 -292 0
-347 -61 -174 -52 0
-347 -181 -294 -292 0
-347 -181 -294 -52 0
-347 -181 -294 -172 0
-347 -181 -54 -292 0
-347 -181 -54 -52 0
-347 -181 -54 -172 0
-347 -181 -174 -292 0
-347 -181 -174 -52 0
-107 -301 -294 -52 0
-107 -301 -294 -172 0
-107 -301 -54 -292 0
-107 -301 -54 -52 0
-107 -301 -54 -172 0
-107 -301 -174 -292 0
-107 -301 -174 -52 0
-107 -301 -174 -172 0
-107 -61 -294 -292 0
-107 -61 -294 -52 0
-107 -61 -294 -172 0
-107 -61 -54 -292 0
-107 -61 -54 -172 0
-107 -61 -174 -292 0
-107 -61 -174 -52 0
-107 -61 -174 -172 0
-107 -181 -294 -292 0
-107 -181 -294 -52 0
-107 -181 -294 -172 0
-107 -181 -54 -292 0
-107 -181 -54 -52 0
-107 -181 -54 -172 0
-107 -181 -174 -292 0
-107 -181 -174 -52 0
-227 -301 -294 -52 0
-227 -301 -294 -172 0
-227 -301 -54 -292 0
-227 -301 -54 -52 0
-227 -301 -54 -172 0
-227 -301 -174 -292 0
-227 -301 -174 -52 0
-227 -301 -174 -172 0
-227 -61 -294 -52 0
-227 -61 -294 -172 0
-227 -61 -54 -292 0
-227 -61 -54 -52 0
-227 -61 -54 -172 0
-227 -61 -174 -292 0
-227 -61 -174 -52 0
-227 -61 -174 -172 0
-227 -181 -294 -52 0
-227 -181 -294 -172 0
-227 -181 -54 -52 0
-227 -181 -54 -172 0
-348 -302 -55 -292 0
-348 -302 -55 -52 0
-348 -302 -175 -292 0
-348 -302 -175 -52 0
-348 -62 -295 -292 0
-348 -62 -295 -52 0
-348 -62 -295 -172 0
-348 -62 -55 -292 0
-348 -62 -55 -52 0
-348 -62 -55 -172 0
-348 -62 -175 -292 0
-348 -62 -175 -52 0
-348 -182 -295 -292 0
-348 -182 -295 -52 0
-348 -182 -295 -172 0
-348 -182 -55 -292 0
-348 -182 -55 -52 0
-348 -182 -55 -172 0
-348 -182 -175 -292 0
-348 -182 -175 -52 0
-108 -302 -295 -52 0
-108 -302 -295 -172 0
-108 -302 -55 -292 0
-108 -302 -55 -52 0
-108 -302 -55 -172 0
-108 -302 -175 -292 0
-108 -302 -175 -52 0
-108 -302 -175 -172 0
-108 -62 -295 -292 0
-108 -62 -295 -52 0
-108 -62 -295 -172 0
-108 -62 -55 -292 0
-108 -62 -55 -172 0
-108 -62 -175 -292 0
-108 -62 -175 -52 0
-108 -62 -175 -172 0
-108 -182 -295 -292 0
-108 -182 -295 -52 0
-108 -182 -295 -172 0
-108 -182 -55 -292 0
-108 -182 -55 -52 0
-108 -182 -55 -172 0
-108 -182 -175 -292 0
-108 -182 -175 -52 0
-228 -302 -295 -52 0
-228 -302 -295 -172 0
-228 -302 -55 -292 0
-228 -302 -55 -52 0
-228 -302 -55 -172 0
-228 -302 -175 -292 0
-228 -302 -175 -52 0
-228 -302 -175 -172 0
-228 -62 -295 -52 0
-228 -62 -295 -172 0
-228 -62 -55 -292 0
-228 -62 -55 -52 0
-228 -62 -55 -172 0
-228 -62 -175 -292 0
-228 -62 -175 -52 0
-228 -62 -175 -172 0
-228 -182 -295 -52 0
-228 -182 -295 -172 0
-228 -182 -55 -52 0
-228 -182 -55 -172 0
-349 -303 -54 -293 0
-349 -303 -54 -53 0
-349 -303 -174 -293 0
-349 -303 -174 -53 0
-349 -63 -294 -293 0
-349 -63 -294 -53 0
-349 -63 -294 -173 0
-349 -63 -54 -293 0
-349 -63 -54 -53 0
-349 -63 -54 -173 0
-349 -63 -174 -293 0
-349 -63 -174 -53 0
-349 -183 -294 -293 0
-349 -183 -294 -53 0
-349 -183 -294 -173 0
-349 -183 -54 -293 0
-349 -183 -54 -53 0
-349 -183 -54 -173 0
-349 -183 -174 -293 0
-349 -183 -174 -53 0
-109 -303 -294 -53 0
-109 -303 -294 -173 0
-109 -303 -54 -293 0
-109 -303 -54 -53 0
-109 -303 -54 -173 0
-109 -303 -174 -293 0
-109 -303 -174 -53 0
-109 -303 -174 -173 0
-109 -63 -294 -293 0
-109 -63 -294 -53 0
-109 -63 -294 -173 0
-109 -63 -54 -293 0
-109 -63 -54 -173 0
-109 -63 -174 -293 0
-109 -63 -174 -53 0
-109 -63 -174 -173 0
-109 -183 -294 -293 0
-109 -183 -294 -53 0
-109 -183 -294 -173 0
-109 -183 -54 -293 0
-109 -183 -54 -53 0
-109 -183 -54 -173 0
-109 -183 -174 -293 0
-109 -183 -174 -53 0
-229 -303 -294 -53 0
-229 -303 -294 -173 0
-229 -303 -54 -293 0
-229 -303 -54 -53 0
-229 -303 -54 -173 0
-229 -303 -174 -293 0
-229 -303 -174 -53 0
-229 -303 -174 -173 0
-229 -63 -294 -53 0
-229 -63 -294 -173 0
-229 -63 -54 -293 0
-229 -63 -54 -53 0
-229 -63 -54 -173 0
-229 -63 -174 -293 0
-229 -63 -174 -53 0
-229 -63 -174 -173 0
-229 -183 -294 -53 0
-229 -183 -294 -173 0
-229 -183 -54 -53 0
-229 -183 -54 -173 0
-350 -304 -55 -293 0
-350 -304 -55 -53 0
-350 -304 -175 -293 0
-350 -304 -175 -53 0
-350 -64 -295 -293 0
-350 -64 -295 -53 0
-350 -64 -295 -173 0
-350 -64 -55 -293 0
-350 -64 -55 -53 0
-350 -64 -55 -173 0
-350 -64 -175 -293 0
-350 -64 -175 -53 0
-350 -184 -295 -293 0
-350 -184 -295 -53 0
-350 -184 -295 -173 0
-350 -184 -55 -293 0
-350 -184 -55 -53 0
-350 -184 -55 -173 0
-350 -184 -175 -293 0
-350 -184 -175 -53 0
-110 -304 -295 -53 0
-110 -304 -295 -173 0
-110 -304 -55 -293 0
-110 -304 -55 -53 0
-110 -304 -55 -173 0
-110 -304 -175 -293 0
-110 -304 -175 -53 0
-110 -304 -175 -173 0
-110 -64 -295 -293 0
-110 -64 -295 -53 0
-110 -64 -295 -173 0
-110 -64 -55 -293 0
-110 -64 -55 -173 0
-110 -64 -175 -293 0
-110 -64 -175 -53 0
-110 -64 -175 -173 0
-110 -184 -295 -293 0
-110 -184 -295 -53 0
-110 -184 -295 -173 0
-110 -184 -55 -293 0
-110 -184 -55 -53 0
-110 -184 -55 -173 0
-110 -184 -175 -293 0
-110 -184 -175 -53 0
-230 -304 -295 -53 0
-230 -304 -295 -173 0
-230 -304 -55 -293 0
-230 -304 -55 -53 0
-230 -304 -55 -173 0
-230 -304 -175 -293 0
-230 -304 -175 -53 0
-230 -304 -175 -173 0
-230 -64 -295 -53 0
-230 -64 -295 -173 0
-230 -64 -55 -293 0
-230 -64 -55 -53 0
-230 -64 -55 -173 0
-230 -64 -175 -293 0
-230 -64 -175 -53 0
-230 -64 -175 -173 0
-230 -184 -295 -53 0
-230 -184 -295 -173 0
-230 -184 -55 -53 0
-230 -184 -55 -173 0
-351 -305 -55 -294 0
-351 -305 -55 -54 0
-351 -305 -175 -294 0
-351 -305 -175 -54 0
-351 -65 -295 -294 0
-351 -65 -295 -54 0
-351 -65 -295 -174 0
-351 -65 -55 -294 0
-351 -65 -55 -54 0
-351 -65 -55 -174 0
-351 -65 -175 -294 0
-351 -65 -175 -54 0
-351 -185 -295 -294 0
-351 -185 -295 -54 0
-351 -185 -295 -174 0
-351 -185 -55 -294 0
-351 -185 -55 -54 0
-351 -185 -55 -174 0
-351 -185 -175 -294 0
-351 -185 -175 -54 0
-111 -305 -295 -54 0
-111 -305 -295 -174 0
-111 -305 -55 -294 0
-111 -305 -55 -54 0
-111 -305 -55 -174 0
-111 -305 -175 -294 0
-111 -305 -175 -54 0
-111 -305 -175 -174 0
-111 -65 -295 -294 0
-111 -65 -295 -54 0
-111 -65 -295 -174 0
-111 -65 -55 -294 0
-111 -65 -55 -174 0
-111 -65 -175 -294 0
-111 -65 -175 -54 0
-111 -65 -175 -174 0
-111 -185 -295 -294 0
-111 -185 -295 -54 0
-111 -185 -295 -174 0
-111 -185 -55 -294 0
-111 -185 -55 -54 0
-111 -185 -55 -174 0
-111 -185 -175 -294 0
-111 -185 -175 -54 0
-231 -305 -295 -54 0
-231 -305 -295 -174 0
-231 -305 -55 -294 0
-231 -305 -55 -54 0
-231 -305 -55 -174 0
-231 -305 -175 -294 0
-231 -305 -175 -54 0
-231 -305 -175 -174 0
-231 -65 -295 -54 0
-231 -65 -295 -174 0
-231 -65 -55 -294 0
-231 -65 -55 -54 0
-231 -65 -55 -174 0
-231 -65 -175 -294 0
-231 -65 -175 -54 0
-231 -65 -175 -174 0
-231 -185 -295 -54 0
-231 -185 -295 -174 0
-231 -185 -55 -54 0
-231 -185 -55 -174 0
-352 -300 -57 -296 0
-352 -300 -57 -56 0
-352 -300 -177 -296 0
-352 -300 -177 -56 0
-352 -60 -297 -296 0
-352 -60 -297 -56 0
-352 -60 -297 -176 0
-352 -60 -57 -296 0
-352 -60 -57 -56 0
-352 -60 -57 -176 0
-352 -60 -177 -296 0
-352 -60 -177 -56 0
-352 -180 -297 -296 0
-352 -180 -297 -56 0
-352 -180 -297 -176 0
-352 -180 -57 -296 0
-352 -180 -57 -56 0
-352 -180 -57 -176 0
-352 -180 -177 -296 0
-352 -180 -177 -56 0
-112 -300 -297 -56 0
-112 -300 -297 -176 0
-112 -300 -57 -296 0
-112 -300 -57 -56 0
-112 -300 -57 -176 0
-112 -300 -177 -296 0
-112 -300 -177 -56 0
-112 -300 -177 -176 0
-112 -60 -297 -296 0
-112 -60 -297 -56 0
-112 -60 -297 -176 0
-112 -60 -57 -296 0
-112 -60 -57 -176 0
-112 -60 -177 -296 0
-112 -60 -177 -56 0
-112 -60 -177 -176 0
-112 -180 -297 -296 0
-112 -180 -297 -56 0
-112 -180 -297 -176 0
-112 -180 -57 -296 0
-112 -180 -57 -56 0
-112 -180 -57 -176 0
-112 -180 -177 -296 0
-112 -180 -177 -56 0
-232 -300 -297 -56 0
-232 -300 -297 -176 0
-232 -300 -57 -296 0
-232 -300 -57 -56 0
-232 -300 -57 -176 0
-232 -300 -177 -296 0
-232 -300 -177 -56 0
-232 -300 -177 -176 0
-232 -60 -297 -56 0
-232 -60 -297 -176 0
-232 -60 -57 -296 0
-232 -60 -57 -56 0
-232 -60 -57 -176 0
-232 -60 -177 -296 0
-232 -60 -177 -56 0
-232 -60 -177 -176 0
-232 -180 -297 -56 0
-232 -180 -297 -176 0
-232 -180 -57 -56 0
-232 -180 -57 -176 0
-353 -301 -58 -296 0
-353 -301 -58 -56 0
-353 -301 -178 -296 0
-353 -301 -178 -56 0
-353 -61 -298 -296 0
-353 -61 -298 -56 0
-353 -61 -298 -176 0
-353 -61 -58 -296 0
-353 -61 -58 -56 0
-353 -61 -58 -176 0
-353 -61 -178 -296 0
-353 -61 -178 -56 0
-353 -181 -298 -296 0
-353 -181 -298 -56 0
-353 -181 -298 -176 0
-353 -181 -58 -296 0
-353 -181 -58 -56 0
-353 -181 -58 -176 0
-353 -181 -178 -296 0
-353 -181 -178 -56 0
-113 -301 -298 -56 0
-113 -301 -298 -176 0
-113 -301 -58 -296 0
-113 -301 -58 -56 0
-113 -301 -58 -176 0
-113 -301 -178 -296 0
-113 -301 -178 -56 0
-113 -301 -178 -176 0
-113 -61 -298 -296 0
-113 -61 -298 -56 0
-113 -61 -298 -176 0
-113 -61 -58 -296 0
-113 -61 -58 -176 0
-113 -61 -178 -296 0
-113 -61 -178 -56 0
-113 -61 -178 -176 0
-113 -181 -298 -296 0
-113 -181 -298 -56 0
-113 -181 -298 -176 0
-113 -181 -58 -296 0
-113 -181 -58 -56 0
-113 -181 -58 -176 0
-113 -181 -178 -296 0
-113 -181 -178 -56 0
-233 -301 -298 -56 0
-233 -301 -298 -176 0
-233 -301 -58 -296 0
-233 -301 -58 -56 0
-233 -301 -58 -176 0
-233 -301 -178 -296 0
-233 -301 -178 -56 0
-233 -301 -178 -176 0
-233 -61 -298 -56 0
-233 -61 -298 -176 0
-233 -61 -58 -296 0
-233 -61 -58 -56 0
-233 -61 -58 -176 0
-233 -61 -178 -296 0
-233 -61 -178 -56 0
-233 -61 -178 -176 0
-233 -181 -298 -56 0
-233 -181 -298 -176 0
-233 -181 -58 -56 0
-233 -181 -58 -176 0
-354 -302 -59 -296 0
-354 -302 -59 -56 0
-354 -302 -179 -296 0
-354 -302 -179 -56 0
-354 -62 -299 -296 0
-354 -62 -299 -56 0
-354 -62 -299 -176 0
-354 -62 -59 -296 0
-354 -62 -59 -56 0
-354 -62 -59 -176 0
-354 -62 -179 -296 0
-354 -62 -179 -56 0
-354 -182 -299 -296 0
-354 -182 -299 -56 0
-354 -182 -299 -176 0
-354 -182 -59 -296 0
-354 -182 -59 -56 0
-354 -182 -59 -176 0
-354 -182 -179 -296 0
-354 -182 -179 -56 0
-114 -302 -299 -56 0
-114 -302 -299 -176 0
-114 -302 -59 -296 0
-114 -302 -59 -56 0
-114 -302 -59 -176 0
-114 -302 -179 -296 0
-114 -302 -179 -56 0
-114 -302 -179 -176 0
-114 -62 -299 -296 0
-114 -62 -299 -56 0
-114 -62 -299 -176 0
-114 -62 -59 -296 0
-114 -62 -59 -176 0
-114 -62 -179 -296 0
-114 -62 -179 -56 0
-114 -62 -179 -176 0
-114 -182 -299 -296 0
-114 -182 -299 -56 0
-114 -182 -299 -176 0
-114 -182 -59 -296 0
-114 -182 -59 -56 0
-114 -182 -59 -176 0
-114 -182 -179 -296 0
-114 -182 -179 -56 0
-234 -302 -299 -56 0
-234 -302 -299 -176 0
-234 -302 -59 -296 0
-234 -302 -59 -56 0
-234 -302 -59 -176 0
-234 -302 -179 -296 0
-234 -302 -179 -56 0
-234 -302 -179 -176 0
-234 -62 -299 -56 0
-234 -62 -299 -176 0
-234 -62 -59 -296 0
-234 -62 -59 -56 0
-234 -62 -59 -176 0
-234 -62 -179 -296 0
-234 -62 -179 -56 0
-234 -62 -179 -176 0
-234 -182 -299 -56 0
-234 -182 -299 -176 0
-234 -182 -59 -56 0
-234 -182 -59 -176 0
-355 -303 -58 -297 0
-355 -303 -58 -57 0
-355 -303 -178 -297 0
-355 -303 -178 -57 0
-355 -63 -298 -297 0
-355 -63 -298 -57 0
-355 -63 -298 -177 0
-355 -63 -58 -297 0
-355 -63 -58 -57 0
-355 -63 -58 -177 0
-355 -63 -178 -297 0
-355 -63 -178 -57 0
-355 -183 -298 -297 0
-355 -183 -298 -57 0
-355 -183 -298 -177 0
-355 -183 -58 -297 0
-355 -183 -58 -57 0
-355 -183 -58 -177 0
-355 -183 -178 -297 0
-355 -183 -178 -57 0
-115 -303 -298 -57 0
-115 -303 -298 -177 0
-115 -303 -58 -297 0
-115 -303 -58 -57 0
-115 -303 -58 -177 0
-115 -303 -178 -297 0
-115 -303 -178 -57 0
-115 -303 -178 -177 0
-115 -63 -298 -297 0
-115 -63 -298 -57 0
-115 -63 -298 -177 0
-115 -63 -58 -297 0
-115 -63 -58 -177 0
-115 -63 -178 -297 0
-115 -63 -178 -57 0
-115 -63 -178 -177 0
-115 -183 -298 -297 0
-115 -183 -298 -57 0
-115 -183 -298 -177 0
-115 -183 -58 -297 0
-115 -183 -58 -57 0
-115 -183 -58 -177 0
-115 -183 -178 -297 0
-115 -183 -178 -57 0
-235 -303 -298 -57 0
-235 -303 -298 -177 0
-235 -303 -58 -297 0
-235 -303 -58 -57 0
-235 -303 -58 -177 0
-235 -303 -178 -297 0
-235 -303 -178 -57 0
-235 -303 -178 -177 0
-235 -63 -298 -57 0
-235 -63 -298 -177 0
-235 -63 -58 -297 0
-235 -63 -58 -57 0
-235 -63 -58 -177 0
-235 -63 -178 -297 0
-235 -63 -178 -57 0
-235 -63 -178 -177 0
-235 -183 -298 -57 0
-235 -183 -298 -177 0
-235 -183 -58 -57 0
-235 -183 -58 -177 0
-356 -304 -59 -297 0
-356 -304 -59 -57 0
-356 -304 -179 -297 0
-356 -304 -179 -57 0
-356 -64 -299 -297 0
-356 -64 -299 -57 0
-356 -64 -299 -177 0
-356 -64 -59 -297 0
-356 -64 -59 -57 0
-356 -64 -59 -177 0
-356 -64 -179 -297 0
-356 -64 -179 -57 0
-356 -184 -299 -297 0
-356 -184 -299 -57 0
-356 -184 -299 -177 0
-356 -184 -59 -297 0
-356 -184 -59 -57 0
-356 -184 -59 -177 0
-356 -184 -179 -297 0
-356 -184 -179 -57 0
-116 -304 -299 -57 0
-116 -304 -299 -177 0
-116 -304 -59 -297 0
-116 -304 -59 -57 0
-116 -304 -59 -177 0
-116 -304 -179 -297 0
-116 -304 -179 -57 0
-116 -304 -179 -177 0
-116 -64 -299 -297 0
-116 -64 -299 -57 0
-116 -64 -299 -177 0
-116 -64 -59 -297 0
-116 -64 -59 -177 0
-116 -64 -179 -297 0
-116 -64 -179 -57 0
-116 -64 -179 -177 0
-116 -184 -299 -297 0
-116 -184 -299 -57 0
-116 -184 -299 -177 0
-116 -184 -59 -297 0
-116 -184 -59 -57 0
-116 -184 -59 -177 0
-116 -184 -179 -297 0
-116 -184 -179 -57 0
-236 -304 -299 -57 0
-236 -304 -299 -177 0
-236 -304 -59 -297 0
-236 -304 -59 -57 0
-236 -304 -59 -177 0
-236 -304 -179 -297 0
-236 -304 -179 -57 0
-236 -304 -179 -177 0
-236 -64 -299 -57 0
-236 -64 -299 -177 0
-236 -64 -59 -297 0
-236 -64 -59 -57 0
-236 -64 -59 -177 0
-236 -64 -179 -297 0
-236 -64 -179 -57 0
-236 -64 -179 -177 0
-236 -184 -299 -57 0
-236 -184 -299 -177 0
-236 -184 -59 -57 0
-236 -184 -59 -177 0
-357 -305 -59 -298 0
-357 -305 -59 -58 0
-357 -305 -179 -298 0
-357 -305 -179 -58 0
-357 -65 -299 -298 0
-357 -65 -299 -58 0
-357 -65 -299 -178 0
-357 -65 -59 -298 0
-357 -65 -59 -58 0
-357 -65 -59 -178 0
-357 -65 -179 -298 0
-357 -65 -179 -58 0
-357 -185 -299 -298 0
-357 -185 -299 -58 0
-357 -185 -299 -178 0
-357 -185 -59 -298 0
-357 -185 -59 -58 0
-357 -185 -59 -178 0
-357 -185 -179 -298 0
-357 -185 -179 -58 0
-117 -305 -299 -58 0
-117 -305 -299 -178 0
-117 -305 -59 -298 0
-117 -305 -59 -58 0
-117 -305 -59 -178 0
-117 -305 -179 -298 0
-117 -305 -179 -58 0
-117 -305 -179 -178 0
-117 -65 -299 -298 0
-117 -65 -299 -58 0
-117 -65 -299 -178 0
-117 -65 -59 -298 0
-117 -65 -59 -178 0
-117 -65 -179 -298 0
-117 -65 -179 -58 0
-117 -65 -179 -178 0
-117 -185 -299 -298 0
-117 -185 -299 -58 0
-117 -185 -299 -178 0
-117 -185 -59 -298 0
-117 -185 -59 -58 0
-117 -185 -59 -178 0
-117 -185 -179 -298 0
-117 -185 -179 -58 0
-237 -305 -299 -58 0
-237 -305 -299 -178 0
-237 -305 -59 -298 0
-237 -305 -59 -58 0
-237 -305 -59 -178 0
-237 -305 -179 -298 0
-237 -305 -179 -58 0
-237 -305 -179 -178 0
-237 -65 -299 -58 0
-237 -65 -299 -178 0
-237 -65 -59 -298 0
-237 -65 -59 -58 0
-237 -65 -59 -178 0
-237 -65 -179 -298 0
-237 -65 -179 -58 0
-237 -65 -179 -178 0
-237 -185 -299 -58 0
-237 -185 -299 -178 0
-237 -185 -59 -58 0
-237 -185 -59 -178 0
-358 -303 -61 -300 0
-358 -303 -61 -60 0
-358 -303 -181 -300 0
-358 -303 -181 -60 0
-358 -63 -301 -300 0
-358 -63 -301 -60 0
-358 -63 -301 -180 0
-358 -63 -61 -300 0
-358 -63 -61 -60 0
-358 -63 -61 -180 0
-358 -63 -181 -300 0
-358 -63 -181 -60 0
-358 -183 -301 -300 0
-358 -183 -301 -60 0
-358 -183 -301 -180 0
-358 -183 -61 -300 0
-358 -183 -61 -60 0
-358 -183 -61 -180 0
-358 -183 -181 -300 0
-358 -183 -181 -60 0
-118 -303 -301 -60 0
-118 -303 -301 -180 0
-118 -303 -61 -300 0
-118 -303 -61 -60 0
-118 -303 -61 -180 0
-118 -303 -181 -300 0
-118 -303 -181 -60 0
-118 -303 -181 -180 0
-118 -63 -301 -300 0
-118 -63 -301 -60 0
-118 -63 -301 -180 0
-118 -63 -61 -300 0
-118 -63 -61 -180 0
-118 -63 -181 -300 0
-118 -63 -181 -60 0
-118 -63 -181 -180 0
-118 -183 -301 -300 0
-118 -183 -301 -60 0
-118 -183 -301 -180 0
-118 -183 -61 -300 0
-118 -183 -61 -60 0
-118 -183 -61 -180 0
-118 -183 -181 -300 0
-118 -183 -181 -60 0
-238 -303 -301 -60 0
-238 -303 -301 -180 0
-238 -303 -61 -300 0
-238 -303 -61 -60 0
-238 -303 -61 -180 0
-238 -303 -181 -300 0
-238 -303 -181 -60 0
-238 -303 -181 -180 0
-238 -63 -301 -60 0
-238 -63 -301 -180 0
-238 -63 -61 -300 0
-238 -63 -61 -60 0
-238 -63 -61 -180 0
-238 -63 -181 -300 0
-238 -63 -181 -60 0
-238 -63 -181 -180 0
-238 -183 -301 -60 0
-238 -183 -301 -180 0
-238 -183 -61 -60 0
-238 -183 -61 -180 0
-359 -304 -62 -300 0
-359 -304 -62 -60 0
-359 -304 -182 -300 0
-359 -304 -182 -60 0
-359 -64 -302 -300 0
-359 -64 -302 -60 0
-359 -64 -302 -180 0
-359 -64 -62 -300 0
-359 -64 -62 -60 0
-359 -64 -62 -180 0
-359 -64 -182 -300 0
-359 -64 -182 -60 0
-359 -184 -302 -300 0
-359 -184 -302 -60 0
-359 -184 -302 -180 0
-359 -184 -62 -300 0
-359 -184 -62 -60 0
-359 -184 -62 -180 0
-359 -184 -182 -300 0
-359 -184 -182 -60 0
-119 -304 -302 -60 0
-119 -304 -302 -180 0
-119 -304 -62 -300 0
-119 -304 -62 -60 0
-119 -304 -62 -180 0
-119 -304 -182 -300 0
-119 -304 -182 -60 0
-119 -304 -182 -180 0
-119 -64 -302 -300 0
-119 -64 -302 -60 0
-119 -64 -302 -180 0
-119 -64 -62 -300 0
-119 -64 -62 -180 0
-119 -64 -182 -300 0
-119 -64 -182 -60 0
-119 -64 -182 -180 0
-119 -184 -302 -300 0
-119 -184 -302 -60 0
-119 -184 -302 -180 0
-119 -184 -62 -300 0
-119 -184 -62 -60 0
-119 -184 -62 -180 0
-119 -184 -182 -300 0
-119 -184 -182 -60 0
-239 -304 -302 -60 0
-239 -304 -302 -180 0
-239 -304 -62 -300 0
-239 -304 -62 -60 0
-239 -304 -62 -180 0
-239 -304 -182 -300 0
-239 -304 -182 -60 0
-239 -304 -182 -180 0
-239 -64 -302 -60 0
-239 -64 -302 -180 0
-239 -64 -62 -300 0
-239 -64 -62 -60 0
-239 -64 -62 -180 0
-239 -64 -182 -300 0
-239 -64 -182 -60 0
-239 -64 -182 -180 0
-239 -184 -302 -60 0
-239 -184 -302 -180 0
-239 -184 -62 -60 0
-239 -184 -62 -180 0
-360 -305 -62 -301 0
-360 -305 -62 -61 0
-360 -305 -182 -301 0
-360 -305 -182 -61 0
-360 -65 -302 -301 0
-360 -65 -302 -61 0
-360 -65 -302 -181 0
-360 -65 -62 -301 0
-360 -65 -62 -61 0
-360 -65 -62 -181 0
-360 -65 -182 -301 0
-360 -65 -182 -61 0
-360 -185 -302 -301 0
-360 -185 -302 -61 0
-360 -185 -302 -181 0
-360 -185 -62 -301 0
-360 -185 -62 -61 0
-360 -185 -62 -181 0
-360 -185 -182 -301 0
-360 -185 -182 -61 0
-120 -305 -302 -61 0
-120 -305 -302 -181 0
-120 -305 -62 -301 0
-120 -305 -62 -61 0
-120 -305 -62 -181 0
-120 -305 -182 -301 0
-120 -305 -182 -61 0
-120 -305 -182 -181 0
-120 -65 -302 -301 0
-120 -65 -302 -61 0
-120 -65 -302 -181 0
-120 -65 -62 -301 0
-120 -65 -62 -181 0
-120 -65 -182 -301 0
-120 -65 -182 -61 0
-120 -65 -182 -181 0
-120 -185 -302 -301 0
-120 -185 -302 -61 0
-120 -185 -302 -181 0
-120 -185 -62 -301 0
-120 -185 -62 -61 0
-120 -185 -62 -181 0
-120 -185 -182 -301 0
-120 -185 -182 -61 0
-240 -305 -302 -61 0
-240 -305 -302 -181 0
-240 -305 -62 -301 0
-240 -305 -62 -61 0
-240 -305 -62 -181 0
-240 -305 -182 -301 0
-240 -305 -182 -61 0
-240 -305 -182 -181 0
-240 -65 -302 -61 0
-240 -65 -302 -181 0
-240 -65 -62 -301 0
-240 -65 -62 -61 0
-240 -65 -62 -181 0
-240 -65 -182 -301 0
-240 -65 -182 -61 0
-240 -65 -182 -181 0
-240 -185 -302 -61 0
-240 -185 -302 -181 0
-240 -185 -62 -61 0
-240 -185 -62 -181 0
-361 -305 -64 -303 0
-361 -305 -64 -63 0
-361 -305 -184 -303 0
-361 -305 -184 -63 0
-361 -65 -304 -303 0
-361 -65 -304 -63 0
-361 -65 -304 -183 0
-361 -65 -64 -303 0
-361 -65 -64 -63 0
-361 -65 -64 -183 0
-361 -65 -184 -303 0
-361 -65 -184 -63 0
-361 -185 -304 -303 0
-361 -185 -304 -63 0
-361 -185 -304 -183 0
-361 -185 -64 -303 0
-361 -185 -64 -63 0
-361 -185 -64 -183 0
-361 -185 -184 -303 0
-361 -185 -184 -63 0
-121 -305 -304 -63 0
-121 -305 -304 -183 0
-121 -305 -64 -303 0
-121 -305 -64 -63 0
-121 -305 -64 -183 0
-121 -305 -184 -303 0
-121 -305 -184 -63 0
-121 -305 -184 -183 0
-121 -65 -304 -303 0
-121 -65 -304 -63 0
-121 -65 -304 -183 0
-121 -65 -64 -303 0
-121 -65 -64 -183 0
-121 -65 -184 -303 0
-121 -65 -184 -63 0
-121 -65 -184 -183 0
-121 -185 -304 -303 0
-121 -185 -304 -63 0
-121 -185 -304 -183 0
-121 -185 -64 -303 0
-121 -185 -64 -63 0
-121 -185 -64 -183 0
-121 -185 -184 -303 0
-121 -185 -184 -63 0
-241 -305 -304 -63 0
-241 -305 -304 -183 0
-241 -305 -64 -303 0
-241 -305 -64 -63 0
-241 -305 -64 -183 0
-241 -305 -184 -303 0
-241 -305 -184 -63 0
-241 -305 -184 -183 0
-241 -65 -304 -63 0
-241 -65 -304 -183 0
-241 -65 -64 -303 0
-241 -65 -64 -63 0
-241 -65 -64 -183 0
-241 -65 -184 -303 0
-241 -65 -184 -63 0
-241 -65 -184 -183 0
-241 -185 -304 -63 0
-241 -185 -304 -183 0
-241 -185 -64 -63 0
-241 -185 -64 -183 0
-327 -312 -67 -306 0
-327 -312 -67 -66 0
-327 -312 -187 -306 0
-327 -312 -187 -66 0
-327 -72 -307 -306 0
-327 -72 -307 -66 0
-327 -72 -307 -186 0
-327 -72 -67 -306 0
-327 -72 -67 -66 0
-327 -72 -67 -186 0
-327 -72 -187 -306 0
-327 -72 -187 -66 0
-327 -192 -307 -306 0
-327 -192 -307 -66 0
-327 -192 -307 -186 0
-327 -192 -67 -306 0
-327 -192 -67 -66 0
-327 -192 -67 -186 0
-327 -192 -187 -306 0
-327 -192 -187 -66 0
-87 -312 -307 -66 0
-87 -312 -307 -186 0
-87 -312 -67 -306 0
-87 -312 -67 -66 0
-87 -312 -67 -186 0
-87 -312 -187 -306 0
-87 -312 -187 -66 0
-87 -312 -187 -186 0
-87 -72 -307 -306 0
-87 -72 -307 -66 0
-87 -72 -307 -186 0
-87 -72 -67 -306 0
-87 -72 -67 -186 0
-87 -72 -187 -306 0
-87 -72 -187 -66 0
-87 -72 -187 -186 0
-87 -192 -307 -306 0
-87 -192 -307 -66 0
-87 -192 -307 -186 0
-87 -192 -67 -306 0
-87 -192 -67 -66 0
-87 -192 -67 -186 0
-87 -192 -187 -306 0
-87 -192 -187 -66 0
-207 -312 -307 -66 0
-207 -312 -307 -186 0
-207 -312 -67 -306 0
-207 -312 -67 -66 0
-207 -312 -67 -186 0
-207 -312 -187 -306 0
-207 -312 -187 -66 0
-207 -312 -187 -186 0
-207 -72 -307 -66 0
-207 -72 -307 -186 0
-207 -72 -67 -306 0
-207 -72 -67 -66 0
-207 -72 -67 -186 0
-207 -72 -187 -306 0
-207 -72 -187 -66 0
-207 -72 -187 -186 0
-207 -192 -307 -66 0
-207 -192 -307 -186 0
-207 -192 -67 -66 0
-207 -192 -67 -186 0
-328 -313 -68 -306 0
-328 -313 -68 -66 0
-328 -313 -188 -306 0
-328 -313 -188 -66 0
-328 -73 -308 -306 0
-328 -73 -308 -66 0
-328 -73 -308 -186 0
-328 -73 -68 -306 0
-328 -73 -68 -66 0
-328 -73 -68 -186 0
-328 -73 -188 -306 0
-328 -73 -188 -66 0
-328 -193 -308 -306 0
-328 -193 -308 -66 0
-328 -193 -308 -186 0
-328 -193 -68 -306 0
-328 -193 -68 -66 0
-328 -193 -68 -186 0
-328 -193 -188 -306 0
-328 -193 -188 -66 0
-88 -313 -308 -66 0
-88 -313 -308 -186 0
-88 -313 -68 -306 0
-88 -313 -68 -66 0
-88 -313 -68 -186 0
-88 -313 -188 -306 0
-88 -313 -188 -66 0
-88 -313 -188 -186 0
-88 -73 -308 -306 0
-88 -73 -308 -66 0
-88 -73 -308 -186 0
-88 -73 -68 -306 0
-88 -73 -68 -186 0
-88 -73 -188 -306 0
-88 -73 -188 -66 0
-88 -73 -188 -186 0
-88 -193 -308 -306 0
-88 -193 -308 -66 0
-88 -193 -308 -186 0
-88 -193 -68 -306 0
-88 -193 -68 -66 0
-88 -193 -68 -186 0
-88 -193 -188 -306 0
-88 -193 -188 -66 0
-208 -313 -308 -66 0
-208 -313 -308 -186 0
-208 -313 -68 -306 0
-208 -313 -68 -66 0
-208 -313 -68 -186 0
-208 -313 -188 -306 0
-208 -313 -188 -66 0
-208 -313 -188 -186 0
-208 -73 -308 -66 0
-208 -73 -308 -186 0
-208 -73 -68 -306 0
-208 -73 -68 -66 0
-208 -73 -68 -186 0
-208 -73 -188 -306 0
-208 -73 -188 -66 0
-208 -73 -188 -186 0
-208 -193 -308 -66 0
-208 -193 -308 -186 0
-208 -193 -68 -66 0
-208 -193 -68 -186 0
-329 -314 -69 -306 0
-329 -314 -69 -66 0
-329 -314 -189 -306 0
-329 -314 -189 -66 0
-329 -74 -309 -306 0
-329 -74 -309 -66 0
-329 -74 -309 -186 0
-329 -74 -69 -306 0
-329 -74 -69 -66 0
-329 -74 -69 -186 0
-329 -74 -189 -306 0
-329 -74 -189 -66 0
-329 -194 -309 -306 0
-329 -194 -309 -66 0
-329 -194 -309 -186 0
-329 -194 -69 -306 0
-329 -194 -69 -66 0
-329 -194 -69 -186 0
-329 -194 -189 -306 0
-329 -194 -189 -66 0
-89 -314 -309 -66 0
-89 -314 -309 -186 0
-89 -314 -69 -306 0
-89 -314 -69 -66 0
-89 -314 -69 -186 0
-89 -314 -189 -306 0
-89 -314 -189 -66 0
-89 -314 -189 -186 0
-89 -74 -309 -306 0
-89 -74 -309 -66 0
-89 -74 -309 -186 0
-89 -74 -69 -306 0
-89 -74 -69 -186 0
-89 -74 -189 -306 0
-89 -74 -189 -66 0
-89 -74 -189 -186 0
-89 -194 -309 -306 0
-89 -194 -309 -66 0
-89 -194 -309 -186 0
-89 -194 -69 -306 0
-89 -194 -69 -66 0
-89 -194 -69 -186 0
-89 -194 -189 -306 0
-89 -194 -189 -66 0
-209 -314 -309 -66 0
-209 -314 -309 -186 0
-209 -314 -69 -306 0
-209 -314 -69 -66 0
-209 -314 -69 -186 0
-209 -314 -189 -306 0
-209 -314 -189 -66 0
-209 -314 -189 -186 0
-209 -74 -309 -66 0
-209 -74 -309 -186 0
-209 -74 -69 -306 0
-209 -74 -69 -66 0
-209 -74 -69 -186 0
-209 -74 -189 -306 0
-209 -74 -189 -66 0
-209 -74 -189 -186 0
-209 -194 -309 -66 0
-209 -194 -309 -186 0
-209 -194 -69 -66 0
-209 -194 -69 -186 0
-330 -315 -70 -306 0
-330 -315 -70 -66 0
-330 -315 -190 -306 0
-330 -315 -190 -66 0
-330 -75 -310 -306 0
-330 -75 -310 -66 0
-330 -75 -310 -186 0
-330 -75 -70 -306 0
-330 -75 -70 -66 0
-330 -75 -70 -186 0
-330 -75 -190 -306 0
-330 -75 -190 -66 0
-330 -195 -310 -306 0
-330 -195 -310 -66 0
-330 -195 -310 -186 0
-330 -195 -70 -306 0
-330 -195 -70 -66 0
-330 -195 -70 -186 0
-330 -195 -190 -306 0
-330 -195 -190 -66 0
-90 -315 -310 -66 0
-90 -315 -310 -186 0
-90 -315 -70 -306 0
-90 -315 -70 -66 0
-90 -315 -70 -186 0
-90 -315 -190 -306 0
-90 -315 -190 -66 0
-90 -315 -190 -186 0
-90 -75 -310 -306 0
-90 -75 -310 -66 0
-90 -75 -310 -186 0
-90 -75 -70 -306 0
-90 -75 -70 -186 0
-90 -75 -190 -306 0
-90 -75 -190 -66 0
-90 -75 -190 -186 0
-90 -195 -310 -306 0
-90 -195 -310 -66 0
-90 -195 -310 -186 0
-90 -195 -70 -306 0
-90 -195 -70 -66 0
-90 -195 -70 -186 0
-90 -195 -190 -306 0
-90 -195 -190 -66 0
-210 -315 -310 -66 0
-210 -315 -310 -186 0
-210 -315 -70 -306 0
-210 -315 -70 -66 0
-210 -315 -70 -186 0
-210 -315 -190 -306 0
-210 -315 -190 -66 0
-210 -315 -190 -186 0
-210 -75 -310 -66 0
-210 -75 -310 -186 0
-210 -75 -70 -306 0
-210 -75 -70 -66 0
-210 -75 -70 -186 0
-210 -75 -190 -306 0
-210 -75 -190 -66 0
-210 -75 -190 -186 0
-210 -195 -310 -66 0
-210 -195 -310 -186 0
-210 -195 -70 -66 0
-210 -195 -70 -186 0
-331 -316 -71 -306 0
-331 -316 -71 -66 0
-331 -316 -191 -306 0
-331 -316 -191 -66 0
-331 -76 -311 -306 0
-331 -76 -311 -66 0
-331 -76 -311 -186 0
-331 -76 -71 -306 0
-331 -76 -71 -66 0
-331 -76 -71 -186 0
-331 -76 -191 -306 0
-331 -76 -191 -66 0
-331 -196 -311 -306 0
-331 -196 -311 -66 0
-331 -196 -311 -186 0
-331 -196 -71 -306 0
-331 -196 -71 -66 0
-331 -196 -71 -186 0
-331 -196 -191 -306 0
-331 -196 -191 -66 0
-91 -316 -311 -66 0
-91 -316 -311 -186 0
-91 -316 -71 -306 0
-91 -316 -71 -66 0
-91 -316 -71 -186 0
-91 -316 -191 -306 0
-91 -316 -191 -66 0
-91 -316 -191 -186 0
-91 -76 -311 -306 0
-91 -76 -311 -66 0
-91 -76 -311 -186 0
-91 -76 -71 -306 0
-91 -76 -71 -186 0
-91 -76 -191 -306 0
-91 -76 -191 -66 0
-91 -76 -191 -186 0
-91 -196 -311 -306 0
-91 -196 -311 -66 0
-91 -196 -311 -186 0
-91 -196 -71 -306 0
-91 -196 -71 -66 0
-91 -196 -71 -186 0
-91 -196 -191 -306 0
-91 -196 -191 -66 0
-211 -316 -311 -66 0
-211 -316 -311 -186 0
-211 -316 -71 -306 0
-211 -316 -71 -66 0
-211 -316 -71 -186 0
-211 -316 -191 -306 0
-211 -316 -191 -66 0
-211 -316 -191 -186 0
-211 -76 -311 -66 0
-211 -76 -311 -186 0
-211 -76 -71 -306 0
-211 -76 -71 -66 0
-211 -76 -71 -186 0
-211 -76 -191 -306 0
-211 -76 -191 -66 0
-211 -76 -191 -186 0
-211 -196 -311 -66 0
-211 -196 -311 -186 0
-211 -196 -71 -66 0
-211 -196 -71 -186 0
-332 -317 -68 -307 0
-332 -317 -68 -67 0
-332 -317 -188 -307 0
-332 -317 -188 -67 0
-332 -77 -308 -307 0
-332 -77 -308 -67 0
-332 -77 -308 -187 0
-332 -77 -68 -307 0
-332 -77 -68 -67 0
-332 -77 -68 -187 0
-332 -77 -188 -307 0
-332 -77 -188 -67 0
-332 -197 -308 -307 0
-332 -197 -308 -67 0
-332 -197 -308 -187 0
-332 -197 -68 -307 0
-332 -197 -68 -67 0
-332 -197 -68 -187 0
-332 -197 -188 -307 0
-332 -197 -188 -67 0
-92 -317 -308 -67 0
-92 -317 -308 -187 0
-92 -317 -68 -307 0
-92 -317 -68 -67 0
-92 -317 -68 -187 0
-92 -317 -188 -307 0
-92 -317 -188 -67 0
-92 -317 -188 -187 0
-92 -77 -308 -307 0
-92 -77 -308 -67 0
-92 -77 -308 -187 0
-92 -77 -68 -307 0
-92 -77 -68 -187 0
-92 -77 -188 -307 0
-92 -77 -188 -67 0
-92 -77 -188 -187 0
-92 -197 -308 -307 0
-92 -197 -308 -67 0
-92 -197 -308 -187 0
-92 -197 -68 -307 0
-92 -197 -68 -67 0
-92 -197 -68 -187 0
-92 -197 -188 -307 0
-92 -197 -188 -67 0
-212 -317 -308 -67 0
-212 -317 -308 -187 0
-212 -317 -68 -307 0
-212 -317 -68 -67 0
-212 -317 -68 -187 0
-212 -317 -188 -307 0
-212 -317 -188 -67 0
-212 -317 -188 -187 0
-212 -77 -308 -67 0
-212 -77 -308 -187 0
-212 -77 -68 -307 0
-212 -77 -68 -67 0
-212 -77 -68 -187 0
-212 -77 -188 -307 0
-212 -77 -188 -67 0
-212 -77 -188 -187 0
-212 -197 -308 -67 0
-212 -197 -308 -187 0
-212 -197 -68 -67 0
-212 -197 -68 -187 0
-333 -318 -69 -307 0
-333 -318 -69 -67 0
-333 -318 -189 -307 0
-333 -318 -189 -67 0
-333 -78 -309 -307 0
-333 -78 -309 -67 0
-333 -78 -309 -187 0
-333 -78 -69 -307 0
-333 -78 -69 -67 0
-333 -78 -69 -187 0
-333 -78 -189 -307 0
-333 -78 -189 -67 0
-333 -198 -309 -307 0
-333 -198 -309 -67 0
-333 -198 -309 -187 0
-333 -198 -69 -307 0
-333 -198 -69 -67 0
-333 -198 -69 -187 0
-333 -198 -189 -307 0
-333 -198 -189 -67 0
-93 -318 -309 -67 0
-93 -318 -309 -187 0
-93 -318 -69 -307 0
-93 -318 -69 -67 0
-93 -318 -69 -187 0
-93 -318 -189 -307 0
-93 -318 -189 -67 0
-93 -318 -189 -187 0
-93 -78 -309 -307 0
-93 -78 -309 -67 0
-93 -78 -309 -187 0
-93 -78 -69 -307 0
-93 -78 -69 -187 0
-93 -78 -189 -307 0
-93 -78 -189 -67 0
-93 -78 -189 -187 0
-93 -198 -309 -307 0
-93 -198 -309 -67 0
-93 -198 -309 -187 0
-93 -198 -69 -307 0
-93 -198 -69 -67 0
-93 -198 -69 -187 0
-93 -198 -189 -307 0
-93 -198 -189 -67 0
-213 -318 -309 -67 0
-213 -318 -309 -187 0
-213 -318 -69 -307 0
-213 -318 -69 -67 0
-213 -318 -69 -187 0
-213 -318 -189 -307 0
-213 -318 -189 -67 0
-213 -318 -189 -187 0
-213 -78 -309 -67 0
-213 -78 -309 -187 0
-213 -78 -69 -307 0
-213 -78 -69 -67 0
-213 -78 -69 -187 0
-213 -78 -189 -307 0
-213 -78 -189 -67 0
-213 -78 -189 -187 0
-213 -198 -309 -67 0
-213 -198 -309 -187 0
-213 -198 -69 -67 0
-213 -198 -69 -187 0
-334 -319 -70 -307 0
-334 -319 -70 -67 0
-334 -319 -190 -307 0
-334 -319 -190 -67 0
-334 -79 -310 -307 0
-334 -79 -310 -67 0
-334 -79 -310 -187 0
-334 -79 -70 -307 0
-334 -79 -70 -67 0
-334 -79 -70 -187 0
-334 -79 -190 -307 0
-334 -79 -190 -67 0
-334 -199 -310 -307 0
-334 -199 -310 -67 0
-334 -199 -310 -187 0
-334 -199 -70 -307 0
-334 -199 -70 -67 0
-334 -199 -70 -187 0
-334 -199 -190 -307 0
-334 -199 -190 -67 0
-94 -319 -310 -67 0
-94 -319 -310 -187 0
-94 -319 -70 -307 0
-94 -319 -70 -67 0
-94 -319 -70 -187 0
-94 -319 -190 -307 0
-94 -319 -190 -67 0
-94 -319 -190 -187 0
-94 -79 -310 -307 0
-94 -79 -310 -67 0
-94 -79 -310 -187 0
-94 -79 -70 -307 0
-94 -79 -70 -187 0
-94 -79 -190 -307 0
-94 -79 -190 -67 0
-94 -79 -190 -187 0
-94 -199 -310 -307 0
-94 -199 -310 -67 0
-94 -199 -310 -187 0
-94 -199 -70 -307 0
-94 -199 -70 -67 0
-94 -199 -70 -187 0
-94 -199 -190 -307 0
-94 -199 -190 -67 0
-214 -319 -310 -67 0
-214 -319 -310 -187 0
-214 -319 -70 -307 0
-214 -319 -70 -67 0
-214 -319 -70 -187 0
-214 -319 -190 -307 0
-214 -319 -190 -67 0
-214 -319 -190 -187 0
-214 -79 -310 -67 0
-214 -79 -310 -187 0
-214 -79 -70 -307 0
-214 -79 -70 -67 0
-214 -79 -70 -187 0
-214 -79 -190 -307 0
-214 -79 -190 -67 0
-214 -79 -190 -187 0
-214 -199 -310 -67 0
-214 -199 -310 -187 0
-214 -199 -70 -67 0
-214 -199 -70 -187 0
-335 -320 -71 -307 0
-335 -320 -71 -67 0
-335 -320 -191 -307 0
-335 -320 -191 -67 0
-335 -80 -311 -307 0
-335 -80 -311 -67 0
-335 -80 -311 -187 0
-335 -80 -71 -307 0
-335 -80 -71 -67 0
-335 -80 -71 -187 0
-335 -80 -191 -307 0
-335 -80 -191 -67 0
-335 -200 -311 -307 0
-335 -200 -311 -67 0
-335 -200 -311 -187 0
-335 -200 -71 -307 0
-335 -200 -71 -67 0
-335 -200 -71 -187 0
-335 -200 -191 -307 0
-335 -200 -191 -67 0
-95 -320 -311 -67 0
-95 -320 -311 -187 0
-95 -320 -71 -307 0
-95 -320 -71 -67 0
-95 -320 -71 -187 0
-95 -320 -191 -307 0
-95 -320 -191 -67 0
-95 -320 -191 -187 0
-95 -80 -311 -307 0
-95 -80 -311 -67 0
-95 -80 -311 -187 0
-95 -80 -71 -307 0
-95 -80 -71 -187 0
-95 -80 -191 -307 0
-95 -80 -191 -67 0
-95 -80 -191 -187 0
-95 -200 -311 -307 0
-95 -200 -311 -67 0
-95 -200 -311 -187 0
-95 -200 -71 -307 0
-95 -200 -71 -67 0
-95 -200 -71 -187 0
-95 -200 -191 -307 0
-95 -200 -191 -67 0
-215 -320 -311 -67 0
-215 -320 -311 -187 0
-215 -320 -71 -307 0
-215 -320 -71 -67 0
-215 -320 -71 -187 0
-215 -320 -191 -307 0
-215 -320 -191 -67 0
-215 -320 -191 -187 0
-215 -80 -311 -67 0
-215 -80 -311 -187 0
-215 -80 -71 -307 0
-215 -80 -71 -67 0
-215 -80 -71 -187 0
-215 -80 -191 -307 0
-215 -80 -191 -67 0
-215 -80 -191 -187 0
-215 -200 -311 -67 0
-215 -200 -311 -187 0
-215 -200 -71 -67 0
-215 -200 -71 -187 0
-336 -321 -69 -308 0
-336 -321 -69 -68 0
-336 -321 -189 -308 0
-336 -321 -189 -68 0
-336 -81 -309 -308 0
-336 -81 -309 -68 0
-336 -81 -309 -188 0
-336 -81 -69 -308 0
-336 -81 -69 -68 0
-336 -81 -69 -188 0
-336 -81 -189 -308 0
-336 -81 -189 -68 0
-336 -201 -309 -308 0
-336 -201 -309 -68 0
-336 -201 -309 -188 0
-336 -201 -69 -308 0
-336 -201 -69 -68 0
-336 -201 -69 -188 0
-336 -201 -189 -308 0
-336 -201 -189 -68 0
-96 -321 -309 -68 0
-96 -321 -309 -188 0
-96 -321 -69 -308 0
-96 -321 -69 -68 0
-96 -321 -69 -188 0
-96 -321 -189 -308 0
-96 -321 -189 -68 0
-96 -321 -189 -188 0
-96 -81 -309 -308 0
-96 -81 -309 -68 0
-96 -81 -309 -188 0
-96 -81 -69 -308 0
-96 -81 -69 -188 0
-96 -81 -189 -308 0
-96 -81 -189 -68 0
-96 -81 -189 -188 0
-96 -201 -309 -308 0
-96 -201 -309 -68 0
-96 -201 -309 -188 0
-96 -201 -69 -308 0
-96 -201 -69 -68 0
-96 -201 -69 -188 0
-96 -201 -189 -308 0
-96 -201 -189 -68 0
-216 -321 -309 -68 0
-216 -321 -309 -188 0
-216 -321 -69 -308 0
-216 -321 -69 -68 0
-216 -321 -69 -188 0
-216 -321 -189 -308 0
-216 -321 -189 -68 0
-216 -321 -189 -188 0
-216 -81 -309 -68 0
-216 -81 -309 -188 0
-216 -81 -69 -308 0
-216 -81 -69 -68 0
-216 -81 -69 -188 0
-216 -81 -189 -308 0
-216 -81 -189 -68 0
-216 -81 -189 -188 0
-216 -201 -309 -68 0
-216 -201 -309 -188 0
-216 -201 -69 -68 0
-216 -201 -69 -188 0
-337 -322 -70 -308 0
-337 -322 -70 -68 0
-337 -322 -190 -308 0
-337 -322 -190 -68 0
-337 -82 -310 -308 0
-337 -82 -310 -68 0
-337 -82 -310 -188 0
-337 -82 -70 -308 0
-337 -82 -70 -68 0
-337 -82 -70 -188 0
-337 -82 -190 -308 0
-337 -82 -190 -68 0
-337 -202 -310 -308 0
-337 -202 -310 -68 0
-337 -202 -310 -188 0
-337 -202 -70 -308 0
-337 -202 -70 -68 0
-337 -202 -70 -188 0
-337 -202 -190 -308 0
-337 -202 -190 -68 0
-97 -322 -310 -68 0
-97 -322 -310 -188 0
-97 -322 -70 -308 0
-97 -322 -70 -68 0
-97 -322 -70 -188 0
-97 -322 -190 -308 0
-97 -322 -190 -68 0
-97 -322 -190 -188 0
-97 -82 -310 -308 0
-97 -82 -310 -68 0
-97 -82 -310 -188 0
-97 -82 -70 -308 0
-97 -82 -70 -188 0
-97 -82 -190 -308 0
-97 -82 -190 -68 0
-97 -82 -190 -188 0
-97 -202 -310 -308 0
-97 -202 -310 -68 0
-97 -202 -310 -188 0
-97 -202 -70 -308 0
-97 -202 -70 -68 0
-97 -202 -70 -188 0
-97 -202 -190 -308 0
-97 -202 -190 -68 0
-217 -322 -310 -68 0
-217 -322 -310 -188 0
-217 -322 -70 -308 0
-217 -322 -70 -68 0
-217 -322 -70 -188 0
-217 -322 -190 -308 0
-217 -322 -190 -68 0
-217 -322 -190 -188 0
-217 -82 -310 -68 0
-217 -82 -310 -188 0
-217 -82 -70 -308 0
-217 -82 -70 -68 0
-217 -82 -70 -188 0
-217 -82 -190 -308 0
-217 -82 -190 -68 0
-217 -82 -190 -188 0
-217 -202 -310 -68 0
-217 -202 -310 -188 0
-217 -202 -70 -68 0
-217 -202 -70 -188 0
-338 -323 -71 -308 0
-338 -323 -71 -68 0
-338 -323 -191 -308 0
-338 -323 -191 -68 0
-338 -83 -311 -308 0
-338 -83 -311 -68 0
-338 -83 -311 -188 0
-338 -83 -71 -308 0
-338 -83 -71 -68 0
-338 -83 -71 -188 0
-338 -83 -191 -308 0
-338 -83 -191 -68 0
-338 -203 -311 -308 0
-338 -203 -311 -68 0
-338 -203 -311 -188 0
-338 -203 -71 -308 0
-338 -203 -71 -68 0
-338 -203 -71 -188 0
-338 -203 -191 -308 0
-338 -203 -191 -68 0
-98 -323 -311 -68 0
-98 -323 -311 -188 0
-98 -323 -71 -308 0
-98 -323 -71 -68 0
-98 -323 -71 -188 0
-98 -323 -191 -308 0
-98 -323 -191 -68 0
-98 -323 -191 -188 0
-98 -83 -311 -308 0
-98 -83 -311 -68 0
-98 -83 -311 -188 0
-98 -83 -71 -308 0
-98 -83 -71 -188 0
-98 -83 -191 -308 0
-98 -83 -191 -68 0
-98 -83 -191 -188 0
-98 -203 -311 -308 0
-98 -203 -311 -68 0
-98 -203 -311 -188 0
-98 -203 -71 -308 0
-98 -203 -71 -68 0
-98 -203 -71 -188 0
-98 -203 -191 -308 0
-98 -203 -191 -68 0
-218 -323 -311 -68 0
-218 -323 -311 -188 0
-218 -323 -71 -308 0
-218 -323 -71 -68 0
-218 -323 -71 -188 0
-218 -323 -191 -308 0
-218 -323 -191 -68 0
-218 -323 -191 -188 0
-218 -83 -311 -68 0
-218 -83 -311 -188 0
-218 -83 -71 -308 0
-218 -83 -71 -68 0
-218 -83 -71 -188 0
-218 -83 -191 -308 0
-218 -83 -191 -68 0
-218 -83 -191 -188 0
-218 -203 -311 -68 0
-218 -203 -311 -188 0
-218 -203 -71 -68 0
-218 -203 -71 -188 0
-339 -324 -70 -309 0
-339 -324 -70 -69 0
-339 -324 -190 -309 0
-339 -324 -190 -69 0
-339 -84 -310 -309 0
-339 -84 -310 -69 0
-339 -84 -310 -189 0
-339 -84 -70 -309 0
-339 -84 -70 -69 0
-339 -84 -70 -189 0
-339 -84 -190 -309 0
-339 -84 -190 -69 0
-339 -204 -310 -309 0
-339 -204 -310 -69 0
-339 -204 -310 -189 0
-339 -204 -70 -309 0
-339 -204 -70 -69 0
-339 -204 -70 -189 0
-339 -204 -190 -309 0
-339 -204 -190 -69 0
-99 -324 -310 -69 0
-99 -324 -310 -189 0
-99 -324 -70 -309 0
-99 -324 -70 -69 0
-99 -324 -70 -189 0
-99 -324 -190 -309 0
-99 -324 -190 -69 0
-99 -324 -190 -189 0
-99 -84 -310 -309 0
-99 -84 -310 -69 0
-99 -84 -310 -189 0
-99 -84 -70 -309 0
-99 -84 -70 -189 0
-99 -84 -190 -309 0
-99 -84 -190 -69 0
-99 -84 -190 -189 0
-99 -204 -310 -309 0
-99 -204 -310 -69 0
-99 -204 -310 -189 0
-99 -204 -70 -309 0
-99 -204 -70 -69 0
-99 -204 -70 -189 0
-99 -204 -190 -309 0
-99 -204 -190 -69 0
-219 -324 -310 -69 0
-219 -324 -310 -189 0
-219 -324 -70 -309 0
-219 -324 -70 -69 0
-219 -324 -70 -189 0
-219 -324 -190 -309 0
-219 -324 -190 -69 0
-219 -324 -190 -189 0
-219 -84 -310 -69 0
-219 -84 -310 -189 0
-219 -84 -70 -309 0
-219 -84 -70 -69 0
-219 -84 -70 -189 0
-219 -84 -190 -309 0
-219 -84 -190 -69 0
-219 -84 -190 -189 0
-219 -204 -310 -69 0
-219 -204 -310 -189 0
-219 -204 -70 -69 0
-219 -204 -70 -189 0
-340 -325 -71 -309 0
-340 -325 -71 -69 0
-340 -325 -191 -309 0
-340 -325 -191 -69 0
-340 -85 -311 -309 0
-340 -85 -311 -69 0
-340 -85 -311 -189 0
-340 -85 -71 -309 0
-340 -85 -71 -69 0
-340 -85 -71 -189 0
-340 -85 -191 -309 0
-340 -85 -191 -69 0
-340 -205 -311 -309 0
-340 -205 -311 -69 0
-340 -205 -311 -189 0
-340 -205 -71 -309 0
-340 -205 -71 -69 0
-340 -205 -71 -189 0
-340 -205 -191 -309 0
-340 -205 -191 -69 0
-100 -325 -311 -69 0
-100 -325 -311 -189 0
-100 -325 -71 -309 0
-100 -325 -71 -69 0
-100 -325 -71 -189 0
-100 -325 -191 -309 0
-100 -325 -191 -69 0
-100 -325 -191 -189 0
-100 -85 -311 -309 0
-100 -85 -311 -69 0
-100 -85 -311 -189 0
-100 -85 -71 -309 0
-100 -85 -71 -189 0
-100 -85 -191 -309 0
-100 -85 -191 -69 0
-100 -85 -191 -189 0
-100 -205 -311 -309 0
-100 -205 -311 -69 0
-100 -205 -311 -189 0
-100 -205 -71 -309 0
-100 -205 -71 -69 0
-100 -205 -71 -189 0
-100 -205 -191 -309 0
-100 -205 -191 -69 0
-220 -325 -311 -69 0
-220 -325 -311 -189 0
-220 -325 -71 -309 0
-220 -325 -71 -69 0
-220 -325 -71 -189 0
-220 -325 -191 -309 0
-220 -325 -191 -69 0
-220 -325 -191 -189 0
-220 -85 -311 -69 0
-220 -85 -311 -189 0
-220 -85 -71 -309 0
-220 -85 -71 -69 0
-220 -85 -71 -189 0
-220 -85 -191 -309 0
-220 -85 -191 -69 0
-220 -85 -191 -189 0
-220 -205 -311 -69 0
-220 -205 -311 -189 0
-220 -205 -71 -69 0
-220 -205 -71 -189 0
-341 -326 -71 -310 0
-341 -326 -71 -70 0
-341 -326 -191 -310 0
-341 -326 -191 -70 0
-341 -86 -311 -310 0
-341 -86 -311 -70 0
-341 -86 -311 -190 0
-341 -86 -71 -310 0
-341 -86 -71 -70 0
-341 -86 -71 -190 0
-341 -86 -191 -310 0
-341 -86 -191 -70 0
-341 -206 -311 -310 0
-341 -206 -311 -70 0
-341 -206 -311 -190 0
-341 -206 -71 -310 0
-341 -206 -71 -70 0
-341 -206 -71 -190 0
-341 -206 -191 -310 0
-341 -206 -191 -70 0
-101 -326 -311 -70 0
-101 -326 -311 -190 0
-101 -326 -71 -310 0
-101 -326 -71 -70 0
-101 -326 -71 -190 0
-101 -326 -191 -310 0
-101 -326 -191 -70 0
-101 -326 -191 -190 0
-101 -86 -311 -310 0
-101 -86 -311 -70 0
-101 -86 -311 -190 0
-101 -86 -71 -310 0
-101 -86 -71 -190 0
-101 -86 -191 -310 0
-101 -86 -191 -70 0
-101 -86 -191 -190 0
-101 -206 -311 -310 0
-101 -206 -311 -70 0
-101 -206 -311 -190 0
-101 -206 -71 -310 0
-101 -206 -71 -70 0
-101 -206 -71 -190 0
-101 -206 -191 -310 0
-101 -206 -191 -70 0
-221 -326 -311 -70 0
-221 -326 -311 -190 0
-221 -326 -71 -310 0
-221 -326 -71 -70 0
-221 -326 -71 -190 0
-221 -326 -191 -310 0
-221 -326 -191 -70 0
-221 -326 -191 -190 0
-221 -86 -311 -70 0
-221 -86 -311 -190 0
-221 -86 -71 -310 0
-221 -86 -71 -70 0
-221 -86 -71 -190 0
-221 -86 -191 -310 0
-221 -86 -191 -70 0
-221 -86 -191 -190 0
-221 -206 -311 -70 0
-221 -206 -311 -190 0
-221 -206 -71 -70 0
-221 -206 -71 -190 0
-342 -317 -73 -312 0
-342 -317 -73 -72 0
-342 -317 -193 -312 0
-342 -317 -193 -72 0
-342 -77 -313 -312 0
-342 -77 -313 -72 0
-342 -77 -313 -192 0
-342 -77 -73 -312 0
-342 -77 -73 -72 0
-342 -77 -73 -192 0
-342 -77 -193 -312 0
-342 -77 -193 -72 0
-342 -197 -313 -312 0
-342 -197 -313 -72 0
-342 -197 -313 -192 0
-342 -197 -73 -312 0
-342 -197 -73 -72 0
-342 -197 -73 -192 0
-342 -197 -193 -312 0
-342 -197 -193 -72 0
-102 -317 -313 -72 0
-102 -317 -313 -192 0
-102 -317 -73 -312 0
-102 -317 -73 -72 0
-102 -317 -73 -192 0
-102 -317 -193 -312 0
-102 -317 -193 -72 0
-102 -317 -193 -192 0
-102 -77 -313 -312 0
-102 -77 -313 -72 0
-102 -77 -313 -192 0
-102 -77 -73 -312 0
-102 -77 -73 -192 0
-102 -77 -193 -312 0
-102 -77 -193 -72 0
-102 -77 -193 -192 0
-102 -197 -313 -312 0
-102 -197 -313 -72 0
-102 -197 -313 -192 0
-102 -197 -73 -312 0
-102 -197 -73 -72 0
-102 -197 -73 -192 0
-102 -197 -193 -312 0
-102 -197 -193 -72 0
-222 -317 -313 -72 0
-222 -317 -313 -192 0
-222 -317 -73 -312 0
-222 -317 -73 -72 0
-222 -317 -73 -192 0
-222 -317 -193 -312 0
-222 -317 -193 -72 0
-222 -317 -193 -192 0
-222 -77 -313 -72 0
-222 -77 -313 -192 0
-222 -77 -73 -312 0
-222 -77 -73 -72 0
-222 -77 -73 -192 0
-222 -77 -193 -312 0
-222 -77 -193 -72 0
-222 -77 -193 -192 0
-222 -197 -313 -72 0
-222 -197 -313 -192 0
-222 -197 -73 -72 0
-222 -197 -73 -192 0
-343 -318 -74 -312 0
-343 -318 -74 -72 0
-343 -318 -194 -312 0
-343 -318 -194 -72 0
-343 -78 -314 -312 0
-343 -78 -314 -72 0
-343 -78 -314 -192 0
-343 -78 -74 -312 0
-343 -78 -74 -72 0
-343 -78 -74 -192 0
-343 -78 -194 -312 0
-343 -78 -194 -72 0
-343 -198 -314 -312 0
-343 -198 -314 -72 0
-343 -198 -314 -192 0
-343 -198 -74 -312 0
-343 -198 -74 -72 0
-343 -198 -74 -192 0
-343 -198 -194 -312 0
-343 -198 -194 -72 0
-103 -318 -314 -72 0
-103 -318 -314 -192 0
-103 -318 -74 -312 0
-103 -318 -74 -72 0
-103 -318 -74 -192 0
-103 -318 -194 -312 0
-103 -318 -194 -72 0
-103 -318 -194 -192 0
-103 -78 -314 -312 0
-103 -78 -314 -72 0
-103 -78 -314 -192 0
-103 -78 -74 -312 0
-103 -78 -74 -192 0
-103 -78 -194 -312 0
-103 -78 -194 -72 0
-103 -78 -194 -192 0
-103 -198 -314 -312 0
-103 -198 -314 -72 0
-103 -198 -314 -192 0
-103 -198 -74 -312 0
-103 -198 -74 -72 0
-103 -198 -74 -192 0
-103 -198 -194 -312 0
-103 -198 -194 -72 0
-223 -318 -314 -72 0
-223 -318 -314 -192 0
-223 -318 -74 -312 0
-223 -318 -74 -72 0
-223 -318 -74 -192 0
-223 -318 -194 -312 0
-223 -318 -194 -72 0
-223 -318 -194 -192 0
-223 -78 -314 -72 0
-223 -78 -314 -192 0
-223 -78 -74 -312 0
-223 -78 -74 -72 0
-223 -78 -74 -192 0
-223 -78 -194 -312 0
-223 -78 -194 -72 0
-223 -78 -194 -192 0
-223 -198 -314 -72 0
-223 -198 -314 -192 0
-223 -198 -74 -72 0
-223 -198 -74 -192 0
-344 -319 -75 -312 0
-344 -319 -75 -72 0
-344 -319 -195 -312 0
-344 -319 -195 -72 0
-344 -79 -315 -312 0
-344 -79 -315 -72 0
-344 -79 -315 -192 0
-344 -79 -75 -312 0
-344 -79 -75 -72 0
-344 -79 -75 -192 0
-344 -79 -195 -312 0
-344 -79 -195 -72 0
-344 -199 -315 -312 0
-344 -199 -315 -72 0
-344 -199 -315 -192 0
-344 -199 -75 -312 0
-344 -199 -75 -72 0
-344 -199 -75 -192 0
-344 -199 -195 -312 0
-344 -199 -195 -72 0
-104 -319 -315 -72 0
-104 -319 -315 -192 0
-104 -319 -75 -312 0
-104 -319 -75 -72 0
-104 -319 -75 -192 0
-104 -319 -195 -312 0
-104 -319 -195 -72 0
-104 -319 -195 -192 0
-104 -79 -315 -312 0
-104 -79 -315 -72 0
-104 -79 -315 -192 0
-104 -79 -75 -312 0
-104 -79 -75 -192 0
-104 -79 -195 -312 0
-104 -79 -195 -72 0
-104 -79 -195 -192 0
-104 -199 -315 -312 0
-104 -199 -315 -72 0
-104 -199 -315 -192 0
-104 -199 -75 -312 0
-104 -199 -75 -72 0
-104 -199 -75 -192 0
-104 -199 -195 -312 0
-104 -199 -195 -72 0
-224 -319 -315 -72 0
-224 -319 -315 -192 0
-224 -319 -75 -312 0
-224 -319 -75 -72 0
-224 -319 -75 -192 0
-224 -319 -195 -312 0
-224 -319 -195 -72 0
-224 -319 -195 -192 0
-224 -79 -315 -72 0
-224 -79 -315 -192 0
-224 -79 -75 -312 0
-224 -79 -75 -72 0
-224 -79 -75 -192 0
-224 -79 -195 -312 0
-224 -79 -195 -72 0
-224 -79 -195 -192 0
-224 -199 -315 -72 0
-224 -199 -315 -192 0
-224 -199 -75 -72 0
-224 -199 -75 -192 0
-345 -320 -76 -312 0
-345 -320 -76 -72 0
-345 -320 -196 -312 0
-345 -320 -196 -72 0
-345 -80 -316 -312 0
-345 -80 -316 -72 0
-345 -80 -316 -192 0
-345 -80 -76 -312 0
-345 -80 -76 -72 0
-345 -80 -76 -192 0
-345 -80 -196 -312 0
-345 -80 -196 -72 0
-345 -200 -316 -312 0
-345 -200 -316 -72 0
-345 -200 -316 -192 0
-345 -200 -76 -312 0
-345 -200 -76 -72 0
-345 -200 -76 -192 0
-345 -200 -196 -312 0
-345 -200 -196 -72 0
-105 -320 -316 -72 0
-105 -320 -316 -192 0
-105 -320 -76 -312 0
-105 -320 -76 -72 0
-105 -320 -76 -192 0
-105 -320 -196 -312 0
-105 -320 -196 -72 0
-105 -320 -196 -192 0
-105 -80 -316 -312 0
-105 -80 -316 -72 0
-105 -80 -316 -192 0
-105 -80 -76 -312 0
-105 -80 -76 -192 0
-105 -80 -196 -312 0
-105 -80 -196 -72 0
-105 -80 -196 -192 0
-105 -200 -316 -312 0
-105 -200 -316 -72 0
-105 -200 -316 -192 0
-105 -200 -76 -312 0
-105 -200 -76 -72 0
-105 -200 -76 -192 0
-105 -200 -196 -312 0
-105 -200 -196 -72 0
-225 -320 -316 -72 0
-225 -320 -316 -192 0
-225 -320 -76 -312 0
-225 -320 -76 -72 0
-225 -320 -76 -192 0
-225 -320 -196 -312 0
-225 -320 -196 -72 0
-225 -320 -196 -192 0
-225 -80 -316 -72 0
-225 -80 -316 -192 0
-225 -80 -76 -312 0
-225 -80 -76 -72 0
-225 -80 -76 -192 0
-225 -80 -196 -312 0
-225 -80 -196 -72 0
-225 -80 -196 -192 0
-225 -200 -316 -72 0
-225 -200 -316 -192 0
-225 -200 -76 -72 0
-225 -200 -76 -192 0
-346 -321 -74 -313 0
-346 -321 -74 -73 0
-346 -321 -194 -313 0
-346 -321 -194 -73 0
-346 -81 -314 -313 0
-346 -81 -314 -73 0
-346 -81 -314 -193 0
-346 -81 -74 -313 0
-346 -81 -74 -73 0
-346 -81 -74 -193 0
-346 -81 -194 -313 0
-346 -81 -194 -73 0
-346 -201 -314 -313 0
-346 -201 -314 -73 0
-346 -201 -314 -193 0
-346 -201 -74 -313 0
-346 -201 -74 -73 0
-346 -201 -74 -193 0
-346 -201 -194 -313 0
-346 -201 -194 -73 0
-106 -321 -314 -73 0
-106 -321 -314 -193 0
-106 -321 -74 -313 0
-106 -321 -74 -73 0
-106 -321 -74 -193 0
-106 -321 -194 -313 0
-106 -321 -194 -73 0
-106 -321 -194 -193 0
-106 -81 -314 -313 0
-106 -81 -314 -73 0
-106 -81 -314 -193 0
-106 -81 -74 -313 0
-106 -81 -74 -193 0
-106 -81 -194 -313 0
-106 -81 -194 -73 0
-106 -81 -194 -193 0
-106 -201 -314 -313 0
-106 -201 -314 -73 0
-106 -201 -314 -193 0
-106 -201 -74 -313 0
-106 -201 -74 -73 0
-106 -201 -74 -193 0
-106 -201 -194 -313 0
-106 -201 -194 -73 0
-226 -321 -314 -73 0
-226 -321 -314 -193 0
-226 -321 -74 -313 0
-226 -321 -74 -73 0
-226 -321 -74 -193 0
-226 -321 -194 -313 0
-226 -321 -194 -73 0
-226 -321 -194 -193 0
-226 -81 -314 -73 0
-226 -81 -314 -193 0
-226 -81 -74 -313 0
-226 -81 -74 -73 0
-226 -81 -74 -193 0
-226 -81 -194 -313 0
-226 -81 -194 -73 0
-226 -81 -194 -193 0
-226 -201 -314 -73 0
-226 -201 -314 -193 0
-226 -201 -74 -73 0
-226 -201 -74 -193 0
-347 -322 -75 -313 0
-347 -322 -75 -73 0
-347 -322 -195 -313 0
-347 -322 -195 -73 0
-347 -82 -315 -313 0
-347 -82 -315 -73 0
-347 -82 -315 -193 0
-347 -82 -75 -313 0
-347 -82 -75 -73 0
-347 -82 -75 -193 0
-347 -82 -195 -313 0
-347 -82 -195 -73 0
-347 -202 -315 -313 0
-347 -202 -315 -73 0
-347 -202 -315 -193 0
-347 -202 -75 -313 0
-347 -202 -75 -73 0
-347 -202 -75 -193 0
-347 -202 -195 -313 0
-347 -202 -195 -73 0
-107 -322 -315 -73 0
-107 -322 -315 -193 0
-107 -322 -75 -313 0
-107 -322 -75 -73 0
-107 -322 -75 -193 0
-107 -322 -195 -313 0
-107 -322 -195 -73 0
-107 -322 -195 -193 0
-107 -82 -315 -313 0
-107 -82 -315 -73 0
-107 -82 -315 -193 0
-107 -82 -75 -313 0
-107 -82 -75 -193 0
-107 -82 -195 -313 0
-107 -82 -195 -73 0
-107 -82 -195 -193 0
-107 -202 -315 -313 0
-107 -202 -315 -73 0
-107 -202 -315 -193 0
-107 -202 -75 -313 0
-107 -202 -75 -73 0
-107 -202 -75 -193 0
-107 -202 -195 -313 0
-107 -202 -195 -73 0
-227 -322 -315 -73 0
-227 -322 -315 -193 0
-227 -322 -75 -313 0
-227 -322 -75 -73 0
-227 -322 -75 -193 0
-227 -322 -195 -313 0
-227 -322 -195 -73 0
-227 -322 -195 -193 0
-227 -82 -315 -73 0
-227 -82 -315 -193 0
-227 -82 -75 -313 0
-227 -82 -75 -73 0
-227 -82 -75 -193 0
-227 -82 -195 -313 0
-227 -82 -195 -73 0
-227 -82 -195 -193 0
-227 -202 -315 -73 0
-227 -202 -315 -193 0
-227 -202 -75 -73 0
-227 -202 -75 -193 0
-348 -323 -76 -313 0
-348 -323 -76 -73 0
-348 -323 -196 -313 0
-348 -323 -196 -73 0
-348 -83 -316 -313 0
-348 -83 -316 -73 0
-348 -83 -316 -193 0
-348 -83 -76 -313 0
-348 -83 -76 -73 0
-348 -83 -76 -193 0
-348 -83 -196 -313 0
-348 -83 -196 -73 0
-348 -203 -316 -313 0
-348 -203 -316 -73 0
-348 -203 -316 -193 0
-348 -203 -76 -313 0
-348 -203 -76 -73 0
-348 -203 -76 -193 0
-348 -203 -196 -313 0
-348 -203 -196 -73 0
-108 -323 -316 -73 0
-108 -323 -316 -193 0
-108 -323 -76 -313 0
-108 -323 -76 -73 0
-108 -323 -76 -193 0
-108 -323 -196 -313 0
-108 -323 -196 -73 0
-108 -323 -196 -193 0
-108 -83 -316 -313 0
-108 -83 -316 -73 0
-108 -83 -316 -193 0
-108 -83 -76 -313 0
-108 -83 -76 -193 0
-108 -83 -196 -313 0
-108 -83 -196 -73 0
-108 -83 -196 -193 0
-108 -203 -316 -313 0
-108 -203 -316 -73 0
-108 -203 -316 -193 0
-108 -203 -76 -313 0
-108 -203 -76 -73 0
-108 -203 -76 -193 0
-108 -203 -196 -313 0
-108 -203 -196 -73 0
-228 -323 -316 -73 0
-228 -323 -316 -193 0
-228 -323 -76 -313 0
-228 -323 -76 -73 0
-228 -323 -76 -193 0
-228 -323 -196 -313 0
-228 -323 -196 -73 0
-228 -323 -196 -193 0
-228 -83 -316 -73 0
-228 -83 -316 -193 0
-228 -83 -76 -313 0
-228 -83 -76 -73 0
-228 -83 -76 -193 0
-228 -83 -196 -313 0
-228 -83 -196 -73 0
-228 -83 -196 -193 0
-228 -203 -316 -73 0
-228 -203 -316 -193 0
-228 -203 -76 -73 0
-228 -203 -76 -193 0
-349 -324 -75 -314 0
-349 -324 -75 -74 0
-349 -324 -195 -314 0
-349 -324 -195 -74 0
-349 -84 -315 -314 0
-349 -84 -315 -74 0
-349 -84 -315 -194 0
-349 -84 -75 -314 0
-349 -84 -75 -74 0
-349 -84 -75 -194 0
-349 -84 -195 -314 0
-349 -84 -195 -74 0
-349 -204 -315 -314 0
-349 -204 -315 -74 0
-349 -204 -315 -194 0
-349 -204 -75 -314 0
-349 -204 -75 -74 0
-349 -204 -75 -194 0
-349 -204 -195 -314 0
-349 -204 -195 -74 0
-109 -324 -315 -74 0
-109 -324 -315 -194 0
-109 -324 -75 -314 0
-109 -324 -75 -74 0
-109 -324 -75 -194 0
-109 -324 -195 -314 0
-109 -324 -195 -74 0
-109 -324 -195 -194 0
-109 -84 -315 -314 0
-109 -84 -315 -74 0
-109 -84 -315 -194 0
-109 -84 -75 -314 0
-109 -84 -75 -194 0
-109 -84 -195 -314 0
-109 -84 -195 -74 0
-109 -84 -195 -194 0
-109 -204 -315 -314 0
-109 -204 -315 -74 0
-109 -204 -315 -194 0
-109 -204 -75 -314 0
-109 -204 -75 -74 0
-109 -204 -75 -194 0
-109 -204 -195 -314 0
-109 -204 -195 -74 0
-229 -324 -315 -74 0
-229 -324 -315 -194 0
-229 -324 -75 -314 0
-229 -324 -75 -74 0
-229 -324 -75 -194 0
-229 -324 -195 -314 0
-229 -324 -195 -74 0
-229 -324 -195 -194 0
-229 -84 -315 -74 0
-229 -84 -315 -194 0
-229 -84 -75 -314 0
-229 -84 -75 -74 0
-229 -84 -75 -194 0
-229 -84 -195 -314 0
-229 -84 -195 -74 0
-229 -84 -195 -194 0
-229 -204 -315 -74 0
-229 -204 -315 -194 0
-229 -204 -75 -74 0
-229 -204 -75 -194 0
-350 -325 -76 -314 0
-350 -325 -76 -74 0
-350 -325 -196 -314 0
-350 -325 -196 -74 0
-350 -85 -316 -314 0
-350 -85 -316 -74 0
-350 -85 -316 -194 0
-350 -85 -76 -314 0
-350 -85 -76 -74 0
-350 -85 -76 -194 0
-350 -85 -196 -314 0
-350 -85 -196 -74 0
-350 -205 -316 -314 0
-350 -205 -316 -74 0
-350 -205 -316 -194 0
-350 -205 -76 -314 0
-350 -205 -76 -74 0
-350 -205 -76 -194 0
-350 -205 -196 -314 0
-350 -205 -196 -74 0
-110 -325 -316 -74 0
-110 -325 -316 -194 0
-110 -325 -76 -314 0
-110 -325 -76 -74 0
-110 -325 -76 -194 0
-110 -325 -196 -314 0
-110 -325 -196 -74 0
-110 -325 -196 -194 0
-110 -85 -316 -314 0
-110 -85 -316 -74 0
-110 -85 -316 -194 0
-110 -85 -76 -314 0
-110 -85 -76 -194 0
-110 -85 -196 -314 0
-110 -85 -196 -74 0
-110 -85 -196 -194 0
-110 -205 -316 -314 0
-110 -205 -316 -74 0
-110 -205 -316 -194 0
-110 -205 -76 -314 0
-110 -205 -76 -74 0
-110 -205 -76 -194 0
-110 -205 -196 -314 0
-110 -205 -196 -74 0
-230 -325 -316 -74 0
-230 -325 -316 -194 0
-230 -325 -76 -314 0
-230 -325 -76 -74 0
-230 -325 -76 -194 0
-230 -325 -196 -314 0
-230 -325 -196 -74 0
-230 -325 -196 -194 0
-230 -85 -316 -74 0
-230 -85 -316 -194 0
-230 -85 -76 -314 0
-230 -85 -76 -74 0
-230 -85 -76 -194 0
-230 -85 -196 -314 0
-230 -85 -196 -74 0
-230 -85 -196 -194 0
-230 -205 -316 -74 0
-230 -205 -316 -194 0
-230 -205 -76 -74 0
-230 -205 -76 -194 0
-351 -326 -76 -315 0
-351 -326 -76 -75 0
-351 -326 -196 -315 0
-351 -326 -196 -75 0
-351 -86 -316 -315 0
-351 -86 -316 -75 0
-351 -86 -316 -195 0
-351 -86 -76 -315 0
-351 -86 -76 -75 0
-351 -86 -76 -195 0
-351 -86 -196 -315 0
-351 -86 -196 -75 0
-351 -206 -316 -315 0
-351 -206 -316 -75 0
-351 -206 -316 -195 0
-351 -206 -76 -315 0
-351 -206 -76 -75 0
-351 -206 -76 -195 0
-351 -206 -196 -315 0
-351 -206 -196 -75 0
-111 -326 -316 -75 0
-111 -326 -316 -195 0
-111 -326 -76 -315 0
-111 -326 -76 -75 0
-111 -326 -76 -195 0
-111 -326 -196 -315 0
-111 -326 -196 -75 0
-111 -326 -196 -195 0
-111 -86 -316 -315 0
-111 -86 -316 -75 0
-111 -86 -316 -195 0
-111 -86 -76 -315 0
-111 -86 -76 -195 0
-111 -86 -196 -315 0
-111 -86 -196 -75 0
-111 -86 -196 -195 0
-111 -206 -316 -315 0
-111 -206 -316 -75 0
-111 -206 -316 -195 0
-111 -206 -76 -315 0
-111 -206 -76 -75 0
-111 -206 -76 -195 0
-111 -206 -196 -315 0
-111 -206 -196 -75 0
-231 -326 -316 -75 0
-231 -326 -316 -195 0
-231 -326 -76 -315 0
-231 -326 -76 -75 0
-231 -326 -76 -195 0
-231 -326 -196 -315 0
-231 -326 -196 -75 0
-231 -326 -196 -195 0
-231 -86 -316 -75 0
-231 -86 -316 -195 0
-231 -86 -76 -315 0
-231 -86 -76 -75 0
-231 -86 -76 -195 0
-231 -86 -196 -315 0
-231 -86 -196 -75 0
-231 -86 -196 -195 0
-231 -206 -316 -75 0
-231 -206 -316 -195 0
-231 -206 -76 -75 0
-231 -206 -76 -195 0
-352 -321 -78 -317 0
-352 -321 -78 -77 0
-352 -321 -198 -317 0
-352 -321 -198 -77 0
-352 -81 -318 -317 0
-352 -81 -318 -77 0
-352 -81 -318 -197 0
-352 -81 -78 -317 0
-352 -81 -78 -77 0
-352 -81 -78 -197 0
-352 -81 -198 -317 0
-352 -81 -198 -77 0
-352 -201 -318 -317 0
-352 -201 -318 -77 0
-352 -201 -318 -197 0
-352 -201 -78 -317 0
-352 -201 -78 -77 0
-352 -201 -78 -197 0
-352 -201 -198 -317 0
-352 -201 -198 -77 0
-112 -321 -318 -77 0
-112 -321 -318 -197 0
-112 -321 -78 -317 0
-112 -321 -78 -77 0
-112 -321 -78 -197 0
-112 -321 -198 -317 0
-112 -321 -198 -77 0
-112 -321 -198 -197 0
-112 -81 -318 -317 0
-112 -81 -318 -77 0
-112 -81 -318 -197 0
-112 -81 -78 -317 0
-112 -81 -78 -197 0
-112 -81 -198 -317 0
-112 -81 -198 -77 0
-112 -81 -198 -197 0
-112 -201 -318 -317 0
-112 -201 -318 -77 0
-112 -201 -318 -197 0
-112 -201 -78 -317 0
-112 -201 -78 -77 0
-112 -201 -78 -197 0
-112 -201 -198 -317 0
-112 -201 -198 -77 0
-232 -321 -318 -77 0
-232 -321 -318 -197 0
-232 -321 -78 -317 0
-232 -321 -78 -77 0
-232 -321 -78 -197 0
-232 -321 -198 -317 0
-232 -321 -198 -77 0
-232 -321 -198 -197 0
-232 -81 -318 -77 0
-232 -81 -318 -197 0
-232 -81 -78 -317 0
-232 -81 -78 -77 0
-232 -81 -78 -197 0
-232 -81 -198 -317 0
-232 -81 -198 -77 0
-232 -81 -198 -197 0
-232 -201 -318 -77 0
-232 -201 -318 -197 0
-232 -201 -78 -77 0
-232 -201 -78 -197 0
-353 -322 -79 -317 0
-353 -322 -79 -77 0
-353 -322 -199 -317 0
-353 -322 -199 -77 0
-353 -82 -319 -317 0
-353 -82 -319 -77 0
-353 -82 -319 -197 0
-353 -82 -79 -317 0
-353 -82 -79 -77 0
-353 -82 -79 -197 0
-353 -82 -199 -317 0
-353 -82 -199 -77 0
-353 -202 -319 -317 0
-353 -202 -319 -77 0
-353 -202 -319 -197 0
-353 -202 -79 -317 0
-353 -202 -79 -77 0
-353 -202 -79 -197 0
-353 -202 -199 -317 0
-353 -202 -199 -77 0
-113 -322 -319 -77 0
-113 -322 -319 -197 0
-113 -322 -79 -317 0
-113 -322 -79 -77 0
-113 -322 -79 -197 0
-113 -322 -199 -317 0
-113 -322 -199 -77 0
-113 -322 -199 -197 0
-113 -82 -319 -317 0
-113 -82 -319 -77 0
-113 -82 -319 -197 0
-113 -82 -79 -317 0
-113 -82 -79 -197 0
-113 -82 -199 -317 0
-113 -82 -199 -77 0
-113 -82 -199 -197 0
-113 -202 -319 -317 0
-113 -202 -319 -77 0
-113 -202 -319 -197 0
-113 -202 -79 -317 0
-113 -202 -79 -77 0
-113 -202 -79 -197 0
-113 -202 -199 -317 0
-113 -202 -199 -77 0
-233 -322 -319 -77 0
-233 -322 -319 -197 0
-233 -322 -79 -317 0
-233 -322 -79 -77 0
-233 -322 -79 -197 0
-233 -322 -199 -317 0
-233 -322 -199 -77 0
-233 -322 -199 -197 0
-233 -82 -319 -77 0
-233 -82 -319 -197 0
-233 -82 -79 -317 0
-233 -82 -79 -77 0
-233 -82 -79 -197 0
-233 -82 -199 -317 0
-233 -82 -199 -77 0
-233 -82 -199 -197 0
-233 -202 -319 -77 0
-233 -202 -319 -197 0
-233 -202 -79 -77 0
-233 -202 -79 -197 0
-354 -323 -80 -317 0
-354 -323 -80 -77 0
-354 -323 -200 -317 0
-354 -323 -200 -77 0
-354 -83 -320 -317 0
-354 -83 -320 -77 0
-354 -83 -320 -197 0
-354 -83 -80 -317 0
-354 -83 -80 -77 0
-354 -83 -80 -197 0
-354 -83 -200 -317 0
-354 -83 -200 -77 0
-354 -203 -320 -317 0
-354 -203 -320 -77 0
-354 -203 -320 -197 0
-354 -203 -80 -317 0
-354 -203 -80 -77 0
-354 -203 -80 -197 0
-354 -203 -200 -317 0
-354 -203 -200 -77 0
-114 -323 -320 -77 0
-114 -323 -320 -197 0
-114 -323 -80 -317 0
-114 -323 -80 -77 0
-114 -323 -80 -197 0
-114 -323 -200 -317 0
-114 -323 -200 -77 0
-114 -323 -200 -197 0
-114 -83 -320 -317 0
-114 -83 -320 -77 0
-114 -83 -320 -197 0
-114 -83 -80 -317 0
-114 -83 -80 -197 0
-114 -83 -200 -317 0
-114 -83 -200 -77 0
-114 -83 -200 -197 0
-114 -203 -320 -317 0
-114 -203 -320 -77 0
-114 -203 -320 -197 0
-114 -203 -80 -317 0
-114 -203 -80 -77 0
-114 -203 -80 -197 0
-114 -203 -200 -317 0
-114 -203 -200 -77 0
-234 -323 -320 -77 0
-234 -323 -320 -197 0
-234 -323 -80 -317 0
-234 -323 -80 -77 0
-234 -323 -80 -197 0
-234 -323 -200 -317 0
-234 -323 -200 -77 0
-234 -323 -200 -197 0
-234 -83 -320 -77 0
-234 -83 -320 -197 0
-234 -83 -80 -317 0
-234 -83 -80 -77 0
-234 -83 -80 -197 0
-234 -83 -200 -317 0
-234 -83 -200 -77 0
-234 -83 -200 -197 0
-234 -203 -320 -77 0
-234 -203 -320 -197 0
-234 -203 -80 -77 0
-234 -203 -80 -197 0
-355 -324 -79 -318 0
-355 -324 -79 -78 0
-355 -324 -199 -318 0
-355 -324 -199 -78 0
-355 -84 -319 -318 0
-355 -84 -319 -78 0
-355 -84 -319 -198 0
-355 -84 -79 -318 0
-355 -84 -79 -78 0
-355 -84 -79 -198 0
-355 -84 -199 -318 0
-355 -84 -199 -78 0
-355 -204 -319 -318 0
-355 -204 -319 -78 0
-355 -204 -319 -198 0
-355 -204 -79 -318 0
-355 -204 -79 -78 0
-355 -204 -79 -198 0
-355 -204 -199 -318 0
-355 -204 -199 -78 0
-115 -324 -319 -78 0
-115 -324 -319 -198 0
-115 -324 -79 -318 0
-115 -324 -79 -78 0
-115 -324 -79 -198 0
-115 -324 -199 -318 0
-115 -324 -199 -78 0
-115 -324 -199 -198 0
-115 -84 -319 -318 0
-115 -84 -319 -78 0
-115 -84 -319 -198 0
-115 -84 -79 -318 0
-115 -84 -79 -198 0
-115 -84 -199 -318 0
-115 -84 -199 -78 0
-115 -84 -199 -198 0
-115 -204 -319 -318 0
-115 -204 -319 -78 0
-115 -204 -319 -198 0
-115 -204 -79 -318 0
-115 -204 -79 -78 0
-115 -204 -79 -198 0
-115 -204 -199 -318 0
-115 -204 -199 -78 0
-235 -324 -319 -78 0
-235 -324 -319 -198 0
-235 -324 -79 -318 0
-235 -324 -79 -78 0
-235 -324 -79 -198 0
-235 -324 -199 -318 0
-235 -324 -199 -78 0
-235 -324 -199 -198 0
-235 -84 -319 -78 0
-235 -84 -319 -198 0
-235 -84 -79 -318 0
-235 -84 -79 -78 0
-235 -84 -79 -198 0
-235 -84 -199 -318 0
-235 -84 -199 -78 0
-235 -84 -199 -198 0
-235 -204 -319 -78 0
-235 -204 -319 -198 0
-235 -204 -79 -78 0
-235 -204 -79 -198 0
-356 -325 -80 -318 0
-356 -325 -80 -78 0
-356 -325 -200 -318 0
-356 -325 -200 -78 0
-356 -85 -320 -318 0
-356 -85 -320 -78 0
-356 -85 -320 -198 0
-356 -85 -80 -318 0
-356 -85 -80 -78 0
-356 -85 -80 -198 0
-356 -85 -200 -318 0
-356 -85 -200 -78 0
-356 -205 -320 -318 0
-356 -205 -320 -78 0
-356 -205 -320 -198 0
-356 -205 -80 -318 0
-356 -205 -80 -78 0
-356 -205 -80 -198 0
-356 -205 -200 -318 0
-356 -205 -200 -78 0
-116 -325 -320 -78 0
-116 -325 -320 -198 0
-116 -325 -80 -318 0
-116 -325 -80 -78 0
-116 -325 -80 -198 0
-116 -325 -200 -318 0
-116 -325 -200 -78 0
-116 -325 -200 -198 0
-116 -85 -320 -318 0
-116 -85 -320 -78 0
-116 -85 -320 -198 0
-116 -85 -80 -318 0
-116 -85 -80 -198 0
-116 -85 -200 -318 0
-116 -85 -200 -78 0
-116 -85 -200 -198 0
-116 -205 -320 -318 0
-116 -205 -320 -78 0
-116 -205 -320 -198 0
-116 -205 -80 -318 0
-116 -205 -80 -78 0
-116 -205 -80 -198 0
-116 -205 -200 -318 0
-116 -205 -200 -78 0
-236 -325 -320 -78 0
-236 -325 -320 -198 0
-236 -325 -80 -318 0
-236 -325 -80 -78 0
-236 -325 -80 -198 0
-236 -325 -200 -318 0
-236 -325 -200 -78 0
-236 -325 -200 -198 0
-236 -85 -320 -78 0
-236 -85 -320 -198 0
-236 -85 -80 -318 0
-236 -85 -80 -78 0
-236 -85 -80 -198 0
-236 -85 -200 -318 0
-236 -85 -200 -78 0
-236 -85 -200 -198 0
-236 -205 -320 -78 0
-236 -205 -320 -198 0
-236 -205 -80 -78 0
-236 -205 -80 -198 0
-357 -326 -80 -319 0
-357 -326 -80 -79 0
-357 -326 -200 -319 0
-357 -326 -200 -79 0
-357 -86 -320 -319 0
-357 -86 -320 -79 0
-357 -86 -320 -199 0
-357 -86 -80 -319 0
-357 -86 -80 -79 0
-357 -86 -80 -199 0
-357 -86 -200 -319 0
-357 -86 -200 -79 0
-357 -206 -320 -319 0
-357 -206 -320 -79 0
-357 -206 -320 -199 0
-357 -206 -80 -319 0
-357 -206 -80 -79 0
-357 -206 -80 -199 0
-357 -206 -200 -319 0
-357 -206 -200 -79 0
-117 -326 -320 -79 0
-117 -326 -320 -199 0
-117 -326 -80 -319 0
-117 -326 -80 -79 0
-117 -326 -80 -199 0
-117 -326 -200 -319 0
-117 -326 -200 -79 0
-117 -326 -200 -199 0
-117 -86 -320 -319 0
-117 -86 -320 -79 0
-117 -86 -320 -199 0
-117 -86 -80 -319 0
-117 -86 -80 -199 0
-117 -86 -200 -319 0
-117 -86 -200 -79 0
-117 -86 -200 -199 0
-117 -206 -320 -319 0
-117 -206 -320 -79 0
-117 -206 -320 -199 0
-117 -206 -80 -319 0
-117 -206 -80 -79 0
-117 -206 -80 -199 0
-117 -206 -200 -319 0
-117 -206 -200 -79 0
-237 -326 -320 -79 0
-237 -326 -320 -199 0
-237 -326 -80 -319 0
-237 -326 -80 -79 0
-237 -326 -80 -199 0
-237 -326 -200 -319 0
-237 -326 -200 -79 0
-237 -326 -200 -199 0
-237 -86 -320 -79 0
-237 -86 -320 -199 0
-237 -86 -80 -319 0
-237 -86 -80 -79 0
-237 -86 -80 -199 0
-237 -86 -200 -319 0
-237 -86 -200 -79 0
-237 -86 -200 -199 0
-237 -206 -320 -79 0
-237 -206 -320 -199 0
-237 -206 -80 -79 0
-237 -206 -80 -199 0
-358 -324 -82 -321 0
-358 -324 -82 -81 0
-358 -324 -202 -321 0
-358 -324 -202 -81 0
-358 -84 -322 -321 0
-358 -84 -322 -81 0
-358 -84 -322 -201 0
-358 -84 -82 -321 0
-358 -84 -82 -81 0
-358 -84 -82 -201 0
-358 -84 -202 -321 0
-358 -84 -202 -81 0
-358 -204 -322 -321 0
-358 -204 -322 -81 0
-358 -204 -322 -201 0
-358 -204 -82 -321 0
-358 -204 -82 -81 0
-358 -204 -82 -201 0
-358 -204 -202 -321 0
-358 -204 -202 -81 0
-118 -324 -322 -81 0
-118 -324 -322 -201 0
-118 -324 -82 -321 0
-118 -324 -82 -81 0
-118 -324 -82 -201 0
-118 -324 -202 -321 0
-118 -324 -202 -81 0
-118 -324 -202 -201 0
-118 -84 -322 -321 0
-118 -84 -322 -81 0
-118 -84 -322 -201 0
-118 -84 -82 -321 0
-118 -84 -82 -201 0
-118 -84 -202 -321 0
-118 -84 -202 -81 0
-118 -84 -202 -201 0
-118 -204 -322 -321 0
-118 -204 -322 -81 0
-118 -204 -322 -201 0
-118 -204 -82 -321 0
-118 -204 -82 -81 0
-118 -204 -82 -201 0
-118 -204 -202 -321 0
-118 -204 -202 -81 0
-238 -324 -322 -81 0
-238 -324 -322 -201 0
-238 -324 -82 -321 0
-238 -324 -82 -81 0
-238 -324 -82 -201 0
-238 -324 -202 -321 0
-238 -324 -202 -81 0
-238 -324 -202 -201 0
-238 -84 -322 -81 0
-238 -84 -322 -201 0
-238 -84 -82 -321 0
-238 -84 -82 -81 0
-238 -84 -82 -201 0
-238 -84 -202 -321 0
-238 -84 -202 -81 0
-238 -84 -202 -201 0
-238 -204 -322 -81 0
-238 -204 -322 -201 0
-238 -204 -82 -81 0
-238 -204 -82 -201 0
-359 -325 -83 -321 0
-359 -325 -83 -81 0
-359 -325 -203 -321 0
-359 -325 -203 -81 0
-359 -85 -323 -321 0
-359 -85 -323 -81 0
-359 -85 -323 -201 0
-359 -85 -83 -321 0
-359 -85 -83 -81 0
-359 -85 -83 -201 0
-359 -85 -203 -321 0
-359 -85 -203 -81 0
-359 -205 -323 -321 0
-359 -205 -323 -81 0
-359 -205 -323 -201 0
-359 -205 -83 -321 0
-359 -205 -83 -81 0
-359 -205 -83 -201 0
-359 -205 -203 -321 0
-359 -205 -203 -81 0
-119 -325 -323 -81 0
-119 -325 -323 -201 0
-119 -325 -83 -321 0
-119 -325 -83 -81 0
-119 -325 -83 -201 0
-119 -325 -203 -321 0
-119 -325 -203 -81 0
-119 -325 -203 -201 0
-119 -85 -323 -321 0
-119 -85 -323 -81 0
-119 -85 -323 -201 0
-119 -85 -83 -321 0
-119 -85 -83 -201 0
-119 -85 -203 -321 0
-119 -85 -203 -81 0
-119 -85 -203 -201 0
-119 -205 -323 -321 0
-119 -205 -323 -81 0
-119 -205 -323 -201 0
-119 -205 -83 -321 0
-119 -205 -83 -81 0
-119 -205 -83 -201 0
-119 -205 -203 -321 0
-119 -205 -203 -81 0
-239 -325 -323 -81 0
-239 -325 -323 -201 0
-239 -325 -83 -321 0
-239 -325 -83 -81 0
-239 -325 -83 -201 0
-239 -325 -203 -321 0
-239 -325 -203 -81 0
-239 -325 -203 -201 0
-239 -85 -323 -81 0
-239 -85 -323 -201 0
-239 -85 -83 -321 0
-239 -85 -83 -81 0
-239 -85 -83 -201 0
-239 -85 -203 -321 0
-239 -85 -203 -81 0
-239 -85 -203 -201 0
-239 -205 -323 -81 0
-239 -205 -323 -201 0
-239 -205 -83 -81 0
-239 -205 -83 -201 0
-360 -326 -83 -322 0
-360 -326 -83 -82 0
-360 -326 -203 -322 0
-360 -326 -203 -82 0
-360 -86 -323 -322 0
-360 -86 -323 -82 0
-360 -86 -323 -202 0
-360 -86 -83 -322 0
-360 -86 -83 -82 0
-360 -86 -83 -202 0
-360 -86 -203 -322 0
-360 -86 -203 -82 0
-360 -206 -323 -322 0
-360 -206 -323 -82 0
-360 -206 -323 -202 0
-360 -206 -83 -322 0
-360 -206 -83 -82 0
-360 -206 -83 -202 0
-360 -206 -203 -322 0
-360 -206 -203 -82 0
-120 -326 -323 -82 0
-120 -326 -323 -202 0
-120 -326 -83 -322 0
-120 -326 -83 -82 0
-120 -326 -83 -202 0
-120 -326 -203 -322 0
-120 -326 -203 -82 0
-120 -326 -203 -202 0
-120 -86 -323 -322 0
-120 -86 -323 -82 0
-120 -86 -323 -202 0
-120 -86 -83 -322 0
-120 -86 -83 -202 0
-120 -86 -203 -322 0
-120 -86 -203 -82 0
-120 -86 -203 -202 0
-120 -206 -323 -322 0
-120 -206 -323 -82 0
-120 -206 -323 -202 0
-120 -206 -83 -322 0
-120 -206 -83 -82 0
-120 -206 -83 -202 0
-120 -206 -203 -322 0
-120 -206 -203 -82 0
-240 -326 -323 -82 0
-240 -326 -323 -202 0
-240 -326 -83 -322 0
-240 -326 -83 -82 0
-240 -326 -83 -202 0
-240 -326 -203 -322 0
-240 -326 -203 -82 0
-240 -326 -203 -202 0
-240 -86 -323 -82 0
-240 -86 -323 -202 0
-240 -86 -83 -322 0
-240 -86 -83 -82 0
-240 -86 -83 -202 0
-240 -86 -203 -322 0
-240 -86 -203 -82 0
-240 -86 -203 -202 0
-240 -206 -323 -82 0
-240 -206 -323 -202 0
-240 -206 -83 -82 0
-240 -206 -83 -202 0
-361 -326 -85 -324 0
-361 -326 -85 -84 0
-361 -326 -205 -324 0
-361 -326 -205 -84 0
-361 -86 -325 -324 0
-361 -86 -325 -84 0
-361 -86 -325 -204 0
-361 -86 -85 -324 0
-361 -86 -85 -84 0
-361 -86 -85 -204 0
-361 -86 -205 -324 0
-361 -86 -205 -84 0
-361 -206 -325 -324 0
-361 -206 -325 -84 0
-361 -206 -325 -204 0
-361 -206 -85 -324 0
-361 -206 -85 -84 0
-361 -206 -85 -204 0
-361 -206 -205 -324 0
-361 -206 -205 -84 0
-121 -326 -325 -84 0
-121 -326 -325 -204 0
-121 -326 -85 -324 0
-121 -326 -85 -84 0
-121 -326 -85 -204 0
-121 -326 -205 -324 0
-121 -326 -205 -84 0
-121 -326 -205 -204 0
-121 -86 -325 -324 0
-121 -86 -325 -84 0
-121 -86 -325 -204 0
-121 -86 -85 -324 0
-121 -86 -85 -204 0
-121 -86 -205 -324 0
-121 -86 -205 -84 0
-121 -86 -205 -204 0
-121 -206 -325 -324 0
-121 -206 -325 -84 0
-121 -206 -325 -204 0
-121 -206 -85 -324 0
-121 -206 -85 -84 0
-121 -206 -85 -204 0
-121 -206 -205 -324 0
-121 -206 -205 -84 0
-241 -326 -325 -84 0
-241 -326 -325 -204 0
-241 -326 -85 -324 0
-241 -326 -85 -84 0
-241 -326 -85 -204 0
-241 -326 -205 -324 0
-241 -326 -205 -84 0
-241 -326 -205 -204 0
-241 -86 -325 -84 0
-241 -86 -325 -204 0
-241 -86 -85 -324 0
-241 -86 -85 -84 0
-241 -86 -85 -204 0
-241 -86 -205 -324 0
-241 -86 -205 -84 0
-241 -86 -205 -204 0
-241 -206 -325 -84 0
-241 -206 -325 -204 0
-241 -206 -85 -84 0
-241 -206 -85 -204 0
-342 -332 -88 -327 0
-342 -332 -88 -87 0
-342 -332 -208 -327 0
-342 -332 -208 -87 0
-342 -92 -328 -327 0
-342 -92 -328 -87 0
-342 -92 -328 -207 0
-342 -92 -88 -327 0
-342 -92 -88 -87 0
-342 -92 -88 -207 0
-342 -92 -208 -327 0
-342 -92 -208 -87 0
-342 -212 -328 -327 0
-342 -212 -328 -87 0
-342 -212 -328 -207 0
-342 -212 -88 -327 0
-342 -212 -88 -87 0
-342 -212 -88 -207 0
-342 -212 -208 -327 0
-342 -212 -208 -87 0
-102 -332 -328 -87 0
-102 -332 -328 -207 0
-102 -332 -88 -327 0
-102 -332 -88 -87 0
-102 -332 -88 -207 0
-102 -332 -208 -327 0
-102 -332 -208 -87 0
-102 -332 -208 -207 0
-102 -92 -328 -327 0
-102 -92 -328 -87 0
-102 -92 -328 -207 0
-102 -92 -88 -327 0
-102 -92 -88 -207 0
-102 -92 -208 -327 0
-102 -92 -208 -87 0
-102 -92 -208 -207 0
-102 -212 -328 -327 0
-102 -212 -328 -87 0
-102 -212 -328 -207 0
-102 -212 -88 -327 0
-102 -212 -88 -87 0
-102 -212 -88 -207 0
-102 -212 -208 -327 0
-102 -212 -208 -87 0
-222 -332 -328 -87 0
-222 -332 -328 -207 0
-222 -332 -88 -327 0
-222 -332 -88 -87 0
-222 -332 -88 -207 0
-222 -332 -208 -327 0
-222 -332 -208 -87 0
-222 -332 -208 -207 0
-222 -92 -328 -87 0
-222 -92 -328 -207 0
-222 -92 -88 -327 0
-222 -92 -88 -87 0
-222 -92 -88 -207 0
-222 -92 -208 -327 0
-222 -92 -208 -87 0
-222 -92 -208 -207 0
-222 -212 -328 -87 0
-222 -212 -328 -207 0
-222 -212 -88 -87 0
-222 -212 -88 -207 0
-343 -333 -89 -327 0
-343 -333 -89 -87 0
-343 -333 -209 -327 0
-343 -333 -209 -87 0
-343 -93 -329 -327 0
-343 -93 -329 -87 0
-343 -93 -329 -207 0
-343 -93 -89 -327 0
-343 -93 -89 -87 0
-343 -93 -89 -207 0
-343 -93 -209 -327 0
-343 -93 -209 -87 0
-343 -213 -329 -327 0
-343 -213 -329 -87 0
-343 -213 -329 -207 0
-343 -213 -89 -327 0
-343 -213 -89 -87 0
-343 -213 -89 -207 0
-343 -213 -209 -327 0
-343 -213 -209 -87 0
-103 -333 -329 -87 0
-103 -333 -329 -207 0
-103 -333 -89 -327 0
-103 -333 -89 -87 0
-103 -333 -89 -207 0
-103 -333 -209 -327 0
-103 -333 -209 -87 0
-103 -333 -209 -207 0
-103 -93 -329 -327 0
-103 -93 -329 -87 0
-103 -93 -329 -207 0
-103 -93 -89 -327 0
-103 -93 -89 -207 0
-103 -93 -209 -327 0
-103 -93 -209 -87 0
-103 -93 -209 -207 0
-103 -213 -329 -327 0
-103 -213 -329 -87 0
-103 -213 -329 -207 0
-103 -213 -89 -327 0
-103 -213 -89 -87 0
-103 -213 -89 -207 0
-103 -213 -209 -327 0
-103 -213 -209 -87 0
-223 -333 -329 -87 0
-223 -333 -329 -207 0
-223 -333 -89 -327 0
-223 -333 -89 -87 0
-223 -333 -89 -207 0
-223 -333 -209 -327 0
-223 -333 -209 -87 0
-223 -333 -209 -207 0
-223 -93 -329 -87 0
-223 -93 -329 -207 0
-223 -93 -89 -327 0
-223 -93 -89 -87 0
-223 -93 -89 -207 0
-223 -93 -209 -327 0
-223 -93 -209 -87 0
-223 -93 -209 -207 0
-223 -213 -329 -87 0
-223 -213 -329 -207 0
-223 -213 -89 -87 0
-223 -213 -89 -207 0
-344 -334 -90 -327 0
-344 -334 -90 -87 0
-344 -334 -210 -327 0
-344 -334 -210 -87 0
-344 -94 -330 -327 0
-344 -94 -330 -87 0
-344 -94 -330 -207 0
-344 -94 -90 -327 0
-344 -94 -90 -87 0
-344 -94 -90 -207 0
-344 -94 -210 -327 0
-344 -94 -210 -87 0
-344 -214 -330 -327 0
-344 -214 -330 -87 0
-344 -214 -330 -207 0
-344 -214 -90 -327 0
-344 -214 -90 -87 0
-344 -214 -90 -207 0
-344 -214 -210 -327 0
-344 -214 -210 -87 0
-104 -334 -330 -87 0
-104 -334 -330 -207 0
-104 -334 -90 -327 0
-104 -334 -90 -87 0
-104 -334 -90 -207 0
-104 -334 -210 -327 0
-104 -334 -210 -87 0
-104 -334 -210 -207 0
-104 -94 -330 -327 0
-104 -94 -330 -87 0
-104 -94 -330 -207 0
-104 -94 -90 -327 0
-104 -94 -90 -207 0
-104 -94 -210 -327 0
-104 -94 -210 -87 0
-104 -94 -210 -207 0
-104 -214 -330 -327 0
-104 -214 -330 -87 0
-104 -214 -330 -207 0
-104 -214 -90 -327 0
-104 -214 -90 -87 0
-104 -214 -90 -207 0
-104 -214 -210 -327 0
-104 -214 -210 -87 0
-224 -334 -330 -87 0
-224 -334 -330 -207 0
-224 -334 -90 -327 0
-224 -334 -90 -87 0
-224 -334 -90 -207 0
-224 -334 -210 -327 0
-224 -334 -210 -87 0
-224 -334 -210 -207 0
-224 -94 -330 -87 0
-224 -94 -330 -207 0
-224 -94 -90 -327 0
-224 -94 -90 -87 0
-224 -94 -90 -207 0
-224 -94 -210 -327 0
-224 -94 -210 -87 0
-224 -94 -210 -207 0
-224 -214 -330 -87 0
-224 -214 -330 -207 0
-224 -214 -90 -87 0
-224 -214 -90 -207 0
-345 -335 -91 -327 0
-345 -335 -91 -87 0
-345 -335 -211 -327 0
-345 -335 -211 -87 0
-345 -95 -331 -327 0
-345 -95 -331 -87 0
-345 -95 -331 -207 0
-345 -95 -91 -327 0
-345 -95 -91 -87 0
-345 -95 -91 -207 0
-345 -95 -211 -327 0
-345 -95 -211 -87 0
-345 -215 -331 -327 0
-345 -215 -331 -87 0
-345 -215 -331 -207 0
-345 -215 -91 -327 0
-345 -215 -91 -87 0
-345 -215 -91 -207 0
-345 -215 -211 -327 0
-345 -215 -211 -87 0
-105 -335 -331 -87 0
-105 -335 -331 -207 0
-105 -335 -91 -327 0
-105 -335 -91 -87 0
-105 -335 -91 -207 0
-105 -335 -211 -327 0
-105 -335 -211 -87 0
-105 -335 -211 -207 0
-105 -95 -331 -327 0
-105 -95 -331 -87 0
-105 -95 -331 -207 0
-105 -95 -91 -327 0
-105 -95 -91 -207 0
-105 -95 -211 -327 0
-105 -95 -211 -87 0
-105 -95 -211 -207 0
-105 -215 -331 -327 0
-105 -215 -331 -87 0
-105 -215 -331 -207 0
-105 -215 -91 -327 0
-105 -215 -91 -87 0
-105 -215 -91 -207 0
-105 -215 -211 -327 0
-105 -215 -211 -87 0
-225 -335 -331 -87 0
-225 -335 -331 -207 0
-225 -335 -91 -327 0
-225 -335 -91 -87 0
-225 -335 -91 -207 0
-225 -335 -211 -327 0
-225 -335 -211 -87 0
-225 -335 -211 -207 0
-225 -95 -331 -87 0
-225 -95 -331 -207 0
-225 -95 -91 -327 0
-225 -95 -91 -87 0
-225 -95 -91 -207 0
-225 -95 -211 -327 0
-225 -95 -211 -87 0
-225 -95 -211 -207 0
-225 -215 -331 -87 0
-225 -215 -331 -207 0
-225 -215 -91 -87 0
-225 -215 -91 -207 0
-346 -336 -89 -328 0
-346 -336 -89 -88 0
-346 -336 -209 -328 0
-346 -336 -209 -88 0
-346 -96 -329 -328 0
-346 -96 -329 -88 0
-346 -96 -329 -208 0
-346 -96 -89 -328 0
-346 -96 -89 -88 0
-346 -96 -89 -208 0
-346 -96 -209 -328 0
-346 -96 -209 -88 0
-346 -216 -329 -328 0
-346 -216 -329 -88 0
-346 -216 -329 -208 0
-346 -216 -89 -328 0
-346 -216 -89 -88 0
-346 -216 -89 -208 0
-346 -216 -209 -328 0
-346 -216 -209 -88 0
-106 -336 -329 -88 0
-106 -336 -329 -208 0
-106 -336 -89 -328 0
-106 -336 -89 -88 0
-106 -336 -89 -208 0
-106 -336 -209 -328 0
-106 -336 -209 -88 0
-106 -336 -209 -208 0
-106 -96 -329 -328 0
-106 -96 -329 -88 0
-106 -96 -329 -208 0
-106 -96 -89 -328 0
-106 -96 -89 -208 0
-106 -96 -209 -328 0
-106 -96 -209 -88 0
-106 -96 -209 -208 0
-106 -216 -329 -328 0
-106 -216 -329 -88 0
-106 -216 -329 -208 0
-106 -216 -89 -328 0
-106 -216 -89 -88 0
-106 -216 -89 -208 0
-106 -216 -209 -328 0
-106 -216 -209 -88 0
-226 -336 -329 -88 0
-226 -336 -329 -208 0
-226 -336 -89 -328 0
-226 -336 -89 -88 0
-226 -336 -89 -208 0
-226 -336 -209 -328 0
-226 -336 -209 -88 0
-226 -336 -209 -208 0
-226 -96 -329 -88 0
-226 -96 -329 -208 0
-226 -96 -89 -328 0
-226 -96 -89 -88 0
-226 -96 -89 -208 0
-226 -96 -209 -328 0
-226 -96 -209 -88 0
-226 -96 -209 -208 0
-226 -216 -329 -88 0
-226 -216 -329 -208 0
-226 -216 -89 -88 0
-226 -216 -89 -208 0
-347 -337 -90 -328 0
-347 -337 -90 -88 0
-347 -337 -210 -328 0
-347 -337 -210 -88 0
-347 -97 -330 -328 0
-347 -97 -330 -88 0
-347 -97 -330 -208 0
-347 -97 -90 -328 0
-347 -97 -90 -88 0
-347 -97 -90 -208 0
-347 -97 -210 -328 0
-347 -97 -210 -88 0
-347 -217 -330 -328 0
-347 -217 -330 -88 0
-347 -217 -330 -208 0
-347 -217 -90 -328 0
-347 -217 -90 -88 0
-347 -217 -90 -208 0
-347 -217 -210 -328 0
-347 -217 -210 -88 0
-107 -337 -330 -88 0
-107 -337 -330 -208 0
-107 -337 -90 -328 0
-107 -337 -90 -88 0
-107 -337 -90 -208 0
-107 -337 -210 -328 0
-107 -337 -210 -88 0
-107 -337 -210 -208 0
-107 -97 -330 -328 0
-107 -97 -330 -88 0
-107 -97 -330 -208 0
-107 -97 -90 -328 0
-107 -97 -90 -208 0
-107 -97 -210 -328 0
-107 -97 -210 -88 0
-107 -97 -210 -208 0
-107 -217 -330 -328 0
-107 -217 -330 -88 0
-107 -217 -330 -208 0
-107 -217 -90 -328 0
-107 -217 -90 -88 0
-107 -217 -90 -208 0
-107 -217 -210 -328 0
-107 -217 -210 -88 0
-227 -337 -330 -88 0
-227 -337 -330 -208 0
-227 -337 -90 -328 0
-227 -337 -90 -88 0
-227 -337 -90 -208 0
-227 -337 -210 -328 0
-227 -337 -210 -88 0
-227 -337 -210 -208 0
-227 -97 -330 -88 0
-227 -97 -330 -208 0
-227 -97 -90 -328 0
-227 -97 -90 -88 0
-227 -97 -90 -208 0
-227 -97 -210 -328 0
-227 -97 -210 -88 0
-227 -97 -210 -208 0
-227 -217 -330 -88 0
-227 -217 -330 -208 0
-227 -217 -90 -88 0
-227 -217 -90 -208 0
-348 -338 -91 -328 0
-348 -338 -91 -88 0
-348 -338 -211 -328 0
-348 -338 -211 -88 0
-348 -98 -331 -328 0
-348 -98 -331 -88 0
-348 -98 -331 -208 0
-348 -98 -91 -328 0
-348 -98 -91 -88 0
-348 -98 -91 -208 0
-348 -98 -211 -328 0
-348 -98 -211 -88 0
-348 -218 -331 -328 0
-348 -218 -331 -88 0
-348 -218 -331 -208 0
-348 -218 -91 -328 0
-348 -218 -91 -88 0
-348 -218 -91 -208 0
-348 -218 -211 -328 0
-348 -218 -211 -88 0
-108 -338 -331 -88 0
-108 -338 -331 -208 0
-108 -338 -91 -328 0
-108 -338 -91 -88 0
-108 -338 -91 -208 0
-108 -338 -211 -328 0
-108 -338 -211 -88 0
-108 -338 -211 -208 0
-108 -98 -331 -328 0
-108 -98 -331 -88 0
-108 -98 -331 -208 0
-108 -98 -91 -328 0
-108 -98 -91 -208 0
-108 -98 -211 -328 0
-108 -98 -211 -88 0
-108 -98 -211 -208 0
-108 -218 -331 -328 0
-108 -218 -331 -88 0
-108 -218 -331 -208 0
-108 -218 -91 -328 0
-108 -218 -91 -88 0
-108 -218 -91 -208 0
-108 -218 -211 -328 0
-108 -218 -211 -88 0
-228 -338 -331 -88 0
-228 -338 -331 -208 0
-228 -338 -91 -328 0
-228 -338 -91 -88 0
-228 -338 -91 -208 0
-228 -338 -211 -328 0
-228 -338 -211 -88 0
-228 -338 -211 -208 0
-228 -98 -331 -88 0
-228 -98 -331 -208 0
-228 -98 -91 -328 0
-228 -98 -91 -88 0
-228 -98 -91 -208 0
-228 -98 -211 -328 0
-228 -98 -211 -88 0
-228 -98 -211 -208 0
-228 -218 -331 -88 0
-228 -218 -331 -208 0
-228 -218 -91 -88 0
-228 -218 -91 -208 0
-349 -339 -90 -329 0
-349 -339 -90 -89 0
-349 -339 -210 -329 0
-349 -339 -210 -89 0
-349 -99 -330 -329 0
-349 -99 -330 -89 0
-349 -99 -330 -209 0
-349 -99 -90 -329 0
-349 -99 -90 -89 0
-349 -99 -90 -209 0
-349 -99 -210 -329 0
-349 -99 -210 -89 0
-349 -219 -330 -329 0
-349 -219 -330 -89 0
-349 -219 -330 -209 0
-349 -219 -90 -329 0
-349 -219 -90 -89 0
-349 -219 -90 -209 0
-349 -219 -210 -329 0
-349 -219 -210 -89 0
-109 -339 -330 -89 0
-109 -339 -330 -209 0
-109 -339 -90 -329 0
-109 -339 -90 -89 0
-109 -339 -90 -209 0
-109 -339 -210 -329 0
-109 -339 -210 -89 0
-109 -339 -210 -209 0
-109 -99 -330 -329 0
-109 -99 -330 -89 0
-109 -99 -330 -209 0
-109 -99 -90 -329 0
-109 -99 -90 -209 0
-109 -99 -210 -329 0
-109 -99 -210 -89 0
-109 -99 -210 -209 0
-109 -219 -330 -329 0
-109 -219 -330 -89 0
-109 -219 -330 -209 0
-109 -219 -90 -329 0
-109 -219 -90 -89 0
-109 -219 -90 -209 0
-109 -219 -210 -329 0
-109 -219 -210 -89 0
-229 -339 -330 -89 0
-229 -339 -330 -209 0
-229 -339 -90 -329 0
-229 -339 -90 -89 0
-229 -339 -90 -209 0
-229 -339 -210 -329 0
-229 -339 -210 -89 0
-229 -339 -210 -209 0
-229 -99 -330 -89 0
-229 -99 -330 -209 0
-229 -99 -90 -329 0
-229 -99 -90 -89 0
-229 -99 -90 -209 0
-229 -99 -210 -329 0
-229 -99 -210 -89 0
-229 -99 -210 -209 0
-229 -219 -330 -89 0
-229 -219 -330 -209 0
-229 -219 -90 -89 0
-229 -219 -90 -209 0
-350 -340 -91 -329 0
-350 -340 -91 -89 0
-350 -340 -211 -329 0
-350 -340 -211 -89 0
-350 -100 -331 -329 0
-350 -100 -331 -89 0
-350 -100 -331 -209 0
-350 -100 -91 -329 0
-350 -100 -91 -89 0
-350 -100 -91 -209 0
-350 -100 -211 -329 0
-350 -100 -211 -89 0
-350 -220 -331 -329 0
-350 -220 -331 -89 0
-350 -220 -331 -209 0
-350 -220 -91 -329 0
-350 -220 -91 -89 0
-350 -220 -91 -209 0
-350 -220 -211 -329 0
-350 -220 -211 -89 0
-110 -340 -331 -89 0
-110 -340 -331 -209 0
-110 -340 -91 -329 0
-110 -340 -91 -89 0
-110 -340 -91 -209 0
-110 -340 -211 -329 0
-110 -340 -211 -89 0
-110 -340 -211 -209 0
-110 -100 -331 -329 0
-110 -100 -331 -89 0
-110 -100 -331 -209 0
-110 -100 -91 -329 0
-110 -100 -91 -209 0
-110 -100 -211 -329 0
-110 -100 -211 -89 0
-110 -100 -211 -209 0
-110 -220 -331 -329 0
-110 -220 -331 -89 0
-110 -220 -331 -209 0
-110 -220 -91 -329 0
-110 -220 -91 -89 0
-110 -220 -91 -209 0
-110 -220 -211 -329 0
-110 -220 -211 -89 0
-230 -340 -331 -89 0
-230 -340 -331 -209 0
-230 -340 -91 -329 0
-230 -340 -91 -89 0
-230 -340 -91 -209 0
-230 -340 -211 -329 0
-230 -340 -211 -89 0
-230 -340 -211 -209 0
-230 -100 -331 -89 0
-230 -100 -331 -209 0
-230 -100 -91 -329 0
-230 -100 -91 -89 0
-230 -100 -91 -209 0
-230 -100 -211 -329 0
-230 -100 -211 -89 0
-230 -100 -211 -209 0
-230 -220 -331 -89 0
-230 -220 -331 -209 0
-230 -220 -91 -89 0
-230 -220 -91 -209 0
-351 -341 -91 -330 0
-351 -341 -91 -90 0
-351 -341 -211 -330 0
-351 -341 -211 -90 0
-351 -101 -331 -330 0
-351 -101 -331 -90 0
-351 -101 -331 -210 0
-351 -101 -91 -330 0
-351 -101 -91 -90 0
-351 -101 -91 -210 0
-351 -101 -211 -330 0
-351 -101 -211 -90 0
-351 -221 -331 -330 0
-351 -221 -331 -90 0
-351 -221 -331 -210 0
-351 -221 -91 -330 0
-351 -221 -91 -90 0
-351 -221 -91 -210 0
-351 -221 -211 -330 0
-351 -221 -211 -90 0
-111 -341 -331 -90 0
-111 -341 -331 -210 0
-111 -341 -91 -330 0
-111 -341 -91 -90 0
-111 -341 -91 -210 0
-111 -341 -211 -330 0
-111 -341 -211 -90 0
-111 -341 -211 -210 0
-111 -101 -331 -330 0
-111 -101 -331 -90 0
-111 -101 -331 -210 0
-111 -101 -91 -330 0
-111 -101 -91 -210 0
-111 -101 -211 -330 0
-111 -101 -211 -90 0
-111 -101 -211 -210 0
-111 -221 -331 -330 0
-111 -221 -331 -90 0
-111 -221 -331 -210 0
-111 -221 -91 -330 0
-111 -221 -91 -90 0
-111 -221 -91 -210 0
-111 -221 -211 -330 0
-111 -221 -211 -90 0
-231 -341 -331 -90 0
-231 -341 -331 -210 0
-231 -341 -91 -330 0
-231 -341 -91 -90 0
-231 -341 -91 -210 0
-231 -341 -211 -330 0
-231 -341 -211 -90 0
-231 -341 -211 -210 0
-231 -101 -331 -90 0
-231 -101 -331 -210 0
-231 -101 -91 -330 0
-231 -101 -91 -90 0
-231 -101 -91 -210 0
-231 -101 -211 -330 0
-231 -101 -211 -90 0
-231 -101 -211 -210 0
-231 -221 -331 -90 0
-231 -221 -331 -210 0
-231 -221 -91 -90 0
-231 -221 -91 -210 0
-352 -336 -93 -332 0
-352 -336 -93 -92 0
-352 -336 -213 -332 0
-352 -336 -213 -92 0
-352 -96 -333 -332 0
-352 -96 -333 -92 0
-352 -96 -333 -212 0
-352 -96 -93 -332 0
-352 -96 -93 -92 0
-352 -96 -93 -212 0
-352 -96 -213 -332 0
-352 -96 -213 -92 0
-352 -216 -333 -332 0
-352 -216 -333 -92 0
-352 -216 -333 -212 0
-352 -216 -93 -332 0
-352 -216 -93 -92 0
-352 -216 -93 -212 0
-352 -216 -213 -332 0
-352 -216 -213 -92 0
-112 -336 -333 -92 0
-112 -336 -333 -212 0
-112 -336 -93 -332 0
-112 -336 -93 -92 0
-112 -336 -93 -212 0
-112 -336 -213 -332 0
-112 -336 -213 -92 0
-112 -336 -213 -212 0
-112 -96 -333 -332 0
-112 -96 -333 -92 0
-112 -96 -333 -212 0
-112 -96 -93 -332 0
-112 -96 -93 -212 0
-112 -96 -213 -332 0
-112 -96 -213 -92 0
-112 -96 -213 -212 0
-112 -216 -333 -332 0
-112 -216 -333 -92 0
-112 -216 -333 -212 0
-112 -216 -93 -332 0
-112 -216 -93 -92 0
-112 -216 -93 -212 0
-112 -216 -213 -332 0
-112 -216 -213 -92 0
-232 -336 -333 -92 0
-232 -336 -333 -212 0
-232 -336 -93 -332 0
-232 -336 -93 -92 0
-232 -336 -93 -212 0
-232 -336 -213 -332 0
-232 -336 -213 -92 0
-232 -336 -213 -212 0
-232 -96 -333 -92 0
-232 -96 -333 -212 0
-232 -96 -93 -332 0
-232 -96 -93 -92 0
-232 -96 -93 -212 0
-232 -96 -213 -332 0
-232 -96 -213 -92 0
-232 -96 -213 -212 0
-232 -216 -333 -92 0
-232 -216 -333 -212 0
-232 -216 -93 -92 0
-232 -216 -93 -212 0
-353 -337 -94 -332 0
-353 -337 -94 -92 0
-353 -337 -214 -332 0
-353 -337 -214 -92 0
-353 -97 -334 -332 0
-353 -97 -334 -92 0
-353 -97 -334 -212 0
-353 -97 -94 -332 0
-353 -97 -94 -92 0
-353 -97 -94 -212 0
-353 -97 -214 -332 0
-353 -97 -214 -92 0
-353 -217 -334 -332 0
-353 -217 -334 -92 0
-353 -217 -334 -212 0
-353 -217 -94 -332 0
-353 -217 -94 -92 0
-353 -217 -94 -212 0
-353 -217 -214 -332 0
-353 -217 -214 -92 0
-113 -337 -334 -92 0
-113 -337 -334 -212 0
-113 -337 -94 -332 0
-113 -337 -94 -92 0
-113 -337 -94 -212 0
-113 -337 -214 -332 0
-113 -337 -214 -92 0
-113 -337 -214 -212 0
-113 -97 -334 -332 0
-113 -97 -334 -92 0
-113 -97 -334 -212 0
-113 -97 -94 -332 0
-113 -97 -94 -212 0
-113 -97 -214 -332 0
-113 -97 -214 -92 0
-113 -97 -214 -212 0
-113 -217 -334 -332 0
-113 -217 -334 -92 0
-113 -217 -334 -212 0
-113 -217 -94 -332 0
-113 -217 -94 -92 0
-113 -217 -94 -212 0
-113 -217 -214 -332 0
-113 -217 -214 -92 0
-233 -337 -334 -92 0
-233 -337 -334 -212 0
-233 -337 -94 -332 0
-233 -337 -94 -92 0
-233 -337 -94 -212 0
-233 -337 -214 -332 0
-233 -337 -214 -92 0
-233 -337 -214 -212 0
-233 -97 -334 -92 0
-233 -97 -334 -212 0
-233 -97 -94 -332 0
-233 -97 -94 -92 0
-233 -97 -94 -212 0
-233 -97 -214 -332 0
-233 -97 -214 -92 0
-233 -97 -214 -212 0
-233 -217 -334 -92 0
-233 -217 -334 -212 0
-233 -217 -94 -92 0
-233 -217 -94 -212 0
-354 -338 -95 -332 0
-354 -338 -95 -92 0
-354 -338 -215 -332 0
-354 -338 -215 -92 0
-354 -98 -335 -332 0
-354 -98 -335 -92 0
-354 -98 -335 -212 0
-354 -98 -95 -332 0
-354 -98 -95 -92 0
-354 -98 -95 -212 0
-354 -98 -215 -332 0
-354 -98 -215 -92 0
-354 -218 -335 -332 0
-354 -218 -335 -92 0
-354 -218 -335 -212 0
-354 -218 -95 -332 0
-354 -218 -95 -92 0
-354 -218 -95 -212 0
-354 -218 -215 -332 0
-354 -218 -215 -92 0
-114 -338 -335 -92 0
-114 -338 -335 -212 0
-114 -338 -95 -332 0
-114 -338 -95 -92 0
-114 -338 -95 -212 0
-114 -338 -215 -332 0
-114 -338 -215 -92 0
-114 -338 -215 -212 0
-114 -98 -335 -332 0
-114 -98 -335 -92 0
-114 -98 -335 -212 0
-114 -98 -95 -332 0
-114 -98 -95 -212 0
-114 -98 -215 -332 0
-114 -98 -215 -92 0
-114 -98 -215 -212 0
-114 -218 -335 -332 0
-114 -218 -335 -92 0
-114 -218 -335 -212 0
-114 -218 -95 -332 0
-114 -218 -95 -92 0
-114 -218 -95 -212 0
-114 -218 -215 -332 0
-114 -218 -215 -92 0
-234 -338 -335 -92 0
-234 -338 -335 -212 0
-234 -338 -95 -332 0
-234 -338 -95 -92 0
-234 -338 -95 -212 0
-234 -338 -215 -332 0
-234 -338 -215 -92 0
-234 -338 -215 -212 0
-234 -98 -335 -92 0
-234 -98 -335 -212 0
-234 -98 -95 -332 0
-234 -98 -95 -92 0
-234 -98 -95 -212 0
-234 -98 -215 -332 0
-234 -98 -215 -92 0
-234 -98 -215 -212 0
-234 -218 -335 -92 0
-234 -218 -335 -212 0
-234 -218 -95 -92 0
-234 -218 -95 -212 0
-355 -339 -94 -333 0
-355 -339 -94 -93 0
-355 -339 -214 -333 0
-355 -339 -214 -93 0
-355 -99 -334 -333 0
-355 -99 -334 -93 0
-355 -99 -334 -213 0
-355 -99 -94 -333 0
-355 -99 -94 -93 0
-355 -99 -94 -213 0
-355 -99 -214 -333 0
-355 -99 -214 -93 0
-355 -219 -334 -333 0
-355 -219 -334 -93 0
-355 -219 -334 -213 0
-355 -219 -94 -333 0
-355 -219 -94 -93 0
-355 -219 -94 -213 0
-355 -219 -214 -333 0
-355 -219 -214 -93 0
-115 -339 -334 -93 0
-115 -339 -334 -213 0
-115 -339 -94 -333 0
-115 -339 -94 -93 0
-115 -339 -94 -213 0
-115 -339 -214 -333 0
-115 -339 -214 -93 0
-115 -339 -214 -213 0
-115 -99 -334 -333 0
-115 -99 -334 -93 0
-115 -99 -334 -213 0
-115 -99 -94 -333 0
-115 -99 -94 -213 0
-115 -99 -214 -333 0
-115 -99 -214 -93 0
-115 -99 -214 -213 0
-115 -219 -334 -333 0
-115 -219 -334 -93 0
-115 -219 -334 -213 0
-115 -219 -94 -333 0
-115 -219 -94 -93 0
-115 -219 -94 -213 0
-115 -219 -214 -333 0
-115 -219 -214 -93 0
-235 -339 -334 -93 0
-235 -339 -334 -213 0
-235 -339 -94 -333 0
-235 -339 -94 -93 0
-235 -339 -94 -213 0
-235 -339 -214 -333 0
-235 -339 -214 -93 0
-235 -339 -214 -213 0
-235 -99 -334 -93 0
-235 -99 -334 -213 0
-235 -99 -94 -333 0
-235 -99 -94 -93 0
-235 -99 -94 -213 0
-235 -99 -214 -333 0
-235 -99 -214 -93 0
-235 -99 -214 -213 0
-235 -219 -334 -93 0
-235 -219 -334 -213 0
-235 -219 -94 -93 0
-235 -219 -94 -213 0
-356 -340 -95 -333 0
-356 -340 -95 -93 0
-356 -340 -215 -333 0
-356 -340 -215 -93 0
-356 -100 -335 -333 0
-356 -100 -335 -93 0
-356 -100 -335 -213 0
-356 -100 -95 -333 0
-356 -100 -95 -93 0
-356 -100 -95 -213 0
-356 -100 -215 -333 0
-356 -100 -215 -93 0
-356 -220 -335 -333 0
-356 -220 -335 -93 0
-356 -220 -335 -213 0
-356 -220 -95 -333 0
-356 -220 -95 -93 0
-356 -220 -95 -213 0
-356 -220 -215 -333 0
-356 -220 -215 -93 0
-116 -340 -335 -93 0
-116 -340 -335 -213 0
-116 -340 -95 -333 0
-116 -340 -95 -93 0
-116 -340 -95 -213 0
-116 -340 -215 -333 0
-116 -340 -215 -93 0
-116 -340 -215 -213 0
-116 -100 -335 -333 0
-116 -100 -335 -93 0
-116 -100 -335 -213 0
-116 -100 -95 -333 0
-116 -100 -95 -213 0
-116 -100 -215 -333 0
-116 -100 -215 -93 0
-116 -100 -215 -213 0
-116 -220 -335 -333 0
-116 -220 -335 -93 0
-116 -220 -335 -213 0
-116 -220 -95 -333 0
-116 -220 -95 -93 0
-116 -220 -95 -213 0
-116 -220 -215 -333 0
-116 -220 -215 -93 0
-236 -340 -335 -93 0
-236 -340 -335 -213 0
-236 -340 -95 -333 0
-236 -340 -95 -93 0
-236 -340 -95 -213 0
-236 -340 -215 -333 0
-236 -340 -215 -93 0
-236 -340 -215 -213 0
-236 -100 -335 -93 0
-236 -100 -335 -213 0
-236 -100 -95 -333 0
-236 -100 -95 -93 0
-236 -100 -95 -213 0
-236 -100 -215 -333 0
-236 -100 -215 -93 0
-236 -100 -215 -213 0
-236 -220 -335 -93 0
-236 -220 -335 -213 0
-236 -220 -95 -93 0
-236 -220 -95 -213 0
-357 -341 -95 -334 0
-357 -341 -95 -94 0
-357 -341 -215 -334 0
-357 -341 -215 -94 0
-357 -101 -335 -334 0
-357 -101 -335 -94 0
-357 -101 -335 -214 0
-357 -101 -95 -334 0
-357 -101 -95 -94 0
-357 -101 -95 -214 0
-357 -101 -215 -334 0
-357 -101 -215 -94 0
-357 -221 -335 -334 0
-357 -221 -335 -94 0
-357 -221 -335 -214 0
-357 -221 -95 -334 0
-357 -221 -95 -94 0
-357 -221 -95 -214 0
-357 -221 -215 -334 0
-357 -221 -215 -94 0
-117 -341 -335 -94 0
-117 -341 -335 -214 0
-117 -341 -95 -334 0
-117 -341 -95 -94 0
-117 -341 -95 -214 0
-117 -341 -215 -334 0
-117 -341 -215 -94 0
-117 -341 -215 -214 0
-117 -101 -335 -334 0
-117 -101 -335 -94 0
-117 -101 -335 -214 0
-117 -101 -95 -334 0
-117 -101 -95 -214 0
-117 -101 -215 -334 0
-117 -101 -215 -94 0
-117 -101 -215 -214 0
-117 -221 -335 -334 0
-117 -221 -335 -94 0
-117 -221 -335 -214 0
-117 -221 -95 -334 0
-117 -221 -95 -94 0
-117 -221 -95 -214 0
-117 -221 -215 -334 0
-117 -221 -215 -94 0
-237 -341 -335 -94 0
-237 -341 -335 -214 0
-237 -341 -95 -334 0
-237 -341 -95 -94 0
-237 -341 -95 -214 0
-237 -341 -215 -334 0
-237 -341 -215 -94 0
-237 -341 -215 -214 0
-237 -101 -335 -94 0
-237 -101 -335 -214 0
-237 -101 -95 -334 0
-237 -101 -95 -94 0
-237 -101 -95 -214 0
-237 -101 -215 -334 0
-237 -101 -215 -94 0
-237 -101 -215 -214 0
-237 -221 -335 -94 0
-237 -221 -335 -214 0
-237 -221 -95 -94 0
-237 -221 -95 -214 0
-358 -339 -97 -336 0
-358 -339 -97 -96 0
-358 -339 -217 -336 0
-358 -339 -217 -96 0
-358 -99 -337 -336 0
-358 -99 -337 -96 0
-358 -99 -337 -216 0
-358 -99 -97 -336 0
-358 -99 -97 -96 0
-358 -99 -97 -216 0
-358 -99 -217 -336 0
-358 -99 -217 -96 0
-358 -219 -337 -336 0
-358 -219 -337 -96 0
-358 -219 -337 -216 0
-358 -219 -97 -336 0
-358 -219 -97 -96 0
-358 -219 -97 -216 0
-358 -219 -217 -336 0
-358 -219 -217 -96 0
-118 -339 -337 -96 0
-118 -339 -337 -216 0
-118 -339 -97 -336 0
-118 -339 -97 -96 0
-118 -339 -97 -216 0
-118 -339 -217 -336 0
-118 -339 -217 -96 0
-118 -339 -217 -216 0
-118 -99 -337 -336 0
-118 -99 -337 -96 0
-118 -99 -337 -216 0
-118 -99 -97 -336 0
-118 -99 -97 -216 0
-118 -99 -217 -336 0
-118 -99 -217 -96 0
-118 -99 -217 -216 0
-118 -219 -337 -336 0
-118 -219 -337 -96 0
-118 -219 -337 -216 0
-118 -219 -97 -336 0
-118 -219 -97 -96 0
-118 -219 -97 -216 0
-118 -219 -217 -336 0
-118 -219 -217 -96 0
-238 -339 -337 -96 0
-238 -339 -337 -216 0
-238 -339 -97 -336 0
-238 -339 -97 -96 0
-238 -339 -97 -216 0
-238 -339 -217 -336 0
-238 -339 -217 -96 0
-238 -339 -217 -216 0
-238 -99 -337 -96 0
-238 -99 -337 -216 0
-238 -99 -97 -336 0
-238 -99 -97 -96 0
-238 -99 -97 -216 0
-238 -99 -217 -336 0
-238 -99 -217 -96 0
-238 -99 -217 -216 0
-238 -219 -337 -96 0
-238 -219 -337 -216 0
-238 -219 -97 -96 0
-238 -219 -97 -216 0
-359 -340 -98 -336 0
-359 -340 -98 -96 0
-359 -340 -218 -336 0
-359 -340 -218 -96 0
-359 -100 -338 -336 0
-359 -100 -338 -96 0
-359 -100 -338 -216 0
-359 -100 -98 -336 0
-359 -100 -98 -96 0
-359 -100 -98 -216 0
-359 -100 -218 -336 0
-359 -100 -218 -96 0
-359 -220 -338 -336 0
-359 -220 -338 -96 0
-359 -220 -338 -216 0
-359 -220 -98 -336 0
-359 -220 -98 -96 0
-359 -220 -98 -216 0
-359 -220 -218 -336 0
-359 -220 -218 -96 0
-119 -340 -338 -96 0
-119 -340 -338 -216 0
-119 -340 -98 -336 0
-119 -340 -98 -96 0
-119 -340 -98 -216 0
-119 -340 -218 -336 0
-119 -340 -218 -96 0
-119 -340 -218 -216 0
-119 -100 -338 -336 0
-119 -100 -338 -96 0
-119 -100 -338 -216 0
-119 -100 -98 -336 0
-119 -100 -98 -216 0
-119 -100 -218 -336 0
-119 -100 -218 -96 0
-119 -100 -218 -216 0
-119 -220 -338 -336 0
-119 -220 -338 -96 0
-119 -220 -338 -216 0
-119 -220 -98 -336 0
-119 -220 -98 -96 0
-119 -220 -98 -216 0
-119 -220 -218 -336 0
-119 -220 -218 -96 0
-239 -340 -338 -96 0
-239 -340 -338 -216 0
-239 -340 -98 -336 0
-239 -340 -98 -96 0
-239 -340 -98 -216 0
-239 -340 -218 -336 0
-239 -340 -218 -96 0
-239 -340 -218 -216 0
-239 -100 -338 -96 0
-239 -100 -338 -216 0
-239 -100 -98 -336 0
-239 -100 -98 -96 0
-239 -100 -98 -216 0
-239 -100 -218 -336 0
-239 -100 -218 -96 0
-239 -100 -218 -216 0
-239 -220 -338 -96 0
-239 -220 -338 -216 0
-239 -220 -98 -96 0
-239 -220 -98 -216 0
-360 -341 -98 -337 0
-360 -341 -98 -97 0
-360 -341 -218 -337 0
-360 -341 -218 -97 0
-360 -101 -338 -337 0
-360 -101 -338 -97 0
-360 -101 -338 -217 0
-360 -101 -98 -337 0
-360 -101 -98 -97 0
-360 -101 -98 -217 0
-360 -101 -218 -337 0
-360 -101 -218 -97 0
-360 -221 -338 -337 0
-360 -221 -338 -97 0
-360 -221 -338 -217 0
-360 -221 -98 -337 0
-360 -221 -98 -97 0
-360 -221 -98 -217 0
-360 -221 -218 -337 0
-360 -221 -218 -97 0
-120 -341 -338 -97 0
-120 -341 -338 -217 0
-120 -341 -98 -337 0
-120 -341 -98 -97 0
-120 -341 -98 -217 0
-120 -341 -218 -337 0
-120 -341 -218 -97 0
-120 -341 -218 -217 0
-120 -101 -338 -337 0
-120 -101 -338 -97 0
-120 -101 -338 -217 0
-120 -101 -98 -337 0
-120 -101 -98 -217 0
-120 -101 -218 -337 0
-120 -101 -218 -97 0
-120 -101 -218 -217 0
-120 -221 -338 -337 0
-120 -221 -338 -97 0
-120 -221 -338 -217 0
-120 -221 -98 -337 0
-120 -221 -98 -97 0
-120 -221 -98 -217 0
-120 -221 -218 -337 0
-120 -221 -218 -97 0
-240 -341 -338 -97 0
-240 -341 -338 -217 0
-240 -341 -98 -337 0
-240 -341 -98 -97 0
-240 -341 -98 -217 0
-240 -341 -218 -337 0
-240 -341 -218 -97 0
-240 -341 -218 -217 0
-240 -101 -338 -97 0
-240 -101 -338 -217 0
-240 -101 -98 -337 0
-240 -101 -98 -97 0
-240 -101 -98 -217 0
-240 -101 -218 -337 0
-240 -101 -218 -97 0
-240 -101 -218 -217 0
-240 -221 -338 -97 0
-240 -221 -338 -217 0
-240 -221 -98 -97 0
-240 -221 -98 -217 0
-361 -341 -100 -339 0
-361 -341 -100 -99 0
-361 -341 -220 -339 0
-361 -341 -220 -99 0
-361 -101 -340 -339 0
-361 -101 -340 -99 0
-361 -101 -340 -219 0
-361 -101 -100 -339 0
-361 -101 -100 -99 0
-361 -101 -100 -219 0
-361 -101 -220 -339 0
-361 -101 -220 -99 0
-361 -221 -340 -339 0
-361 -221 -340 -99 0
-361 -221 -340 -219 0
-361 -221 -100 -339 0
-361 -221 -100 -99 0
-361 -221 -100 -219 0
-361 -221 -220 -339 0
-361 -221 -220 -99 0
-121 -341 -340 -99 0
-121 -341 -340 -219 0
-121 -341 -100 -339 0
-121 -341 -100 -99 0
-121 -341 -100 -219 0
-121 -341 -220 -339 0
-121 -341 -220 -99 0
-121 -341 -220 -219 0
-121 -101 -340 -339 0
-121 -101 -340 -99 0
-121 -101 -340 -219 0
-121 -101 -100 -339 0
-121 -101 -100 -219 0
-121 -101 -220 -339 0
-121 -101 -220 -99 0
-121 -101 -220 -219 0
-121 -221 -340 -339 0
-121 -221 -340 -99 0
-121 -221 -340 -219 0
-121 -221 -100 -339 0
-121 -221 -100 -99 0
-121 -221 -100 -219 0
-121 -221 -220 -339 0
-121 -221 -220 -99 0
-241 -341 -340 -99 0
-241 -341 -340 -219 0
-241 -341 -100 -339 0
-241 -341 -100 -99 0
-241 -341 -100 -219 0
-241 -341 -220 -339 0
-241 -341 -220 -99 0
-241 -341 -220 -219 0
-241 -101 -340 -99 0
-241 -101 -340 -219 0
-241 -101 -100 -339 0
-241 -101 -100 -99 0
-241 -101 -100 -219 0
-241 -101 -220 -339 0
-241 -101 -220 -99 0
-241 -101 -220 -219 0
-241 -221 -340 -99 0
-241 -221 -340 -219 0
-241 -221 -100 -99 0
-241 -221 -100 -219 0
-352 -346 -103 -342 0
-352 -346 -103 -102 0
-352 -346 -223 -342 0
-352 -346 -223 -102 0
-352 -106 -343 -342 0
-352 -106 -343 -102 0
-352 -106 -343 -222 0
-352 -106 -103 -342 0
-352 -106 -103 -102 0
-352 -106 -103 -222 0
-352 -106 -223 -342 0
-352 -106 -223 -102 0
-352 -226 -343 -342 0
-352 -226 -343 -102 0
-352 -226 -343 -222 0
-352 -226 -103 -342 0
-352 -226 -103 -102 0
-352 -226 -103 -222 0
-352 -226 -223 -342 0
-352 -226 -223 -102 0
-112 -346 -343 -102 0
-112 -346 -343 -222 0
-112 -346 -103 -342 0
-112 -346 -103 -102 0
-112 -346 -103 -222 0
-112 -346 -223 -342 0
-112 -346 -223 -102 0
-112 -346 -223 -222 0
-112 -106 -343 -342 0
-112 -106 -343 -102 0
-112 -106 -343 -222 0
-112 -106 -103 -342 0
-112 -106 -103 -222 0
-112 -106 -223 -342 0
-112 -106 -223 -102 0
-112 -106 -223 -222 0
-112 -226 -343 -342 0
-112 -226 -343 -102 0
-112 -226 -343 -222 0
-112 -226 -103 -342 0
-112 -226 -103 -102 0
-112 -226 -103 -222 0
-112 -226 -223 -342 0
-112 -226 -223 -102 0
-232 -346 -343 -102 0
-232 -346 -343 -222 0
-232 -346 -103 -342 0
-232 -346 -103 -102 0
-232 -346 -103 -222 0
-232 -346 -223 -342 0
-232 -346 -223 -102 0
-232 -346 -223 -222 0
-232 -106 -343 -102 0
-232 -106 -343 -222 0
-232 -106 -103 -342 0
-232 -106 -103 -102 0
-232 -106 -103 -222 0
-232 -106 -223 -342 0
-232 -106 -223 -102 0
-232 -106 -223 -222 0
-232 -226 -343 -102 0
-232 -226 -343 -222 0
-232 -226 -103 -102 0
-232 -226 -103 -222 0
-353 -347 -104 -342 0
-353 -347 -104 -102 0
-353 -347 -224 -342 0
-353 -347 -224 -102 0
-353 -107 -344 -342 0
-353 -107 -344 -102 0
-353 -107 -344 -222 0
-353 -107 -104 -342 0
-353 -107 -104 -102 0
-353 -107 -104 -222 0
-353 -107 -224 -342 0
-353 -107 -224 -102 0
-353 -227 -344 -342 0
-353 -227 -344 -102 0
-353 -227 -344 -222 0
-353 -227 -104 -342 0
-353 -227 -104 -102 0
-353 -227 -104 -222 0
-353 -227 -224 -342 0
-353 -227 -224 -102 0
-113 -347 -344 -102 0
-113 -347 -344 -222 0
-113 -347 -104 -342 0
-113 -347 -104 -102 0
-113 -347 -104 -222 0
-113 -347 -224 -342 0
-113 -347 -224 -102 0
-113 -347 -224 -222 0
-113 -107 -344 -342 0
-113 -107 -344 -102 0
-113 -107 -344 -222 0
-113 -107 -104 -342 0
-113 -107 -104 -222 0
-113 -107 -224 -342 0
-113 -107 -224 -102 0
-113 -107 -224 -222 0
-113 -227 -344 -342 0
-113 -227 -344 -102 0
-113 -227 -344 -222 0
-113 -227 -104 -342 0
-113 -227 -104 -102 0
-113 -227 -104 -222 0
-113 -227 -224 -342 0
-113 -227 -224 -102 0
-233 -347 -344 -102 0
-233 -347 -344 -222 0
-233 -347 -104 -342 0
-233 -347 -104 -102 0
-233 -347 -104 -222 0
-233 -347 -224 -342 0
-233 -347 -224 -102 0
-233 -347 -224 -222 0
-233 -107 -344 -102 0
-233 -107 -344 -222 0
-233 -107 -104 -342 0
-233 -107 -104 -102 0
-233 -107 -104 -222 0
-233 -107 -224 -342 0
-233 -107 -224 -102 0
-233 -107 -224 -222 0
-233 -227 -344 -102 0
-233 -227 -344 -222 0
-233 -227 -104 -102 0
-233 -227 -104 -222 0
-354 -348 -105 -342 0
-354 -348 -105 -102 0
-354 -348 -225 -342 0
-354 -348 -225 -102 0
-354 -108 -345 -342 0
-354 -108 -345 -102 0
-354 -108 -345 -222 0
-354 -108 -105 -342 0
-354 -108 -105 -102 0
-354 -108 -105 -222 0
-354 -108 -225 -342 0
-354 -108 -225 -102 0
-354 -228 -345 -342 0
-354 -228 -345 -102 0
-354 -228 -345 -222 0
-354 -228 -105 -342 0
-354 -228 -105 -102 0
-354 -228 -105 -222 0
-354 -228 -225 -342 0
-354 -228 -225 -102 0
-114 -348 -345 -102 0
-114 -348 -345 -222 0
-114 -348 -105 -342 0
-114 -348 -105 -102 0
-114 -348 -105 -222 0
-114 -348 -225 -342 0
-114 -348 -225 -102 0
-114 -348 -225 -222 0
-114 -108 -345 -342 0
-114 -108 -345 -102 0
-114 -108 -345 -222 0
-114 -108 -105 -342 0
-114 -108 -105 -222 0
-114 -108 -225 -342 0
-114 -108 -225 -102 0
-114 -108 -225 -222 0
-114 -228 -345 -342 0
-114 -228 -345 -102 0
-114 -228 -345 -222 0
-114 -228 -105 -342 0
-114 -228 -105 -102 0
-114 -228 -105 -222 0
-114 -228 -225 -342 0
-114 -228 -225 -102 0
-234 -348 -345 -102 0
-234 -348 -345 -222 0
-234 -348 -105 -342 0
-234 -348 -105 -102 0
-234 -348 -105 -222 0
-234 -348 -225 -342 0
-234 -348 -225 -102 0
-234 -348 -225 -222 0
-234 -108 -345 -102 0
-234 -108 -345 -222 0
-234 -108 -105 -342 0
-234 -108 -105 -102 0
-234 -108 -105 -222 0
-234 -108 -225 -342 0
-234 -108 -225 -102 0
-234 -108 -225 -222 0
-234 -228 -345 -102 0
-234 -228 -345 -222 0
-234 -228 -105 -102 0
-234 -228 -105 -222 0
-355 -349 -104 -343 0
-355 -349 -104 -103 0
-355 -349 -224 -343 0
-355 -349 -224 -103 0
-355 -109 -344 -343 0
-355 -109 -344 -103 0
-355 -109 -344 -223 0
-355 -109 -104 -343 0
-355 -109 -104 -103 0
-355 -109 -104 -223 0
-355 -109 -224 -343 0
-355 -109 -224 -103 0
-355 -229 -344 -343 0
-355 -229 -344 -103 0
-355 -229 -344 -223 0
-355 -229 -104 -343 0
-355 -229 -104 -103 0
-355 -229 -104 -223 0
-355 -229 -224 -343 0
-355 -229 -224 -103 0
-115 -349 -344 -103 0
-115 -349 -344 -223 0
-115 -349 -104 -343 0
-115 -349 -104 -103 0
-115 -349 -104 -223 0
-115 -349 -224 -343 0
-115 -349 -224 -103 0
-115 -349 -224 -223 0
-115 -109 -344 -343 0
-115 -109 -344 -103 0
-115 -109 -344 -223 0
-115 -109 -104 -343 0
-115 -109 -104 -223 0
-115 -109 -224 -343 0
-115 -109 -224 -103 0
-115 -109 -224 -223 0
-115 -229 -344 -343 0
-115 -229 -344 -103 0
-115 -229 -344 -223 0
-115 -229 -104 -343 0
-115 -229 -104 -103 0
-115 -229 -104 -223 0
-115 -229 -224 -343 0
-115 -229 -224 -103 0
-235 -349 -344 -103 0
-235 -349 -344 -223 0
-235 -349 -104 -343 0
-235 -349 -104 -103 0
-235 -349 -104 -223 0
-235 -349 -224 -343 0
-235 -349 -224 -103 0
-235 -349 -224 -223 0
-235 -109 -344 -103 0
-235 -109 -344 -223 0
-235 -109 -104 -343 0
-235 -109 -104 -103 0
-235 -109 -104 -223 0
-235 -109 -224 -343 0
-235 -109 -224 -103 0
-235 -109 -224 -223 0
-235 -229 -344 -103 0
-235 -229 -344 -223 0
-235 -229 -104 -103 0
-235 -229 -104 -223 0
-356 -350 -105 -343 0
-356 -350 -105 -103 0
-356 -350 -225 -343 0
-356 -350 -225 -103 0
-356 -110 -345 -343 0
-356 -110 -345 -103 0
-356 -110 -345 -223 0
-356 -110 -105 -343 0
-356 -110 -105 -103 0
-356 -110 -105 -223 0
-356 -110 -225 -343 0
-356 -110 -225 -103 0
-356 -230 -345 -343 0
-356 -230 -345 -103 0
-356 -230 -345 -223 0
-356 -230 -105 -343 0
-356 -230 -105 -103 0
-356 -230 -105 -223 0
-356 -230 -225 -343 0
-356 -230 -225 -103 0
-116 -350 -345 -103 0
-116 -350 -345 -223 0
-116 -350 -105 -343 0
-116 -350 -105 -103 0
-116 -350 -105 -223 0
-116 -350 -225 -343 0
-116 -350 -225 -103 0
-116 -350 -225 -223 0
-116 -110 -345 -343 0
-116 -110 -345 -103 0
-116 -110 -345 -223 0
-116 -110 -105 -343 0
-116 -110 -105 -223 0
-116 -110 -225 -343 0
-116 -110 -225 -103 0
-116 -110 -225 -223 0
-116 -230 -345 -343 0
-116 -230 -345 -103 0
-116 -230 -345 -223 0
-116 -230 -105 -343 0
-116 -230 -105 -103 0
-116 -230 -105 -223 0
-116 -230 -225 -343 0
-116 -230 -225 -103 0
-236 -350 -345 -103 0
-236 -350 -345 -223 0
-236 -350 -105 -343 0
-236 -350 -105 -103 0
-236 -350 -105 -223 0
-236 -350 -225 -343 0
-236 -350 -225 -103 0
-236 -350 -225 -223 0
-236 -110 -345 -103 0
-236 -110 -345 -223 0
-236 -110 -105 -343 0
-236 -110 -105 -103 0
-236 -110 -105 -223 0
-236 -110 -225 -343 0
-236 -110 -225 -103 0
-236 -110 -225 -223 0
-236 -230 -345 -103 0
-236 -230 -345 -223 0
-236 -230 -105 -103 0
-236 -230 -105 -223 0
-357 -351 -105 -344 0
-357 -351 -105 -104 0
-357 -351 -225 -344 0
-357 -351 -225 -104 0
-357 -111 -345 -344 0
-357 -111 -345 -104 0
-357 -111 -345 -224 0
-357 -111 -105 -344 0
-357 -111 -105 -104 0
-357 -111 -105 -224 0
-357 -111 -225 -344 0
-357 -111 -225 -104 0
-357 -231 -345 -344 0
-357 -231 -345 -104 0
-357 -231 -345 -224 0
-357 -231 -105 -344 0
-357 -231 -105 -104 0
-357 -231 -105 -224 0
-357 -231 -225 -344 0
-357 -231 -225 -104 0
-117 -351 -345 -104 0
-117 -351 -345 -224 0
-117 -351 -105 -344 0
-117 -351 -105 -104 0
-117 -351 -105 -224 0
-117 -351 -225 -344 0
-117 -351 -225 -104 0
-117 -351 -225 -224 0
-117 -111 -345 -344 0
-117 -111 -345 -104 0
-117 -111 -345 -224 0
-117 -111 -105 -344 0
-117 -111 -105 -224 0
-117 -111 -225 -344 0
-117 -111 -225 -104 0
-117 -111 -225 -224 0
-117 -231 -345 -344 0
-117 -231 -345 -104 0
-117 -231 -345 -224 0
-117 -231 -105 -344 0
-117 -231 -105 -104 0
-117 -231 -105 -224 0
-117 -231 -225 -344 0
-117 -231 -225 -104 0
-237 -351 -345 -104 0
-237 -351 -345 -224 0
-237 -351 -105 -344 0
-237 -351 -105 -104 0
-237 -351 -105 -224 0
-237 -351 -225 -344 0
-237 -351 -225 -104 0
-237 -351 -225 -224 0
-237 -111 -345 -104 0
-237 -111 -345 -224 0
-237 -111 -105 -344 0
-237 -111 -105 -104 0
-237 -111 -105 -224 0
-237 -111 -225 -344 0
-237 -111 -225 -104 0
-237 -111 -225 -224 0
-237 -231 -345 -104 0
-237 -231 -345 -224 0
-237 -231 -105 -104 0
-237 -231 -105 -224 0
-358 -349 -107 -346 0
-358 -349 -107 -106 0
-358 -349 -227 -346 0
-358 -349 -227 -106 0
-358 -109 -347 -346 0
-358 -109 -347 -106 0
-358 -109 -347 -226 0
-358 -109 -107 -346 0
-358 -109 -107 -106 0
-358 -109 -107 -226 0
-358 -109 -227 -346 0
-358 -109 -227 -106 0
-358 -229 -347 -346 0
-358 -229 -347 -106 0
-358 -229 -347 -226 0
-358 -229 -107 -346 0
-358 -229 -107 -106 0
-358 -229 -107 -226 0
-358 -229 -227 -346 0
-358 -229 -227 -106 0
-118 -349 -347 -106 0
-118 -349 -347 -226 0
-118 -349 -107 -346 0
-118 -349 -107 -106 0
-118 -349 -107 -226 0
-118 -349 -227 -346 0
-118 -349 -227 -106 0
-118 -349 -227 -226 0
-118 -109 -347 -346 0
-118 -109 -347 -106 0
-118 -109 -347 -226 0
-118 -109 -107 -346 0
-118 -109 -107 -226 0
-118 -109 -227 -346 0
-118 -109 -227 -106 0
-118 -109 -227 -226 0
-118 -229 -347 -346 0
-118 -229 -347 -106 0
-118 -229 -347 -226 0
-118 -229 -107 -346 0
-118 -229 -107 -106 0
-118 -229 -107 -226 0
-118 -229 -227 -346 0
-118 -229 -227 -106 0
-238 -349 -347 -106 0
-238 -349 -347 -226 0
-238 -349 -107 -346 0
-238 -349 -107 -106 0
-238 -349 -107 -226 0
-238 -349 -227 -346 0
-238 -349 -227 -106 0
-238 -349 -227 -226 0
-238 -109 -347 -106 0
-238 -109 -347 -226 0
-238 -109 -107 -346 0
-238 -109 -107 -106 0
-238 -109 -107 -226 0
-238 -109 -227 -346 0
-238 -109 -227 -106 0
-238 -109 -227 -226 0
-238 -229 -347 -106 0
-238 -229 -347 -226 0
-238 -229 -107 -106 0
-238 -229 -107 -226 0
-359 -350 -108 -346 0
-359 -350 -108 -106 0
-359 -350 -228 -346 0
-359 -350 -228 -106 0
-359 -110 -348 -346 0
-359 -110 -348 -106 0
-359 -110 -348 -226 0
-359 -110 -108 -346 0
-359 -110 -108 -106 0
-359 -110 -108 -226 0
-359 -110 -228 -346 0
-359 -110 -228 -106 0
-359 -230 -348 -346 0
-359 -230 -348 -106 0
-359 -230 -348 -226 0
-359 -230 -108 -346 0
-359 -230 -108 -106 0
-359 -230 -108 -226 0
-359 -230 -228 -346 0
-359 -230 -228 -106 0
-119 -350 -348 -106 0
-119 -350 -348 -226 0
-119 -350 -108 -346 0
-119 -350 -108 -106 0
-119 -350 -108 -226 0
-119 -350 -228 -346 0
-119 -350 -228 -106 0
-119 -350 -228 -226 0
-119 -110 -348 -346 0
-119 -110 -348 -106 0
-119 -110 -348 -226 0
-119 -110 -108 -346 0
-119 -110 -108 -226 0
-119 -110 -228 -346 0
-119 -110 -228 -106 0
-119 -110 -228 -226 0
-119 -230 -348 -346 0
-119 -230 -348 -106 0
-119 -230 -348 -226 0
-119 -230 -108 -346 0
-119 -230 -108 -106 0
-119 -230 -108 -226 0
-119 -230 -228 -346 0
-119 -230 -228 -106 0
-239 -350 -348 -106 0
-239 -350 -348 -226 0
-239 -350 -108 -346 0
-239 -350 -108 -106 0
-239 -350 -108 -226 0
-239 -350 -228 -346 0
-239 -350 -228 -106 0
-239 -350 -228 -226 0
-239 -110 -348 -106 0
-239 -110 -348 -226 0
-239 -110 -108 -346 0
-239 -110 -108 -106 0
-239 -110 -108 -226 0
-239 -110 -228 -346 0
-239 -110 -228 -106 0
-239 -110 -228 -226 0
-239 -230 -348 -106 0
-239 -230 -348 -226 0
-239 -230 -108 -106 0
-239 -230 -108 -226 0
-360 -351 -108 -347 0
-360 -351 -108 -107 0
-360 -351 -228 -347 0
-360 -351 -228 -107 0
-360 -111 -348 -347 0
-360 -111 -348 -107 0
-360 -111 -348 -227 0
-360 -111 -108 -347 0
-360 -111 -108 -107 0
-360 -111 -108 -227 0
-360 -111 -228 -347 0
-360 -111 -228 -107 0
-360 -231 -348 -347 0
-360 -231 -348 -107 0
-360 -231 -348 -227 0
-360 -231 -108 -347 0
-360 -231 -108 -107 0
-360 -231 -108 -227 0
-360 -231 -228 -347 0
-360 -231 -228 -107 0
-120 -351 -348 -107 0
-120 -351 -348 -227 0
-120 -351 -108 -347 0
-120 -351 -108 -107 0
-120 -351 -108 -227 0
-120 -351 -228 -347 0
-120 -351 -228 -107 0
-120 -351 -228 -227 0
-120 -111 -348 -347 0
-120 -111 -348 -107 0
-120 -111 -348 -227 0
-120 -111 -108 -347 0
-120 -111 -108 -227 0
-120 -111 -228 -347 0
-120 -111 -228 -107 0
-120 -111 -228 -227 0
-120 -231 -348 -347 0
-120 -231 -348 -107 0
-120 -231 -348 -227 0
-120 -231 -108 -347 0
-120 -231 -108 -107 0
-120 -231 -108 -227 0
-120 -231 -228 -347 0
-120 -231 -228 -107 0
-240 -351 -348 -107 0
-240 -351 -348 -227 0
-240 -351 -108 -347 0
-240 -351 -108 -107 0
-240 -351 -108 -227 0
-240 -351 -228 -347 0
-240 -351 -228 -107 0
-240 -351 -228 -227 0
-240 -111 -348 -107 0
-240 -111 -348 -227 0
-240 -111 -108 -347 0
-240 -111 -108 -107 0
-240 -111 -108 -227 0
-240 -111 -228 -347 0
-240 -111 -228 -107 0
-240 -111 -228 -227 0
-240 -231 -348 -107 0
-240 -231 -348 -227 0
-240 -231 -108 -107 0
-240 -231 -108 -227 0
-361 -351 -110 -349 0
-361 -351 -110 -109 0
-361 -351 -230 -349 0
-361 -351 -230 -109 0
-361 -111 -350 -349 0
-361 -111 -350 -109 0
-361 -111 -350 -229 0
-361 -111 -110 -349 0
-361 -111 -110 -109 0
-361 -111 -110 -229 0
-361 -111 -230 -349 0
-361 -111 -230 -109 0
-361 -231 -350 -349 0
-361 -231 -350 -109 0
-361 -231 -350 -229 0
-361 -231 -110 -349 0
-361 -231 -110 -109 0
-361 -231 -110 -229 0
-361 -231 -230 -349 0
-361 -231 -230 -109 0
-121 -351 -350 -109 0
-121 -351 -350 -229 0
-121 -351 -110 -349 0
-121 -351 -110 -109 0
-121 -351 -110 -229 0
-121 -351 -230 -349 0
-121 -351 -230 -109 0
-121 -351 -230 -229 0
-121 -111 -350 -349 0
-121 -111 -350 -109 0
-121 -111 -350 -229 0
-121 -111 -110 -349 0
-121 -111 -110 -229 0
-121 -111 -230 -349 0
-121 -111 -230 -109 0
-121 -111 -230 -229 0
-121 -231 -350 -349 0
-121 -231 -350 -109 0
-121 -231 -350 -229 0
-121 -231 -110 -349 0
-121 -231 -110 -109 0
-121 -231 -110 -229 0
-121 -231 -230 -349 0
-121 -231 -230 -109 0
-241 -351 -350 -109 0
-241 -351 -350 -229 0
-241 -351 -110 -349 0
-241 -351 -110 -109 0
-241 -351 -110 -229 0
-241 -351 -230 -349 0
-241 -351 -230 -109 0
-241 -351 -230 -229 0
-241 -111 -350 -109 0
-241 -111 -350 -229 0
-241 -111 -110 -349 0
-241 -111 -110 -109 0
-241 -111 -110 -229 0
-241 -111 -230 -349 0
-241 -111 -230 -109 0
-241 -111 -230 -229 0
-241 -231 -350 -109 0
-241 -231 -350 -229 0
-241 -231 -110 -109 0
-241 -231 -110 -229 0
-358 -355 -113 -352 0
-358 -355 -113 -112 0
-358 -355 -233 -352 0
-358 -355 -233 -112 0
-358 -115 -353 -352 0
-358 -115 -353 -112 0
-358 -115 -353 -232 0
-358 -115 -113 -352 0
-358 -115 -113 -112 0
-358 -115 -113 -232 0
-358 -115 -233 -352 0
-358 -115 -233 -112 0
-358 -235 -353 -352 0
-358 -235 -353 -112 0
-358 -235 -353 -232 0
-358 -235 -113 -352 0
-358 -235 -113 -112 0
-358 -235 -113 -232 0
-358 -235 -233 -352 0
-358 -235 -233 -112 0
-118 -355 -353 -112 0
-118 -355 -353 -232 0
-118 -355 -113 -352 0
-118 -355 -113 -112 0
-118 -355 -113 -232 0
-118 -355 -233 -352 0
-118 -355 -233 -112 0
-118 -355 -233 -232 0
-118 -115 -353 -352 0
-118 -115 -353 -112 0
-118 -115 -353 -232 0
-118 -115 -113 -352 0
-118 -115 -113 -232 0
-118 -115 -233 -352 0
-118 -115 -233 -112 0
-118 -115 -233 -232 0
-118 -235 -353 -352 0
-118 -235 -353 -112 0
-118 -235 -353 -232 0
-118 -235 -113 -352 0
-118 -235 -113 -112 0
-118 -235 -113 -232 0
-118 -235 -233 -352 0
-118 -235 -233 -112 0
-238 -355 -353 -112 0
-238 -355 -353 -232 0
-238 -355 -113 -352 0
-238 -355 -113 -112 0
-238 -355 -113 -232 0
-238 -355 -233 -352 0
-238 -355 -233 -112 0
-238 -355 -233 -232 0
-238 -115 -353 -112 0
-238 -115 -353 -232 0
-238 -115 -113 -352 0
-238 -115 -113 -112 0
-238 -115 -113 -232 0
-238 -115 -233 -352 0
-238 -115 -233 -112 0
-238 -115 -233 -232 0
-238 -235 -353 -112 0
-238 -235 -353 -232 0
-238 -235 -113 -112 0
-238 -235 -113 -232 0
-359 -356 -114 -352 0
-359 -356 -114 -112 0
-359 -356 -234 -352 0
-359 -356 -234 -112 0
-359 -116 -354 -352 0
-359 -116 -354 -112 0
-359 -116 -354 -232 0
-359 -116 -114 -352 0
-359 -116 -114 -112 0
-359 -116 -114 -232 0
-359 -116 -234 -352 0
-359 -116 -234 -112 0
-359 -236 -354 -352 0
-359 -236 -354 -112 0
-359 -236 -354 -232 0
-359 -236 -114 -352 0
-359 -236 -114 -112 0
-359 -236 -114 -232 0
-359 -236 -234 -352 0
-359 -236 -234 -112 0
-119 -356 -354 -112 0
-119 -356 -354 -232 0
-119 -356 -114 -352 0
-119 -356 -114 -112 0
-119 -356 -114 -232 0
-119 -356 -234 -352 0
-119 -356 -234 -112 0
-119 -356 -234 -232 0
-119 -116 -354 -352 0
-119 -116 -354 -112 0
-119 -116 -354 -232 0
-119 -116 -114 -352 0
-119 -116 -114 -232 0
-119 -116 -234 -352 0
-119 -116 -234 -112 0
-119 -116 -234 -232 0
-119 -236 -354 -352 0
-119 -236 -354 -112 0
-119 -236 -354 -232 0
-119 -236 -114 -352 0
-119 -236 -114 -112 0
-119 -236 -114 -232 0
-119 -236 -234 -352 0
-119 -236 -234 -112 0
-239 -356 -354 -112 0
-239 -356 -354 -232 0
-239 -356 -114 -352 0
-239 -356 -114 -112 0
-239 -356 -114 -232 0
-239 -356 -234 -352 0
-239 -356 -234 -112 0
-239 -356 -234 -232 0
-239 -116 -354 -112 0
-239 -116 -354 -232 0
-239 -116 -114 -352 0
-239 -116 -114 -112 0
-239 -116 -114 -232 0
-239 -116 -234 -352 0
-239 -116 -234 -112 0
-239 -116 -234 -232 0
-239 -236 -354 -112 0
-239 -236 -354 -232 0
-239 -236 -114 -112 0
-239 -236 -114 -232 0
-360 -357 -114 -353 0
-360 -357 -114 -113 0
-360 -357 -234 -353 0
-360 -357 -234 -113 0
-360 -117 -354 -353 0
-360 -117 -354 -113 0
-360 -117 -354 -233 0
-360 -117 -114 -353 0
-360 -117 -114 -113 0
-360 -117 -114 -233 0
-360 -117 -234 -353 0
-360 -117 -234 -113 0
-360 -237 -354 -353 0
-360 -237 -354 -113 0
-360 -237 -354 -233 0
-360 -237 -114 -353 0
-360 -237 -114 -113 0
-360 -237 -114 -233 0
-360 -237 -234 -353 0
-360 -237 -234 -113 0
-120 -357 -354 -113 0
-120 -357 -354 -233 0
-120 -357 -114 -353 0
-120 -357 -114 -113 0
-120 -357 -114 -233 0
-120 -357 -234 -353 0
-120 -357 -234 -113 0
-120 -357 -234 -233 0
-120 -117 -354 -353 0
-120 -117 -354 -113 0
-120 -117 -354 -233 0
-120 -117 -114 -353 0
-120 -117 -114 -233 0
-120 -117 -234 -353 0
-120 -117 -234 -113 0
-120 -117 -234 -233 0
-120 -237 -354 -353 0
-120 -237 -354 -113 0
-120 -237 -354 -233 0
-120 -237 -114 -353 0
-120 -237 -114 -113 0
-120 -237 -114 -233 0
-120 -237 -234 -353 0
-120 -237 -234 -113 0
-240 -357 -354 -113 0
-240 -357 -354 -233 0
-240 -357 -114 -353 0
-240 -357 -114 -113 0
-240 -357 -114 -233 0
-240 -357 -234 -353 0
-240 -357 -234 -113 0
-240 -357 -234 -233 0
-240 -117 -354 -113 0
-240 -117 -354 -233 0
-240 -117 -114 -353 0
-240 -117 -114 -113 0
-240 -117 -114 -233 0
-240 -117 -234 -353 0
-240 -117 -234 -113 0
-240 -117 -234 -233 0
-240 -237 -354 -113 0
-240 -237 -354 -233 0
-240 -237 -114 -113 0
-240 -237 -114 -233 0
-361 -357 -116 -355 0
-361 -357 -116 -115 0
-361 -357 -236 -355 0
-361 -357 -236 -115 0
-361 -117 -356 -355 0
-361 -117 -356 -115 0
-361 -117 -356 -235 0
-361 -117 -116 -355 0
-361 -117 -116 -115 0
-361 -117 -116 -235 0
-361 -117 -236 -355 0
-361 -117 -236 -115 0
-361 -237 -356 -355 0
-361 -237 -356 -115 0
-361 -237 -356 -235 0
-361 -237 -116 -355 0
-361 -237 -116 -115 0
-361 -237 -116 -235 0
-361 -237 -236 -355 0
-361 -237 -236 -115 0
-121 -357 -356 -115 0
-121 -357 -356 -235 0
-121 -357 -116 -355 0
-121 -357 -116 -115 0
-121 -357 -116 -235 0
-121 -357 -236 -355 0
-121 -357 -236 -115 0
-121 -357 -236 -235 0
-121 -117 -356 -355 0
-121 -117 -356 -115 0
-121 -117 -356 -235 0
-121 -117 -116 -355 0
-121 -117 -116 -235 0
-121 -117 -236 -355 0
-121 -117 -236 -115 0
-121 -117 -236 -235 0
-121 -237 -356 -355 0
-121 -237 -356 -115 0
-121 -237 -356 -235 0
-121 -237 -116 -355 0
-121 -237 -116 -115 0
-121 -237 -116 -235 0
-121 -237 -236 -355 0
-121 -237 -236 -115 0
-241 -357 -356 -115 0
-241 -357 -356 -235 0
-241 -357 -116 -355 0
-241 -357 -116 -115 0
-241 -357 -116 -235 0
-241 -357 -236 -355 0
-241 -357 -236 -115 0
-241 -357 -236 -235 0
-241 -117 -356 -115 0
-241 -117 -356 -235 0
-241 -117 -116 -355 0
-241 -117 -116 -115 0
-241 -117 -116 -235 0
-241 -117 -236 -355 0
-241 -117 -236 -115 0
-241 -117 -236 -235 0
-241 -237 -356 -115 0
-241 -237 -356 -235 0
-241 -237 -116 -115 0
-241 -237 -116 -235 0
-361 -360 -119 -358 0
-361 -360 -119 -118 0
-361 -360 -239 -358 0
-361 -360 -239 -118 0
-361 -120 -359 -358 0
-361 -120 -359 -118 0
-361 -120 -359 -238 0
-361 -120 -119 -358 0
-361 -120 -119 -118 0
-361 -120 -119 -238 0
-361 -120 -239 -358 0
-361 -120 -239 -118 0
-361 -240 -359 -358 0
-361 -240 -359 -118 0
-361 -240 -359 -238 0
-361 -240 -119 -358 0
-361 -240 -119 -118 0
-361 -240 -119 -238 0
-361 -240 -239 -358 0
-361 -240 -239 -118 0
-121 -360 -359 -118 0
-121 -360 -359 -238 0
-121 -360 -119 -358 0
-121 -360 -119 -118 0
-121 -360 -119 -238 0
-121 -360 -239 -358 0
-121 -360 -239 -118 0
-121 -360 -239 -238 0
-121 -120 -359 -358 0
-121 -120 -359 -118 0
-121 -120 -359 -238 0
-121 -120 -119 -358 0
-121 -120 -119 -238 0
-121 -120 -239 -358 0
-121 -120 -239 -118 0
-121 -120 -239 -238 0
-121 -240 -359 -358 0
-121 -240 -359 -118 0
-121 -240 -359 -238 0
-121 -240 -119 -358 0
-121 -240 -119 -118 0
-121 -240 -119 -238 0
-121 -240 -239 -358 0
-121 -240 -239 -118 0
-241 -360 -359 -118 0
-241 -360 -359 -238 0
-241 -360 -119 -358 0
-241 -360 -119 -118 0
-241 -360 -119 -238 0
-241 -360 -239 -358 0
-241 -360 -239 -118 0
-241 -360 -239 -238 0
-241 -120 -359 -118 0
-241 -120 -359 -238 0
-241 -120 -119 -358 0
-241 -120 -119 -118 0
-241 -120 -119 -238 0
-241 -120 -239 -358 0
-241 -120 -239 -118 0
-241 -120 -239 -238 0
-241 -240 -359 -118 0
-241 -240 -359 -238 0
-241 -240 -119 -118 0
-241 -240 -119 -238 0
-434 243 0
-434 130 0
434 -243 -130 0
-362 -434 0
-435 244 0
-435 131 0
435 -244 -131 0
-362 -435 0
-436 245 0
-436 132 0
436 -245 -132 0
-362 -436 0
-437 246 0
-437 133 0
437 -246 -133 0
-362 -437 0
-438 247 0
-438 134 0
438 -247 -134 0
-362 -438 0
-439 248 0
-439 135 0
439 -248 -135 0
-362 -439 0
-440 249 0
-440 136 0
440 -249 -136 0
-362 -440 0
-362 242 0
-242 362 434 435 436 437 438 439 440 0
-441 242 0
-441 250 0
441 -242 -250 0
-363 -441 0
-442 244 0
-442 137 0
442 -244 -137 0
-363 -442 0
-443 245 0
-443 138 0
443 -245 -138 0
-363 -443 0
-444 246 0
-444 139 0
444 -246 -139 0
-363 -444 0
-445 247 0
-445 140 0
445 -247 -140 0
-363 -445 0
-446 248 0
-446 141 0
446 -248 -141 0
-363 -446 0
-447 249 0
-447 142 0
447 -249 -142 0
-363 -447 0
-363 243 0
-243 363 441 442 443 444 445 446 447 0
-448 242 0
-448 251 0
448 -242 -251 0
-364 -448 0
-449 243 0
-449 257 0
449 -243 -257 0
-364 -449 0
-450 245 0
-450 143 0
450 -245 -143 0
-364 -450 0
-451 246 0
-451 144 0
451 -246 -144 0
-364 -451 0
-452 247 0
-452 145 0
452 -247 -145 0
-364 -452 0
-453 248 0
-453 146 0
453 -248 -146 0
-364 -453 0
-454 249 0
-454 147 0
454 -249 -147 0
-364 -454 0
-364 244 0
-244 364 448 449 450 451 452 453 454 0
-455 242 0
-455 252 0
455 -242 -252 0
-365 -455 0
-456 243 0
-456 258 0
456 -243 -258 0
-365 -456 0
-457 244 0
-457 263 0
457 -244 -263 0
-365 -457 0
-458 246 0
-458 148 0
458 -246 -148 0
-365 -458 0
-459 247 0
-459 149 0
459 -247 -149 0
-365 -459 0
-460 248 0
-460 150 0
460 -248 -150 0
-365 -460 0
-461 249 0
-461 151 0
461 -249 -151 0
-365 -461 0
-365 245 0
-245 365 455 456 457 458 459 460 461 0
-462 242 0
-462 253 0
462 -242 -253 0
-366 -462 0
-463 243 0
-463 259 0
463 -243 -259 0
-366 -463 0
-464 244 0
-464 264 0
464 -244 -264 0
-366 -464 0
-465 245 0
-465 268 0
465 -245 -268 0
-366 -465 0
-466 247 0
-466 152 0
466 -247 -152 0
-366 -466 0
-467 248 0
-467 153 0
467 -248 -153 0
-366 -467 0
-468 249 0
-468 154 0
468 -249 -154 0
-366 -468 0
-366 246 0
-246 366 462 463 464 465 466 467 468 0
-469 242 0
-469 254 0
469 -242 -254 0
-367 -469 0
-470 243 0
-470 260 0
470 -243 -260 0
-367 -470 0
-471 244 0
-471 265 0
471 -244 -265 0
-367 -471 0
-472 245 0
-472 269 0
472 -245 -269 0
-367 -472 0
-473 246 0
-473 272 0
473 -246 -272 0
-367 -473 0
-474 248 0
-474 155 0
474 -248 -155 0
-367 -474 0
-475 249 0
-475 156 0
475 -249 -156 0
-367 -475 0
-367 247 0
-247 367 469 470 471 472 473 474 475 0
-476 242 0
-476 255 0
476 -242 -255 0
-368 -476 0
-477 243 0
-477 261 0
477 -243 -261 0
-368 -477 0
-478 244 0
-478 266 0
478 -244 -266 0
-368 -478 0
-479 245 0
-479 270 0
479 -245 -270 0
-368 -479 0
-480 246 0
-480 273 0
480 -246 -273 0
-368 -480 0
-481 247 0
-481 275 0
481 -247 -275 0
-368 -481 0
-482 249 0
-482 157 0
482 -249 -157 0
-368 -482 0
-368 248 0
-248 368 476 477 478 479 480 481 482 0
-483 242 0
-483 256 0
483 -242 -256 0
-369 -483 0
-484 243 0
-484 262 0
484 -243 -262 0
-369 -484 0
-485 244 0
-485 267 0
485 -244 -267 0
-369 -485 0
-486 245 0
-486 271 0
486 -245 -271 0
-369 -486 0
-487 246 0
-487 274 0
487 -246 -274 0
-369 -487 0
-488 247 0
-488 276 0
488 -247 -276 0
-369 -488 0
-489 248 0
-489 277 0
489 -248 -277 0
-369 -489 0
-369 249 0
-249 369 483 484 485 486 487 488 489 0
-490 250 0
-490 123 0
490 -250 -123 0
-370 -490 0
-491 251 0
-491 124 0
491 -251 -124 0
-370 -491 0
-492 252 0
-492 125 0
492 -252 -125 0
-370 -492 0
-493 253 0
-493 126 0
493 -253 -126 0
-370 -493 0
-494 254 0
-494 127 0
494 -254 -127 0
-370 -494 0
-495 255 0
-495 128 0
495 -255 -128 0
-370 -495 0
-496 256 0
-496 129 0
496 -256 -129 0
-370 -496 0
-370 122 0
-122 370 490 491 492 493 494 495 496 0
-497 122 0
-497 243 0
497 -122 -243 0
-371 -497 0
-498 251 0
-498 137 0
498 -251 -137 0
-371 -498 0
-499 252 0
-499 138 0
499 -252 -138 0
-371 -499 0
-500 253 0
-500 139 0
500 -253 -139 0
-371 -500 0
-501 254 0
-501 140 0
501 -254 -140 0
-371 -501 0
-502 255 0
-502 141 0
502 -255 -141 0
-371 -502 0
-503 256 0
-503 142 0
503 -256 -142 0
-371 -503 0
-371 250 0
-250 371 497 498 499 500 501 502 503 0
-504 122 0
-504 244 0
504 -122 -244 0
-372 -504 0
-505 250 0
-505 257 0
505 -250 -257 0
-372 -505 0
-506 252 0
-506 143 0
506 -252 -143 0
-372 -506 0
-507 253 0
-507 144 0
507 -253 -144 0
-372 -507 0
-508 254 0
-508 145 0
508 -254 -145 0
-372 -508 0
-509 255 0
-509 146 0
509 -255 -146 0
-372 -509 0
-510 256 0
-510 147 0
510 -256 -147 0
-372 -510 0
-372 251 0
-251 372 504 505 506 507 508 509 510 0
-511 122 0
-511 245 0
511 -122 -245 0
-373 -511 0
-512 250 0
-512 258 0
512 -250 -258 0
-373 -512 0
-513 251 0
-513 263 0
513 -251 -263 0
-373 -513 0
-514 253 0
-514 148 0
514 -253 -148 0
-373 -514 0
-515 254 0
-515 149 0
515 -254 -149 0
-373 -515 0
-516 255 0
-516 150 0
516 -255 -150 0
-373 -516 0
-517 256 0
-517 151 0
517 -256 -151 0
-373 -517 0
-373 252 0
-252 373 511 512 513 514 515 516 517 0
-518 122 0
-518 246 0
518 -122 -246 0
-374 -518 0
-519 250 0
-519 259 0
519 -250 -259 0
-374 -519 0
-520 251 0
-520 264 0
520 -251 -264 0
-374 -520 0
-521 252 0
-521 268 0
521 -252 -268 0
-374 -521 0
-522 254 0
-522 152 0
522 -254 -152 0
-374 -522 0
-523 255 0
-523 153 0
523 -255 -153 0
-374 -523 0
-524 256 0
-524 154 0
524 -256 -154 0
-374 -524 0
-374 253 0
-253 374 518 519 520 521 522 523 524 0
-525 122 0
-525 247 0
525 -122 -247 0
-375 -525 0
-526 250 0
-526 260 0
526 -250 -260 0
-375 -526 0
-527 251 0
-527 265 0
527 -251 -265 0
-375 -527 0
-528 252 0
-528 269 0
528 -252 -269 0
-375 -528 0
-529 253 0
-529 272 0
529 -253 -272 0
-375 -529 0
-530 255 0
-530 155 0
530 -255 -155 0
-375 -530 0
-531 256 0
-531 156 0
531 -256 -156 0
-375 -531 0
-375 254 0
-254 375 525 526 527 528 529 530 531 0
-532 122 0
-532 248 0
532 -122 -248 0
-376 -532 0
-533 250 0
-533 261 0
533 -250 -261 0
-376 -533 0
-534 251 0
-534 266 0
534 -251 -266 0
-376 -534 0
-535 252 0
-535 270 0
535 -252 -270 0
-376 -535 0
-536 253 0
-536 273 0
536 -253 -273 0
-376 -536 0
-537 254 0
-537 275 0
537 -254 -275 0
-376 -537 0
-538 256 0
-538 157 0
538 -256 -157 0
-376 -538 0
-376 255 0
-255 376 532 533 534 535 536 537 538 0
-539 122 0
-539 249 0
539 -122 -249 0
-377 -539 0
-540 250 0
-540 262 0
540 -250 -262 0
-377 -540 0
-541 251 0
-541 267 0
541 -251 -267 0
-377 -541 0
-542 252 0
-542 271 0
542 -252 -271 0
-377 -542 0
-543 253 0
-543 274 0
543 -253 -274 0
-377 -543 0
-544 254 0
-544 276 0
544 -254 -276 0
-377 -544 0
-545 255 0
-545 277 0
545 -255 -277 0
-377 -545 0
-377 256 0
-256 377 539 540 541 542 543 544 545 0
-546 130 0
-546 122 0
546 -130 -122 0
-378 -546 0
-547 257 0
-547 124 0
547 -257 -124 0
-378 -547 0
-548 258 0
-548 125 0
548 -258 -125 0
-378 -548 0
-549 259 0
-549 126 0
549 -259 -126 0
-378 -549 0
-550 260 0
-550 127 0
550 -260 -127 0
-378 -550 0
-551 261 0
-551 128 0
551 -261 -128 0
-378 -551 0
-552 262 0
-552 129 0
552 -262 -129 0
-378 -552 0
-378 123 0
-123 378 546 547 548 549 550 551 552 0
-553 123 0
-553 242 0
553 -123 -242 0
-379 -553 0
-554 257 0
-554 131 0
554 -257 -131 0
-379 -554 0
-555 258 0
-555 132 0
555 -258 -132 0
-379 -555 0
-556 259 0
-556 133 0
556 -259 -133 0
-379 -556 0
-557 260 0
-557 134 0
557 -260 -134 0
-379 -557 0
-558 261 0
-558 135 0
558 -261 -135 0
-379 -558 0
-559 262 0
-559 136 0
559 -262 -136 0
-379 -559 0
-379 130 0
-130 379 553 554 555 556 557 558 559 0
-560 123 0
-560 244 0
560 -123 -244 0
-380 -560 0
-561 130 0
-561 251 0
561 -130 -251 0
-380 -561 0
-562 258 0
-562 143 0
562 -258 -143 0
-380 -562 0
-563 259 0
-563 144 0
563 -259 -144 0
-380 -563 0
-564 260 0
-564 145 0
564 -260 -145 0
-380 -564 0
-565 261 0
-565 146 0
565 -261 -146 0
-380 -565 0
-566 262 0
-566 147 0
566 -262 -147 0
-380 -566 0
-380 257 0
-257 380 560 561 562 563 564 565 566 0
-567 123 0
-567 245 0
567 -123 -245 0
-381 -567 0
-568 130 0
-568 252 0
568 -130 -252 0
-381 -568 0
-569 257 0
-569 263 0
569 -257 -263 0
-381 -569 0
-570 259 0
-570 148 0
570 -259 -148 0
-381 -570 0
-571 260 0
-571 149 0
571 -260 -149 0
-381 -571 0
-572 261 0
-572 150 0
572 -261 -150 0
-381 -572 0
-573 262 0
-573 151 0
573 -262 -151 0
-381 -573 0
-381 258 0
-258 381 567 568 569 570 571 572 573 0
-574 123 0
-574 246 0
574 -123 -246 0
-382 -574 0
-575 130 0
-575 253 0
575 -130 -253 0
-382 -575 0
-576 257 0
-576 264 0
576 -257 -264 0
-382 -576 0
-577 258 0
-577 268 0
577 -258 -268 0
-382 -577 0
-578 260 0
-578 152 0
578 -260 -152 0
-382 -578 0
-579 261 0
-579 153 0
579 -261 -153 0
-382 -579 0
-580 262 0
-580 154 0
580 -262 -154 0
-382 -580 0
-382 259 0
-259 382 574 575 576 577 578 579 580 0
-581 123 0
-581 247 0
581 -123 -247 0
-383 -581 0
-582 130 0
-582 254 0
582 -130 -254 0
-383 -582 0
-583 257 0
-583 265 0
583 -257 -265 0
-383 -583 0
-584 258 0
-584 269 0
584 -258 -269 0
-383 -584 0
-585 259 0
-585 272 0
585 -259 -272 0
-383 -585 0
-586 261 0
-586 155 0
586 -261 -155 0
-383 -586 0
-587 262 0
-587 156 0
587 -262 -156 0
-383 -587 0
-383 260 0
-260 383 581 582 583 584 585 586 587 0
-588 123 0
-588 248 0
588 -123 -248 0
-384 -588 0
-589 130 0
-589 255 0
589 -130 -255 0
-384 -589 0
-590 257 0
-590 266 0
590 -257 -266 0
-384 -590 0
-591 258 0
-591 270 0
591 -258 -270 0
-384 -591 0
-592 259 0
-592 273 0
592 -259 -273 0
-384 -592 0
-593 260 0
-593 275 0
593 -260 -275 0
-384 -593 0
-594 262 0
-594 157 0
594 -262 -157 0
-384 -594 0
-384 261 0
-261 384 588 589 590 591 592 593 594 0
-595 123 0
-595 249 0
595 -123 -249 0
-385 -595 0
-596 130 0
-596 256 0
596 -130 -256 0
-385 -596 0
-597 257 0
-597 267 0
597 -257 -267 0
-385 -597 0
-598 258 0
-598 271 0
598 -258 -271 0
-385 -598 0
-599 259 0
-599 274 0
599 -259 -274 0
-385 -599 0
-600 260 0
-600 276 0
600 -260 -276 0
-385 -600 0
-601 261 0
-601 277 0
601 -261 -277 0
-385 -601 0
-385 262 0
-262 385 595 596 597 598 599 600 601 0
-602 131 0
-602 122 0
602 -131 -122 0
-386 -602 0
-603 137 0
-603 123 0
603 -137 -123 0
-386 -603 0
-604 263 0
-604 125 0
604 -263 -125 0
-386 -604 0
-605 264 0
-605 126 0
605 -264 -126 0
-386 -605 0
-606 265 0
-606 127 0
606 -265 -127 0
-386 -606 0
-607 266 0
-607 128 0
607 -266 -128 0
-386 -607 0
-608 267 0
-608 129 0
608 -267 -129 0
-386 -608 0
-386 124 0
-124 386 602 603 604 605 606 607 608 0
-609 124 0
-609 242 0
609 -124 -242 0
-387 -609 0
-610 137 0
-610 130 0
610 -137 -130 0
-387 -610 0
-611 263 0
-611 132 0
611 -263 -132 0
-387 -611 0
-612 264 0
-612 133 0
612 -264 -133 0
-387 -612 0
-613 265 0
-613 134 0
613 -265 -134 0
-387 -613 0
-614 266 0
-614 135 0
614 -266 -135 0
-387 -614 0
-615 267 0
-615 136 0
615 -267 -136 0
-387 -615 0
-387 131 0
-131 387 609 610 611 612 613 614 615 0
-616 124 0
-616 243 0
616 -124 -243 0
-388 -616 0
-617 131 0
-617 250 0
617 -131 -250 0
-388 -617 0
-618 263 0
-618 138 0
618 -263 -138 0
-388 -618 0
-619 264 0
-619 139 0
619 -264 -139 0
-388 -619 0
-620 265 0
-620 140 0
620 -265 -140 0
-388 -620 0
-621 266 0
-621 141 0
621 -266 -141 0
-388 -621 0
-622 267 0
-622 142 0
622 -267 -142 0
-388 -622 0
-388 137 0
-137 388 616 617 618 619 620 621 622 0
-623 124 0
-623 245 0
623 -124 -245 0
-389 -623 0
-624 131 0
-624 252 0
624 -131 -252 0
-389 -624 0
-625 137 0
-625 258 0
625 -137 -258 0
-389 -625 0
-626 264 0
-626 148 0
626 -264 -148 0
-389 -626 0
-627 265 0
-627 149 0
627 -265 -149 0
-389 -627 0
-628 266 0
-628 150 0
628 -266 -150 0
-389 -628 0
-629 267 0
-629 151 0
629 -267 -151 0
-389 -629 0
-389 263 0
-263 389 623 624 625 626 627 628 629 0
-630 124 0
-630 246 0
630 -124 -246 0
-390 -630 0
-631 131 0
-631 253 0
631 -131 -253 0
-390 -631 0
-632 137 0
-632 259 0
632 -137 -259 0
-390 -632 0
-633 263 0
-633 268 0
633 -263 -268 0
-390 -633 0
-634 265 0
-634 152 0
634 -265 -152 0
-390 -634 0
-635 266 0
-635 153 0
635 -266 -153 0
-390 -635 0
-636 267 0
-636 154 0
636 -267 -154 0
-390 -636 0
-390 264 0
-264 390 630 631 632 633 634 635 636 0
-637 124 0
-637 247 0
637 -124 -247 0
-391 -637 0
-638 131 0
-638 254 0
638 -131 -254 0
-391 -638 0
-639 137 0
-639 260 0
639 -137 -260 0
-391 -639 0
-640 263 0
-640 269 0
640 -263 -269 0
-391 -640 0
-641 264 0
-641 272 0
641 -264 -272 0
-391 -641 0
-642 266 0
-642 155 0
642 -266 -155 0
-391 -642 0
-643 267 0
-643 156 0
643 -267 -156 0
-391 -643 0
-391 265 0
-265 391 637 638 639 640 641 642 643 0
-644 124 0
-644 248 0
644 -124 -248 0
-392 -644 0
-645 131 0
-645 255 0
645 -131 -255 0
-392 -645 0
-646 137 0
-646 261 0
646 -137 -261 0
-392 -646 0
-647 263 0
-647 270 0
647 -263 -270 0
-392 -647 0
-648 264 0
-648 273 0
648 -264 -273 0
-392 -648 0
-649 265 0
-649 275 0
649 -265 -275 0
-392 -649 0
-650 267 0
-650 157 0
650 -267 -157 0
-392 -650 0
-392 266 0
-266 392 644 645 646 647 648 649 650 0
-651 124 0
-651 249 0
651 -124 -249 0
-393 -651 0
-652 131 0
-652 256 0
652 -131 -256 0
-393 -652 0
-653 137 0
-653 262 0
653 -137 -262 0
-393 -653 0
-654 263 0
-654 271 0
654 -263 -271 0
-393 -654 0
-655 264 0
-655 274 0
655 -264 -274 0
-393 -655 0
-656 265 0
-656 276 0
656 -265 -276 0
-393 -656 0
-657 266 0
-657 277 0
657 -266 -277 0
-393 -657 0
-393 267 0
-267 393 651 652 653 654 655 656 657 0
-658 132 0
-658 122 0
658 -132 -122 0
-394 -658 0
-659 138 0
-659 123 0
659 -138 -123 0
-394 -659 0
-660 143 0
-660 124 0
660 -143 -124 0
-394 -660 0
-661 268 0
-661 126 0
661 -268 -126 0
-394 -661 0
-662 269 0
-662 127 0
662 -269 -127 0
-394 -662 0
-663 270 0
-663 128 0
663 -270 -128 0
-394 -663 0
-664 271 0
-664 129 0
664 -271 -129 0
-394 -664 0
-394 125 0
-125 394 658 659 660 661 662 663 664 0
-665 125 0
-665 242 0
665 -125 -242 0
-395 -665 0
-666 138 0
-666 130 0
666 -138 -130 0
-395 -666 0
-667 143 0
-667 131 0
667 -143 -131 0
-395 -667 0
-668 268 0
-668 133 0
668 -268 -133 0
-395 -668 0
-669 269 0
-669 134 0
669 -269 -134 0
-395 -669 0
-670 270 0
-670 135 0
670 -270 -135 0
-395 -670 0
-671 271 0
-671 136 0
671 -271 -136 0
-395 -671 0
-395 132 0
-132 395 665 666 667 668 669 670 671 0
-672 125 0
-672 243 0
672 -125 -243 0
-396 -672 0
-673 132 0
-673 250 0
673 -132 -250 0
-396 -673 0
-674 143 0
-674 137 0
674 -143 -137 0
-396 -674 0
-675 268 0
-675 139 0
675 -268 -139 0
-396 -675 0
-676 269 0
-676 140 0
676 -269 -140 0
-396 -676 0
-677 270 0
-677 141 0
677 -270 -141 0
-396 -677 0
-678 271 0
-678 142 0
678 -271 -142 0
-396 -678 0
-396 138 0
-138 396 672 673 674 675 676 677 678 0
-679 125 0
-679 244 0
679 -125 -244 0
-397 -679 0
-680 132 0
-680 251 0
680 -132 -251 0
-397 -680 0
-681 138 0
-681 257 0
681 -138 -257 0
-397 -681 0
-682 268 0
-682 144 0
682 -268 -144 0
-397 -682 0
-683 269 0
-683 145 0
683 -269 -145 0
-397 -683 0
-684 270 0
-684 146 0
684 -270 -146 0
-397 -684 0
-685 271 0
-685 147 0
685 -271 -147 0
-397 -685 0
-397 143 0
-143 397 679 680 681 682 683 684 685 0
-686 125 0
-686 246 0
686 -125 -246 0
-398 -686 0
-687 132 0
-687 253 0
687 -132 -253 0
-398 -687 0
-688 138 0
-688 259 0
688 -138 -259 0
-398 -688 0
-689 143 0
-689 264 0
689 -143 -264 0
-398 -689 0
-690 269 0
-690 152 0
690 -269 -152 0
-398 -690 0
-691 270 0
-691 153 0
691 -270 -153 0
-398 -691 0
-692 271 0
-692 154 0
692 -271 -154 0
-398 -692 0
-398 268 0
-268 398 686 687 688 689 690 691 692 0
-693 125 0
-693 247 0
693 -125 -247 0
-399 -693 0
-694 132 0
-694 254 0
694 -132 -254 0
-399 -694 0
-695 138 0
-695 260 0
695 -138 -260 0
-399 -695 0
-696 143 0
-696 265 0
696 -143 -265 0
-399 -696 0
-697 268 0
-697 272 0
697 -268 -272 0
-399 -697 0
-698 270 0
-698 155 0
698 -270 -155 0
-399 -698 0
-699 271 0
-699 156 0
699 -271 -156 0
-399 -699 0
-399 269 0
-269 399 693 694 695 696 697 698 699 0
-700 125 0
-700 248 0
700 -125 -248 0
-400 -700 0
-701 132 0
-701 255 0
701 -132 -255 0
-400 -701 0
-702 138 0
-702 261 0
702 -138 -261 0
-400 -702 0
-703 143 0
-703 266 0
703 -143 -266 0
-400 -703 0
-704 268 0
-704 273 0
704 -268 -273 0
-400 -704 0
-705 269 0
-705 275 0
705 -269 -275 0
-400 -705 0
-706 271 0
-706 157 0
706 -271 -157 0
-400 -706 0
-400 270 0
-270 400 700 701 702 703 704 705 706 0
-707 125 0
-707 249 0
707 -125 -249 0
-401 -707 0
-708 132 0
-708 256 0
708 -132 -256 0
-401 -708 0
-709 138 0
-709 262 0
709 -138 -262 0
-401 -709 0
-710 143 0
-710 267 0
710 -143 -267 0
-401 -710 0
-711 268 0
-711 274 0
711 -268 -274 0
-401 -711 0
-712 269 0
-712 276 0
712 -269 -276 0
-401 -712 0
-713 270 0
-713 277 0
713 -270 -277 0
-401 -713 0
-401 271 0
-271 401 707 708 709 710 711 712 713 0
-714 133 0
-714 122 0
714 -133 -122 0
-402 -714 0
-715 139 0
-715 123 0
715 -139 -123 0
-402 -715 0
-716 144 0
-716 124 0
716 -144 -124 0
-402 -716 0
-717 148 0
-717 125 0
717 -148 -125 0
-402 -717 0
-718 272 0
-718 127 0
718 -272 -127 0
-402 -718 0
-719 273 0
-719 128 0
719 -273 -128 0
-402 -719 0
-720 274 0
-720 129 0
720 -274 -129 0
-402 -720 0
-402 126 0
-126 402 714 715 716 717 718 719 720 0
-721 126 0
-721 242 0
721 -126 -242 0
-403 -721 0
-722 139 0
-722 130 0
722 -139 -130 0
-403 -722 0
-723 144 0
-723 131 0
723 -144 -131 0
-403 -723 0
-724 148 0
-724 132 0
724 -148 -132 0
-403 -724 0
-725 272 0
-725 134 0
725 -272 -134 0
-403 -725 0
-726 273 0
-726 135 0
726 -273 -135 0
-403 -726 0
-727 274 0
-727 136 0
727 -274 -136 0
-403 -727 0
-403 133 0
-133 403 721 722 723 724 725 726 727 0
-728 126 0
-728 243 0
728 -126 -243 0
-404 -728 0
-729 133 0
-729 250 0
729 -133 -250 0
-404 -729 0
-730 144 0
-730 137 0
730 -144 -137 0
-404 -730 0
-731 148 0
-731 138 0
731 -148 -138 0
-404 -731 0
-732 272 0
-732 140 0
732 -272 -140 0
-404 -732 0
-733 273 0
-733 141 0
733 -273 -141 0
-404 -733 0
-734 274 0
-734 142 0
734 -274 -142 0
-404 -734 0
-404 139 0
-139 404 728 729 730 731 732 733 734 0
-735 126 0
-735 244 0
735 -126 -244 0
-405 -735 0
-736 133 0
-736 251 0
736 -133 -251 0
-405 -736 0
-737 139 0
-737 257 0
737 -139 -257 0
-405 -737 0
-738 148 0
-738 143 0
738 -148 -143 0
-405 -738 0
-739 272 0
-739 145 0
739 -272 -145 0
-405 -739 0
-740 273 0
-740 146 0
740 -273 -146 0
-405 -740 0
-741 274 0
-741 147 0
741 -274 -147 0
-405 -741 0
-405 144 0
-144 405 735 736 737 738 739 740 741 0
-742 126 0
-742 245 0
742 -126 -245 0
-406 -742 0
-743 133 0
-743 252 0
743 -133 -252 0
-406 -743 0
-744 139 0
-744 258 0
744 -139 -258 0
-406 -744 0
-745 144 0
-745 263 0
745 -144 -263 0
-406 -745 0
-746 272 0
-746 149 0
746 -272 -149 0
-406 -746 0
-747 273 0
-747 150 0
747 -273 -150 0
-406 -747 0
-748 274 0
-748 151 0
748 -274 -151 0
-406 -748 0
-406 148 0
-148 406 742 743 744 745 746 747 748 0
-749 126 0
-749 247 0
749 -126 -247 0
-407 -749 0
-750 133 0
-750 254 0
750 -133 -254 0
-407 -750 0
-751 139 0
-751 260 0
751 -139 -260 0
-407 -751 0
-752 144 0
-752 265 0
752 -144 -265 0
-407 -752 0
-753 148 0
-753 269 0
753 -148 -269 0
-407 -753 0
-754 273 0
-754 155 0
754 -273 -155 0
-407 -754 0
-755 274 0
-755 156 0
755 -274 -156 0
-407 -755 0
-407 272 0
-272 407 749 750 751 752 753 754 755 0
-756 126 0
-756 248 0
756 -126 -248 0
-408 -756 0
-757 133 0
-757 255 0
757 -133 -255 0
-408 -757 0
-758 139 0
-758 261 0
758 -139 -261 0
-408 -758 0
-759 144 0
-759 266 0
759 -144 -266 0
-408 -759 0
-760 148 0
-760 270 0
760 -148 -270 0
-408 -760 0
-761 272 0
-761 275 0
761 -272 -275 0
-408 -761 0
-762 274 0
-762 157 0
762 -274 -157 0
-408 -762 0
-408 273 0
-273 408 756 757 758 759 760 761 762 0
-763 126 0
-763 249 0
763 -126 -249 0
-409 -763 0
-764 133 0
-764 256 0
764 -133 -256 0
-409 -764 0
-765 139 0
-765 262 0
765 -139 -262 0
-409 -765 0
-766 144 0
-766 267 0
766 -144 -267 0
-409 -766 0
-767 148 0
-767 271 0
767 -148 -271 0
-409 -767 0
-768 272 0
-768 276 0
768 -272 -276 0
-409 -768 0
-769 273 0
-769 277 0
769 -273 -277 0
-409 -769 0
-409 274 0
-274 409 763 764 765 766 767 768 769 0
-770 134 0
-770 122 0
770 -134 -122 0
-410 -770 0
-771 140 0
-771 123 0
771 -140 -123 0
-410 -771 0
-772 145 0
-772 124 0
772 -145 -124 0
-410 -772 0
-773 149 0
-773 125 0
773 -149 -125 0
-410 -773 0
-774 152 0
-774 126 0
774 -152 -126 0
-410 -774 0
-775 275 0
-775 128 0
775 -275 -128 0
-410 -775 0
-776 276 0
-776 129 0
776 -276 -129 0
-410 -776 0
-410 127 0
-127 410 770 771 772 773 774 775 776 0
-777 127 0
-777 242 0
777 -127 -242 0
-411 -777 0
-778 140 0
-778 130 0
778 -140 -130 0
-411 -778 0
-779 145 0
-779 131 0
779 -145 -131 0
-411 -779 0
-780 149 0
-780 132 0
780 -149 -132 0
-411 -780 0
-781 152 0
-781 133 0
781 -152 -133 0
-411 -781 0
-782 275 0
-782 135 0
782 -275 -135 0
-411 -782 0
-783 276 0
-783 136 0
783 -276 -136 0
-411 -783 0
-411 134 0
-134 411 777 778 779 780 781 782 783 0
-784 127 0
-784 243 0
784 -127 -243 0
-412 -784 0
-785 134 0
-785 250 0
785 -134 -250 0
-412 -785 0
-786 145 0
-786 137 0
786 -145 -137 0
-412 -786 0
-787 149 0
-787 138 0
787 -149 -138 0
-412 -787 0
-788 152 0
-788 139 0
788 -152 -139 0
-412 -788 0
-789 275 0
-789 141 0
789 -275 -141 0
-412 -789 0
-790 276 0
-790 142 0
790 -276 -142 0
-412 -790 0
-412 140 0
-140 412 784 785 786 787 788 789 790 0
-791 127 0
-791 244 0
791 -127 -244 0
-413 -791 0
-792 134 0
-792 251 0
792 -134 -251 0
-413 -792 0
-793 140 0
-793 257 0
793 -140 -257 0
-413 -793 0
-794 149 0
-794 143 0
794 -149 -143 0
-413 -794 0
-795 152 0
-795 144 0
795 -152 -144 0
-413 -795 0
-796 275 0
-796 146 0
796 -275 -146 0
-413 -796 0
-797 276 0
-797 147 0
797 -276 -147 0
-413 -797 0
-413 145 0
-145 413 791 792 793 794 795 796 797 0
-798 127 0
-798 245 0
798 -127 -245 0
-414 -798 0
-799 134 0
-799 252 0
799 -134 -252 0
-414 -799 0
-800 140 0
-800 258 0
800 -140 -258 0
-414 -800 0
-801 145 0
-801 263 0
801 -145 -263 0
-414 -801 0
-802 152 0
-802 148 0
802 -152 -148 0
-414 -802 0
-803 275 0
-803 150 0
803 -275 -150 0
-414 -803 0
-804 276 0
-804 151 0
804 -276 -151 0
-414 -804 0
-414 149 0
-149 414 798 799 800 801 802 803 804 0
-805 127 0
-805 246 0
805 -127 -246 0
-415 -805 0
-806 134 0
-806 253 0
806 -134 -253 0
-415 -806 0
-807 140 0
-807 259 0
807 -140 -259 0
-415 -807 0
-808 145 0
-808 264 0
808 -145 -264 0
-415 -808 0
-809 149 0
-809 268 0
809 -149 -268 0
-415 -809 0
-810 275 0
-810 153 0
810 -275 -153 0
-415 -810 0
-811 276 0
-811 154 0
811 -276 -154 0
-415 -811 0
-415 152 0
-152 415 805 806 807 808 809 810 811 0
-812 127 0
-812 248 0
812 -127 -248 0
-416 -812 0
-813 134 0
-813 255 0
813 -134 -255 0
-416 -813 0
-814 140 0
-814 261 0
814 -140 -261 0
-416 -814 0
-815 145 0
-815 266 0
815 -145 -266 0
-416 -815 0
-816 149 0
-816 270 0
816 -149 -270 0
-416 -816 0
-817 152 0
-817 273 0
817 -152 -273 0
-416 -817 0
-818 276 0
-818 157 0
818 -276 -157 0
-416 -818 0
-416 275 0
-275 416 812 813 814 815 816 817 818 0
-819 127 0
-819 249 0
819 -127 -249 0
-417 -819 0
-820 134 0
-820 256 0
820 -134 -256 0
-417 -820 0
-821 140 0
-821 262 0
821 -140 -262 0
-417 -821 0
-822 145 0
-822 267 0
822 -145 -267 0
-417 -822 0
-823 149 0
-823 271 0
823 -149 -271 0
-417 -823 0
-824 152 0
-824 274 0
824 -152 -274 0
-417 -824 0
-825 275 0
-825 277 0
825 -275 -277 0
-417 -825 0
-417 276 0
-276 417 819 820 821 822 823 824 825 0
-826 135 0
-826 122 0
826 -135 -122 0
-418 -826 0
-827 141 0
-827 123 0
827 -141 -123 0
-418 -827 0
-828 146 0
-828 124 0
828 -146 -124 0
-418 -828 0
-829 150 0
-829 125 0
829 -150 -125 0
-418 -829 0
-830 153 0
-830 126 0
830 -153 -126 0
-418 -830 0
-831 155 0
-831 127 0
831 -155 -127 0
-418 -831 0
-832 277 0
-832 129 0
832 -277 -129 0
-418 -832 0
-418 128 0
-128 418 826 827 828 829 830 831 832 0
-833 128 0
-833 242 0
833 -128 -242 0
-419 -833 0
-834 141 0
-834 130 0
834 -141 -130 0
-419 -834 0
-835 146 0
-835 131 0
835 -146 -131 0
-419 -835 0
-836 150 0
-836 132 0
836 -150 -132 0
-419 -836 0
-837 153 0
-837 133 0
837 -153 -133 0
-419 -837 0
-838 155 0
-838 134 0
838 -155 -134 0
-419 -838 0
-839 277 0
-839 136 0
839 -277 -136 0
-419 -839 0
-419 135 0
-135 419 833 834 835 836 837 838 839 0
-840 128 0
-840 243 0
840 -128 -243 0
-420 -840 0
-841 135 0
-841 250 0
841 -135 -250 0
-420 -841 0
-842 146 0
-842 137 0
842 -146 -137 0
-420 -842 0
-843 150 0
-843 138 0
843 -150 -138 0
-420 -843 0
-844 153 0
-844 139 0
844 -153 -139 0
-420 -844 0
-845 155 0
-845 140 0
845 -155 -140 0
-420 -845 0
-846 277 0
-846 142 0
846 -277 -142 0
-420 -846 0
-420 141 0
-141 420 840 841 842 843 844 845 846 0
-847 128 0
-847 244 0
847 -128 -244 0
-421 -847 0
-848 135 0
-848 251 0
848 -135 -251 0
-421 -848 0
-849 141 0
-849 257 0
849 -141 -257 0
-421 -849 0
-850 150 0
-850 143 0
850 -150 -143 0
-421 -850 0
-851 153 0
-851 144 0
851 -153 -144 0
-421 -851 0
-852 155 0
-852 145 0
852 -155 -145 0
-421 -852 0
-853 277 0
-853 147 0
853 -277 -147 0
-421 -853 0
-421 146 0
-146 421 847 848 849 850 851 852 853 0
-854 128 0
-854 245 0
854 -128 -245 0
-422 -854 0
-855 135 0
-855 252 0
855 -135 -252 0
-422 -855 0
-856 141 0
-856 258 0
856 -141 -258 0
-422 -856 0
-857 146 0
-857 263 0
857 -146 -263 0
-422 -857 0
-858 153 0
-858 148 0
858 -153 -148 0
-422 -858 0
-859 155 0
-859 149 0
859 -155 -149 0
-422 -859 0
-860 277 0
-860 151 0
860 -277 -151 0
-422 -860 0
-422 150 0
-150 422 854 855 856 857 858 859 860 0
-861 128 0
-861 246 0
861 -128 -246 0
-423 -861 0
-862 135 0
-862 253 0
862 -135 -253 0
-423 -862 0
-863 141 0
-863 259 0
863 -141 -259 0
-423 -863 0
-864 146 0
-864 264 0
864 -146 -264 0
-423 -864 0
-865 150 0
-865 268 0
865 -150 -268 0
-423 -865 0
-866 155 0
-866 152 0
866 -155 -152 0
-423 -866 0
-867 277 0
-867 154 0
867 -277 -154 0
-423 -867 0
-423 153 0
-153 423 861 862 863 864 865 866 867 0
-868 128 0
-868 247 0
868 -128 -247 0
-424 -868 0
-869 135 0
-869 254 0
869 -135 -254 0
-424 -869 0
-870 141 0
-870 260 0
870 -141 -260 0
-424 -870 0
-871 146 0
-871 265 0
871 -146 -265 0
-424 -871 0
-872 150 0
-872 269 0
872 -150 -269 0
-424 -872 0
-873 153 0
-873 272 0
873 -153 -272 0
-424 -873 0
-874 277 0
-874 156 0
874 -277 -156 0
-424 -874 0
-424 155 0
-155 424 868 869 870 871 872 873 874 0
-875 128 0
-875 249 0
875 -128 -249 0
-425 -875 0
-876 135 0
-876 256 0
876 -135 -256 0
-425 -876 0
-877 141 0
-877 262 0
877 -141 -262 0
-425 -877 0
-878 146 0
-878 267 0
878 -146 -267 0
-425 -878 0
-879 150 0
-879 271 0
879 -150 -271 0
-425 -879 0
-880 153 0
-880 274 0
880 -153 -274 0
-425 -880 0
-881 155 0
-881 276 0
881 -155 -276 0
-425 -881 0
-425 277 0
-277 425 875 876 877 878 879 880 881 0
-882 136 0
-882 122 0
882 -136 -122 0
-426 -882 0
-883 142 0
-883 123 0
883 -142 -123 0
-426 -883 0
-884 147 0
-884 124 0
884 -147 -124 0
-426 -884 0
-885 151 0
-885 125 0
885 -151 -125 0
-426 -885 0
-886 154 0
-886 126 0
886 -154 -126 0
-426 -886 0
-887 156 0
-887 127 0
887 -156 -127 0
-426 -887 0
-888 157 0
-888 128 0
888 -157 -128 0
-426 -888 0
-426 129 0
-129 426 882 883 884 885 886 887 888 0
-889 129 0
-889 242 0
889 -129 -242 0
-427 -889 0
-890 142 0
-890 130 0
890 -142 -130 0
-427 -890 0
-891 147 0
-891 131 0
891 -147 -131 0
-427 -891 0
-892 151 0
-892 132 0
892 -151 -132 0
-427 -892 0
-893 154 0
-893 133 0
893 -154 -133 0
-427 -893 0
-894 156 0
-894 134 0
894 -156 -134 0
-427 -894 0
-895 157 0
-895 135 0
895 -157 -135 0
-427 -895 0
-427 136 0
-136 427 889 890 891 892 893 894 895 0
-896 129 0
-896 243 0
896 -129 -243 0
-428 -896 0
-897 136 0
-897 250 0
897 -136 -250 0
-428 -897 0
-898 147 0
-898 137 0
898 -147 -137 0
-428 -898 0
-899 151 0
-899 138 0
899 -151 -138 0
-428 -899 0
-900 154 0
-900 139 0
900 -154 -139 0
-428 -900 0
-901 156 0
-901 140 0
901 -156 -140 0
-428 -901 0
-902 157 0
-902 141 0
902 -157 -141 0
-428 -902 0
-428 142 0
-142 428 896 897 898 899 900 901 902 0
-903 129 0
-903 244 0
903 -129 -244 0
-429 -903 0
-904 136 0
-904 251 0
904 -136 -251 0
-429 -904 0
-905 142 0
-905 257 0
905 -142 -257 0
-429 -905 0
-906 151 0
-906 143 0
906 -151 -143 0
-429 -906 0
-907 154 0
-907 144 0
907 -154 -144 0
-429 -907 0
-908 156 0
-908 145 0
908 -156 -145 0
-429 -908 0
-909 157 0
-909 146 0
909 -157 -146 0
-429 -909 0
-429 147 0
-147 429 903 904 905 906 907 908 909 0
-910 129 0
-910 245 0
910 -129 -245 0
-430 -910 0
-911 136 0
-911 252 0
911 -136 -252 0
-430 -911 0
-912 142 0
-912 258 0
912 -142 -258 0
-430 -912 0
-913 147 0
-913 263 0
913 -147 -263 0
-430 -913 0
-914 154 0
-914 148 0
914 -154 -148 0
-430 -914 0
-915 156 0
-915 149 0
915 -156 -149 0
-430 -915 0
-916 157 0
-916 150 0
916 -157 -150 0
-430 -916 0
-430 151 0
-151 430 910 911 912 913 914 915 916 0
-917 129 0
-917 246 0
917 -129 -246 0
-431 -917 0
-918 136 0
-918 253 0
918 -136 -253 0
-431 -918 0
-919 142 0
-919 259 0
919 -142 -259 0
-431 -919 0
-920 147 0
-920 264 0
920 -147 -264 0
-431 -920 0
-921 151 0
-921 268 0
921 -151 -268 0
-431 -921 0
-922 156 0
-922 152 0
922 -156 -152 0
-431 -922 0
-923 157 0
-923 153 0
923 -157 -153 0
-431 -923 0
-431 154 0
-154 431 917 918 919 920 921 922 923 0
-924 129 0
-924 247 0
924 -129 -247 0
-432 -924 0
-925 136 0
-925 254 0
925 -136 -254 0
-432 -925 0
-926 142 0
-926 260 0
926 -142 -260 0
-432 -926 0
-927 147 0
-927 265 0
927 -147 -265 0
-432 -927 0
-928 151 0
-928 269 0
928 -151 -269 0
-432 -928 0
-929 154 0
-929 272 0
929 -154 -272 0
-432 -929 0
-930 157 0
-930 155 0
930 -157 -155 0
-432 -930 0
-432 156 0
-156 432 924 925 926 927 928 929 930 0
-931 129 0
-931 248 0
931 -129 -248 0
-433 -931 0
-932 136 0
-932 255 0
932 -136 -255 0
-433 -932 0
-933 142 0
-933 261 0
933 -142 -261 0
-433 -933 0
-934 147 0
-934 266 0
934 -147 -266 0
-433 -934 0
-935 151 0
-935 270 0
935 -151 -270 0
-433 -935 0
-936 154 0
-936 273 0
936 -154 -273 0
-433 -936 0
-937 156 0
-937 275 0
937 -156 -275 0
-433 -937 0
-433 157 0
-157 433 931 932 933 934 935 936 937 0
-1010 243 0
-1010 158 0
1010 -243 -158 0
-938 -1010 0
-1011 244 0
-1011 159 0
1011 -244 -159 0
-938 -1011 0
-1012 245 0
-1012 160 0
1012 -245 -160 0
-938 -1012 0
-1013 246 0
-1013 161 0
1013 -246 -161 0
-938 -1013 0
-1014 247 0
-1014 162 0
1014 -247 -162 0
-938 -1014 0
-1015 248 0
-1015 163 0
1015 -248 -163 0
-938 -1015 0
-1016 249 0
-1016 164 0
1016 -249 -164 0
-938 -1016 0
-938 242 0
-242 938 1010 1011 1012 1013 1014 1015 1016 0
-1017 242 0
-1017 278 0
1017 -242 -278 0
-939 -1017 0
-1018 244 0
-1018 165 0
1018 -244 -165 0
-939 -1018 0
-1019 245 0
-1019 166 0
1019 -245 -166 0
-939 -1019 0
-1020 246 0
-1020 167 0
1020 -246 -167 0
-939 -1020 0
-1021 247 0
-1021 168 0
1021 -247 -168 0
-939 -1021 0
-1022 248 0
-1022 169 0
1022 -248 -169 0
-939 -1022 0
-1023 249 0
-1023 170 0
1023 -249 -170 0
-939 -1023 0
-939 243 0
-243 939 1017 1018 1019 1020 1021 1022 1023 0
-1024 242 0
-1024 279 0
1024 -242 -279 0
-940 -1024 0
-1025 243 0
-1025 285 0
1025 -243 -285 0
-940 -1025 0
-1026 245 0
-1026 171 0
1026 -245 -171 0
-940 -1026 0
-1027 246 0
-1027 172 0
1027 -246 -172 0
-940 -1027 0
-1028 247 0
-1028 173 0
1028 -247 -173 0
-940 -1028 0
-1029 248 0
-1029 174 0
1029 -248 -174 0
-940 -1029 0
-1030 249 0
-1030 175 0
1030 -249 -175 0
-940 -1030 0
-940 244 0
-244 940 1024 1025 1026 1027 1028 1029 1030 0
-1031 242 0
-1031 280 0
1031 -242 -280 0
-941 -1031 0
-1032 243 0
-1032 286 0
1032 -243 -286 0
-941 -1032 0
-1033 244 0
-1033 291 0
1033 -244 -291 0
-941 -1033 0
-1034 246 0
-1034 176 0
1034 -246 -176 0
-941 -1034 0
-1035 247 0
-1035 177 0
1035 -247 -177 0
-941 -1035 0
-1036 248 0
-1036 178 0
1036 -248 -178 0
-941 -1036 0
-1037 249 0
-1037 179 0
1037 -249 -179 0
-941 -1037 0
-941 245 0
-245 941 1031 1032 1033 1034 1035 1036 1037 0
-1038 242 0
-1038 281 0
1038 -242 -281 0
-942 -1038 0
-1039 243 0
-1039 287 0
1039 -243 -287 0
-942 -1039 0
-1040 244 0
-1040 292 0
1040 -244 -292 0
-942 -1040 0
-1041 245 0
-1041 296 0
1041 -245 -296 0
-942 -1041 0
-1042 247 0
-1042 180 0
1042 -247 -180 0
-942 -1042 0
-1043 248 0
-1043 181 0
1043 -248 -181 0
-942 -1043 0
-1044 249 0
-1044 182 0
1044 -249 -182 0
-942 -1044 0
-942 246 0
-246 942 1038 1039 1040 1041 1042 1043 1044 0
-1045 242 0
-1045 282 0
1045 -242 -282 0
-943 -1045 0
-1046 243 0
-1046 288 0
1046 -243 -288 0
-943 -1046 0
-1047 244 0
-1047 293 0
1047 -244 -293 0
-943 -1047 0
-1048 245 0
-1048 297 0
1048 -245 -297 0
-943 -1048 0
-1049 246 0
-1049 300 0
1049 -246 -300 0
-943 -1049 0
-1050 248 0
-1050 183 0
1050 -248 -183 0
-943 -1050 0
-1051 249 0
-1051 184 0
1051 -249 -184 0
-943 -1051 0
-943 247 0
-247 943 1045 1046 1047 1048 1049 1050 1051 0
-1052 242 0
-1052 283 0
1052 -242 -283 0
-944 -1052 0
-1053 243 0
-1053 289 0
1053 -243 -289 0
-944 -1053 0
-1054 244 0
-1054 294 0
1054 -244 -294 0
-944 -1054 0
-1055 245 0
-1055 298 0
1055 -245 -298 0
-944 -1055 0
-1056 246 0
-1056 301 0
1056 -246 -301 0
-944 -1056 0
-1057 247 0
-1057 303 0
1057 -247 -303 0
-944 -1057 0
-1058 249 0
-1058 185 0
1058 -249 -185 0
-944 -1058 0
-944 248 0
-248 944 1052 1053 1054 1055 1056 1057 1058 0
-1059 242 0
-1059 284 0
1059 -242 -284 0
-945 -1059 0
-1060 243 0
-1060 290 0
1060 -243 -290 0
-945 -1060 0
-1061 244 0
-1061 295 0
1061 -244 -295 0
-945 -1061 0
-1062 245 0
-1062 299 0
1062 -245 -299 0
-945 -1062 0
-1063 246 0
-1063 302 0
1063 -246 -302 0
-945 -1063 0
-1064 247 0
-1064 304 0
1064 -247 -304 0
-945 -1064 0
-1065 248 0
-1065 305 0
1065 -248 -305 0
-945 -1065 0
-945 249 0
-249 945 1059 1060 1061 1062 1063 1064 1065 0
-1066 278 0
-1066 123 0
1066 -278 -123 0
-946 -1066 0
-1067 279 0
-1067 124 0
1067 -279 -124 0
-946 -1067 0
-1068 280 0
-1068 125 0
1068 -280 -125 0
-946 -1068 0
-1069 281 0
-1069 126 0
1069 -281 -126 0
-946 -1069 0
-1070 282 0
-1070 127 0
1070 -282 -127 0
-946 -1070 0
-1071 283 0
-1071 128 0
1071 -283 -128 0
-946 -1071 0
-1072 284 0
-1072 129 0
1072 -284 -129 0
-946 -1072 0
-946 122 0
-122 946 1066 1067 1068 1069 1070 1071 1072 0
-1073 122 0
-1073 243 0
1073 -122 -243 0
-947 -1073 0
-1074 279 0
-1074 165 0
1074 -279 -165 0
-947 -1074 0
-1075 280 0
-1075 166 0
1075 -280 -166 0
-947 -1075 0
-1076 281 0
-1076 167 0
1076 -281 -167 0
-947 -1076 0
-1077 282 0
-1077 168 0
1077 -282 -168 0
-947 -1077 0
-1078 283 0
-1078 169 0
1078 -283 -169 0
-947 -1078 0
-1079 284 0
-1079 170 0
1079 -284 -170 0
-947 -1079 0
-947 278 0
-278 947 1073 1074 1075 1076 1077 1078 1079 0
-1080 122 0
-1080 244 0
1080 -122 -244 0
-948 -1080 0
-1081 278 0
-1081 285 0
1081 -278 -285 0
-948 -1081 0
-1082 280 0
-1082 171 0
1082 -280 -171 0
-948 -1082 0
-1083 281 0
-1083 172 0
1083 -281 -172 0
-948 -1083 0
-1084 282 0
-1084 173 0
1084 -282 -173 0
-948 -1084 0
-1085 283 0
-1085 174 0
1085 -283 -174 0
-948 -1085 0
-1086 284 0
-1086 175 0
1086 -284 -175 0
-948 -1086 0
-948 279 0
-279 948 1080 1081 1082 1083 1084 1085 1086 0
-1087 122 0
-1087 245 0
1087 -122 -245 0
-949 -1087 0
-1088 278 0
-1088 286 0
1088 -278 -286 0
-949 -1088 0
-1089 279 0
-1089 291 0
1089 -279 -291 0
-949 -1089 0
-1090 281 0
-1090 176 0
1090 -281 -176 0
-949 -1090 0
-1091 282 0
-1091 177 0
1091 -282 -177 0
-949 -1091 0
-1092 283 0
-1092 178 0
1092 -283 -178 0
-949 -1092 0
-1093 284 0
-1093 179 0
1093 -284 -179 0
-949 -1093 0
-949 280 0
-280 949 1087 1088 1089 1090 1091 1092 1093 0
-1094 122 0
-1094 246 0
1094 -122 -246 0
-950 -1094 0
-1095 278 0
-1095 287 0
1095 -278 -287 0
-950 -1095 0
-1096 279 0
-1096 292 0
1096 -279 -292 0
-950 -1096 0
-1097 280 0
-1097 296 0
1097 -280 -296 0
-950 -1097 0
-1098 282 0
-1098 180 0
1098 -282 -180 0
-950 -1098 0
-1099 283 0
-1099 181 0
1099 -283 -181 0
-950 -1099 0
-1100 284 0
-1100 182 0
1100 -284 -182 0
-950 -1100 0
-950 281 0
-281 950 1094 1095 1096 1097 1098 1099 1100 0
-1101 122 0
-1101 247 0
1101 -122 -247 0
-951 -1101 0
-1102 278 0
-1102 288 0
1102 -278 -288 0
-951 -1102 0
-1103 279 0
-1103 293 0
1103 -279 -293 0
-951 -1103 0
-1104 280 0
-1104 297 0
1104 -280 -297 0
-951 -1104 0
-1105 281 0
-1105 300 0
1105 -281 -300 0
-951 -1105 0
-1106 283 0
-1106 183 0
1106 -283 -183 0
-951 -1106 0
-1107 284 0
-1107 184 0
1107 -284 -184 0
-951 -1107 0
-951 282 0
-282 951 1101 1102 1103 1104 1105 1106 1107 0
-1108 122 0
-1108 248 0
1108 -122 -248 0
-952 -1108 0
-1109 278 0
-1109 289 0
1109 -278 -289 0
-952 -1109 0
-1110 279 0
-1110 294 0
1110 -279 -294 0
-952 -1110 0
-1111 280 0
-1111 298 0
1111 -280 -298 0
-952 -1111 0
-1112 281 0
-1112 301 0
1112 -281 -301 0
-952 -1112 0
-1113 282 0
-1113 303 0
1113 -282 -303 0
-952 -1113 0
-1114 284 0
-1114 185 0
1114 -284 -185 0
-952 -1114 0
-952 283 0
-283 952 1108 1109 1110 1111 1112 1113 1114 0
-1115 122 0
-1115 249 0
1115 -122 -249 0
-953 -1115 0
-1116 278 0
-1116 290 0
1116 -278 -290 0
-953 -1116 0
-1117 279 0
-1117 295 0
1117 -279 -295 0
-953 -1117 0
-1118 280 0
-1118 299 0
1118 -280 -299 0
-953 -1118 0
-1119 281 0
-1119 302 0
1119 -281 -302 0
-953 -1119 0
-1120 282 0
-1120 304 0
1120 -282 -304 0
-953 -1120 0
-1121 283 0
-1121 305 0
1121 -283 -305 0
-953 -1121 0
-953 284 0
-284 953 1115 1116 1117 1118 1119 1120 1121 0
-1122 158 0
-1122 122 0
1122 -158 -122 0
-954 -1122 0
-1123 285 0
-1123 124 0
1123 -285 -124 0
-954 -1123 0
-1124 286 0
-1124 125 0
1124 -286 -125 0
-954 -1124 0
-1125 287 0
-1125 126 0
1125 -287 -126 0
-954 -1125 0
-1126 288 0
-1126 127 0
1126 -288 -127 0
-954 -1126 0
-1127 289 0
-1127 128 0
1127 -289 -128 0
-954 -1127 0
-1128 290 0
-1128 129 0
1128 -290 -129 0
-954 -1128 0
-954 123 0
-123 954 1122 1123 1124 1125 1126 1127 1128 0
-1129 123 0
-1129 242 0
1129 -123 -242 0
-955 -1129 0
-1130 285 0
-1130 159 0
1130 -285 -159 0
-955 -1130 0
-1131 286 0
-1131 160 0
1131 -286 -160 0
-955 -1131 0
-1132 287 0
-1132 161 0
1132 -287 -161 0
-955 -1132 0
-1133 288 0
-1133 162 0
1133 -288 -162 0
-955 -1133 0
-1134 289 0
-1134 163 0
1134 -289 -163 0
-955 -1134 0
-1135 290 0
-1135 164 0
1135 -290 -164 0
-955 -1135 0
-955 158 0
-158 955 1129 1130 1131 1132 1133 1134 1135 0
-1136 123 0
-1136 244 0
1136 -123 -244 0
-956 -1136 0
-1137 158 0
-1137 279 0
1137 -158 -279 0
-956 -1137 0
-1138 286 0
-1138 171 0
1138 -286 -171 0
-956 -1138 0
-1139 287 0
-1139 172 0
1139 -287 -172 0
-956 -1139 0
-1140 288 0
-1140 173 0
1140 -288 -173 0
-956 -1140 0
-1141 289 0
-1141 174 0
1141 -289 -174 0
-956 -1141 0
-1142 290 0
-1142 175 0
1142 -290 -175 0
-956 -1142 0
-956 285 0
-285 956 1136 1137 1138 1139 1140 1141 1142 0
-1143 123 0
-1143 245 0
1143 -123 -245 0
-957 -1143 0
-1144 158 0
-1144 280 0
1144 -158 -280 0
-957 -1144 0
-1145 285 0
-1145 291 0
1145 -285 -291 0
-957 -1145 0
-1146 287 0
-1146 176 0
1146 -287 -176 0
-957 -1146 0
-1147 288 0
-1147 177 0
1147 -288 -177 0
-957 -1147 0
-1148 289 0
-1148 178 0
1148 -289 -178 0
-957 -1148 0
-1149 290 0
-1149 179 0
1149 -290 -179 0
-957 -1149 0
-957 286 0
-286 957 1143 1144 1145 1146 1147 1148 1149 0
-1150 123 0
-1150 246 0
1150 -123 -246 0
-958 -1150 0
-1151 158 0
-1151 281 0
1151 -158 -281 0
-958 -1151 0
-1152 285 0
-1152 292 0
1152 -285 -292 0
-958 -1152 0
-1153 286 0
-1153 296 0
1153 -286 -296 0
-958 -1153 0
-1154 288 0
-1154 180 0
1154 -288 -180 0
-958 -1154 0
-1155 289 0
-1155 181 0
1155 -289 -181 0
-958 -1155 0
-1156 290 0
-1156 182 0
1156 -290 -182 0
-958 -1156 0
-958 287 0
-287 958 1150 1151 1152 1153 1154 1155 1156 0
-1157 123 0
-1157 247 0
1157 -123 -247 0
-959 -1157 0
-1158 158 0
-1158 282 0
1158 -158 -282 0
-959 -1158 0
-1159 285 0
-1159 293 0
1159 -285 -293 0
-959 -1159 0
-1160 286 0
-1160 297 0
1160 -286 -297 0
-959 -1160 0
-1161 287 0
-1161 300 0
1161 -287 -300 0
-959 -1161 0
-1162 289 0
-1162 183 0
1162 -289 -183 0
-959 -1162 0
-1163 290 0
-1163 184 0
1163 -290 -184 0
-959 -1163 0
-959 288 0
-288 959 1157 1158 1159 1160 1161 1162 1163 0
-1164 123 0
-1164 248 0
1164 -123 -248 0
-960 -1164 0
-1165 158 0
-1165 283 0
1165 -158 -283 0
-960 -1165 0
-1166 285 0
-1166 294 0
1166 -285 -294 0
-960 -1166 0
-1167 286 0
-1167 298 0
1167 -286 -298 0
-960 -1167 0
-1168 287 0
-1168 301 0
1168 -287 -301 0
-960 -1168 0
-1169 288 0
-1169 303 0
1169 -288 -303 0
-960 -1169 0
-1170 290 0
-1170 185 0
1170 -290 -185 0
-960 -1170 0
-960 289 0
-289 960 1164 1165 1166 1167 1168 1169 1170 0
-1171 123 0
-1171 249 0
1171 -123 -249 0
-961 -1171 0
-1172 158 0
-1172 284 0
1172 -158 -284 0
-961 -1172 0
-1173 285 0
-1173 295 0
1173 -285 -295 0
-961 -1173 0
-1174 286 0
-1174 299 0
1174 -286 -299 0
-961 -1174 0
-1175 287 0
-1175 302 0
1175 -287 -302 0
-961 -1175 0
-1176 288 0
-1176 304 0
1176 -288 -304 0
-961 -1176 0
-1177 289 0
-1177 305 0
1177 -289 -305 0
-961 -1177 0
-961 290 0
-290 961 1171 1172 1173 1174 1175 1176 1177 0
-1178 159 0
-1178 122 0
1178 -159 -122 0
-962 -1178 0
-1179 165 0
-1179 123 0
1179 -165 -123 0
-962 -1179 0
-1180 291 0
-1180 125 0
1180 -291 -125 0
-962 -1180 0
-1181 292 0
-1181 126 0
1181 -292 -126 0
-962 -1181 0
-1182 293 0
-1182 127 0
1182 -293 -127 0
-962 -1182 0
-1183 294 0
-1183 128 0
1183 -294 -128 0
-962 -1183 0
-1184 295 0
-1184 129 0
1184 -295 -129 0
-962 -1184 0
-962 124 0
-124 962 1178 1179 1180 1181 1182 1183 1184 0
-1185 124 0
-1185 242 0
1185 -124 -242 0
-963 -1185 0
-1186 165 0
-1186 158 0
1186 -165 -158 0
-963 -1186 0
-1187 291 0
-1187 160 0
1187 -291 -160 0
-963 -1187 0
-1188 292 0
-1188 161 0
1188 -292 -161 0
-963 -1188 0
-1189 293 0
-1189 162 0
1189 -293 -162 0
-963 -1189 0
-1190 294 0
-1190 163 0
1190 -294 -163 0
-963 -1190 0
-1191 295 0
-1191 164 0
1191 -295 -164 0
-963 -1191 0
-963 159 0
-159 963 1185 1186 1187 1188 1189 1190 1191 0
-1192 124 0
-1192 243 0
1192 -124 -243 0
-964 -1192 0
-1193 159 0
-1193 278 0
1193 -159 -278 0
-964 -1193 0
-1194 291 0
-1194 166 0
1194 -291 -166 0
-964 -1194 0
-1195 292 0
-1195 167 0
1195 -292 -167 0
-964 -1195 0
-1196 293 0
-1196 168 0
1196 -293 -168 0
-964 -1196 0
-1197 294 0
-1197 169 0
1197 -294 -169 0
-964 -1197 0
-1198 295 0
-1198 170 0
1198 -295 -170 0
-964 -1198 0
-964 165 0
-165 964 1192 1193 1194 1195 1196 1197 1198 0
-1199 124 0
-1199 245 0
1199 -124 -245 0
-965 -1199 0
-1200 159 0
-1200 280 0
1200 -159 -280 0
-965 -1200 0
-1201 165 0
-1201 286 0
1201 -165 -286 0
-965 -1201 0
-1202 292 0
-1202 176 0
1202 -292 -176 0
-965 -1202 0
-1203 293 0
-1203 177 0
1203 -293 -177 0
-965 -1203 0
-1204 294 0
-1204 178 0
1204 -294 -178 0
-965 -1204 0
-1205 295 0
-1205 179 0
1205 -295 -179 0
-965 -1205 0
-965 291 0
-291 965 1199 1200 1201 1202 1203 1204 1205 0
-1206 124 0
-1206 246 0
1206 -124 -246 0
-966 -1206 0
-1207 159 0
-1207 281 0
1207 -159 -281 0
-966 -1207 0
-1208 165 0
-1208 287 0
1208 -165 -287 0
-966 -1208 0
-1209 291 0
-1209 296 0
1209 -291 -296 0
-966 -1209 0
-1210 293 0
-1210 180 0
1210 -293 -180 0
-966 -1210 0
-1211 294 0
-1211 181 0
1211 -294 -181 0
-966 -1211 0
-1212 295 0
-1212 182 0
1212 -295 -182 0
-966 -1212 0
-966 292 0
-292 966 1206 1207 1208 1209 1210 1211 1212 0
-1213 124 0
-1213 247 0
1213 -124 -247 0
-967 -1213 0
-1214 159 0
-1214 282 0
1214 -159 -282 0
-967 -1214 0
-1215 165 0
-1215 288 0
1215 -165 -288 0
-967 -1215 0
-1216 291 0
-1216 297 0
1216 -291 -297 0
-967 -1216 0
-1217 292 0
-1217 300 0
1217 -292 -300 0
-967 -1217 0
-1218 294 0
-1218 183 0
1218 -294 -183 0
-967 -1218 0
-1219 295 0
-1219 184 0
1219 -295 -184 0
-967 -1219 0
-967 293 0
-293 967 1213 1214 1215 1216 1217 1218 1219 0
-1220 124 0
-1220 248 0
1220 -124 -248 0
-968 -1220 0
-1221 159 0
-1221 283 0
1221 -159 -283 0
-968 -1221 0
-1222 165 0
-1222 289 0
1222 -165 -289 0
-968 -1222 0
-1223 291 0
-1223 298 0
1223 -291 -298 0
-968 -1223 0
-1224 292 0
-1224 301 0
1224 -292 -301 0
-968 -1224 0
-1225 293 0
-1225 303 0
1225 -293 -303 0
-968 -1225 0
-1226 295 0
-1226 185 0
1226 -295 -185 0
-968 -1226 0
-968 294 0
-294 968 1220 1221 1222 1223 1224 1225 1226 0
-1227 124 0
-1227 249 0
1227 -124 -249 0
-969 -1227 0
-1228 159 0
-1228 284 0
1228 -159 -284 0
-969 -1228 0
-1229 165 0
-1229 290 0
1229 -165 -290 0
-969 -1229 0
-1230 291 0
-1230 299 0
1230 -291 -299 0
-969 -1230 0
-1231 292 0
-1231 302 0
1231 -292 -302 0
-969 -1231 0
-1232 293 0
-1232 304 0
1232 -293 -304 0
-969 -1232 0
-1233 294 0
-1233 305 0
1233 -294 -305 0
-969 -1233 0
-969 295 0
-295 969 1227 1228 1229 1230 1231 1232 1233 0
-1234 160 0
-1234 122 0
1234 -160 -122 0
-970 -1234 0
-1235 166 0
-1235 123 0
1235 -166 -123 0
-970 -1235 0
-1236 171 0
-1236 124 0
1236 -171 -124 0
-970 -1236 0
-1237 296 0
-1237 126 0
1237 -296 -126 0
-970 -1237 0
-1238 297 0
-1238 127 0
1238 -297 -127 0
-970 -1238 0
-1239 298 0
-1239 128 0
1239 -298 -128 0
-970 -1239 0
-1240 299 0
-1240 129 0
1240 -299 -129 0
-970 -1240 0
-970 125 0
-125 970 1234 1235 1236 1237 1238 1239 1240 0
-1241 125 0
-1241 242 0
1241 -125 -242 0
-971 -1241 0
-1242 166 0
-1242 158 0
1242 -166 -158 0
-971 -1242 0
-1243 171 0
-1243 159 0
1243 -171 -159 0
-971 -1243 0
-1244 296 0
-1244 161 0
1244 -296 -161 0
-971 -1244 0
-1245 297 0
-1245 162 0
1245 -297 -162 0
-971 -1245 0
-1246 298 0
-1246 163 0
1246 -298 -163 0
-971 -1246 0
-1247 299 0
-1247 164 0
1247 -299 -164 0
-971 -1247 0
-971 160 0
-160 971 1241 1242 1243 1244 1245 1246 1247 0
-1248 125 0
-1248 243 0
1248 -125 -243 0
-972 -1248 0
-1249 160 0
-1249 278 0
1249 -160 -278 0
-972 -1249 0
-1250 171 0
-1250 165 0
1250 -171 -165 0
-972 -1250 0
-1251 296 0
-1251 167 0
1251 -296 -167 0
-972 -1251 0
-1252 297 0
-1252 168 0
1252 -297 -168 0
-972 -1252 0
-1253 298 0
-1253 169 0
1253 -298 -169 0
-972 -1253 0
-1254 299 0
-1254 170 0
1254 -299 -170 0
-972 -1254 0
-972 166 0
-166 972 1248 1249 1250 1251 1252 1253 1254 0
-1255 125 0
-1255 244 0
1255 -125 -244 0
-973 -1255 0
-1256 160 0
-1256 279 0
1256 -160 -279 0
-973 -1256 0
-1257 166 0
-1257 285 0
1257 -166 -285 0
-973 -1257 0
-1258 296 0
-1258 172 0
1258 -296 -172 0
-973 -1258 0
-1259 297 0
-1259 173 0
1259 -297 -173 0
-973 -1259 0
-1260 298 0
-1260 174 0
1260 -298 -174 0
-973 -1260 0
-1261 299 0
-1261 175 0
1261 -299 -175 0
-973 -1261 0
-973 171 0
-171 973 1255 1256 1257 1258 1259 1260 1261 0
-1262 125 0
-1262 246 0
1262 -125 -246 0
-974 -1262 0
-1263 160 0
-1263 281 0
1263 -160 -281 0
-974 -1263 0
-1264 166 0
-1264 287 0
1264 -166 -287 0
-974 -1264 0
-1265 171 0
-1265 292 0
1265 -171 -292 0
-974 -1265 0
-1266 297 0
-1266 180 0
1266 -297 -180 0
-974 -1266 0
-1267 298 0
-1267 181 0
1267 -298 -181 0
-974 -1267 0
-1268 299 0
-1268 182 0
1268 -299 -182 0
-974 -1268 0
-974 296 0
-296 974 1262 1263 1264 1265 1266 1267 1268 0
-1269 125 0
-1269 247 0
1269 -125 -247 0
-975 -1269 0
-1270 160 0
-1270 282 0
1270 -160 -282 0
-975 -1270 0
-1271 166 0
-1271 288 0
1271 -166 -288 0
-975 -1271 0
-1272 171 0
-1272 293 0
1272 -171 -293 0
-975 -1272 0
-1273 296 0
-1273 300 0
1273 -296 -300 0
-975 -1273 0
-1274 298 0
-1274 183 0
1274 -298 -183 0
-975 -1274 0
-1275 299 0
-1275 184 0
1275 -299 -184 0
-975 -1275 0
-975 297 0
-297 975 1269 1270 1271 1272 1273 1274 1275 0
-1276 125 0
-1276 248 0
1276 -125 -248 0
-976 -1276 0
-1277 160 0
-1277 283 0
1277 -160 -283 0
-976 -1277 0
-1278 166 0
-1278 289 0
1278 -166 -289 0
-976 -1278 0
-1279 171 0
-1279 294 0
1279 -171 -294 0
-976 -1279 0
-1280 296 0
-1280 301 0
1280 -296 -301 0
-976 -1280 0
-1281 297 0
-1281 303 0
1281 -297 -303 0
-976 -1281 0
-1282 299 0
-1282 185 0
1282 -299 -185 0
-976 -1282 0
-976 298 0
-298 976 1276 1277 1278 1279 1280 1281 1282 0
-1283 125 0
-1283 249 0
1283 -125 -249 0
-977 -1283 0
-1284 160 0
-1284 284 0
1284 -160 -284 0
-977 -1284 0
-1285 166 0
-1285 290 0
1285 -166 -290 0
-977 -1285 0
-1286 171 0
-1286 295 0
1286 -171 -295 0
-977 -1286 0
-1287 296 0
-1287 302 0
1287 -296 -302 0
-977 -1287 0
-1288 297 0
-1288 304 0
1288 -297 -304 0
-977 -1288 0
-1289 298 0
-1289 305 0
1289 -298 -305 0
-977 -1289 0
-977 299 0
-299 977 1283 1284 1285 1286 1287 1288 1289 0
-1290 161 0
-1290 122 0
1290 -161 -122 0
-978 -1290 0
-1291 167 0
-1291 123 0
1291 -167 -123 0
-978 -1291 0
-1292 172 0
-1292 124 0
1292 -172 -124 0
-978 -1292 0
-1293 176 0
-1293 125 0
1293 -176 -125 0
-978 -1293 0
-1294 300 0
-1294 127 0
1294 -300 -127 0
-978 -1294 0
-1295 301 0
-1295 128 0
1295 -301 -128 0
-978 -1295 0
-1296 302 0
-1296 129 0
1296 -302 -129 0
-978 -1296 0
-978 126 0
-126 978 1290 1291 1292 1293 1294 1295 1296 0
-1297 126 0
-1297 242 0
1297 -126 -242 0
-979 -1297 0
-1298 167 0
-1298 158 0
1298 -167 -158 0
-979 -1298 0
-1299 172 0
-1299 159 0
1299 -172 -159 0
-979 -1299 0
-1300 176 0
-1300 160 0
1300 -176 -160 0
-979 -1300 0
-1301 300 0
-1301 162 0
1301 -300 -162 0
-979 -1301 0
-1302 301 0
-1302 163 0
1302 -301 -163 0
-979 -1302 0
-1303 302 0
-1303 164 0
1303 -302 -164 0
-979 -1303 0
-979 161 0
-161 979 1297 1298 1299 1300 1301 1302 1303 0
-1304 126 0
-1304 243 0
1304 -126 -243 0
-980 -1304 0
-1305 161 0
-1305 278 0
1305 -161 -278 0
-980 -1305 0
-1306 172 0
-1306 165 0
1306 -172 -165 0
-980 -1306 0
-1307 176 0
-1307 166 0
1307 -176 -166 0
-980 -1307 0
-1308 300 0
-1308 168 0
1308 -300 -168 0
-980 -1308 0
-1309 301 0
-1309 169 0
1309 -301 -169 0
-980 -1309 0
-1310 302 0
-1310 170 0
1310 -302 -170 0
-980 -1310 0
-980 167 0
-167 980 1304 1305 1306 1307 1308 1309 1310 0
-1311 126 0
-1311 244 0
1311 -126 -244 0
-981 -1311 0
-1312 161 0
-1312 279 0
1312 -161 -279 0
-981 -1312 0
-1313 167 0
-1313 285 0
1313 -167 -285 0
-981 -1313 0
-1314 176 0
-1314 171 0
1314 -176 -171 0
-981 -1314 0
-1315 300 0
-1315 173 0
1315 -300 -173 0
-981 -1315 0
-1316 301 0
-1316 174 0
1316 -301 -174 0
-981 -1316 0
-1317 302 0
-1317 175 0
1317 -302 -175 0
-981 -1317 0
-981 172 0
-172 981 1311 1312 1313 1314 1315 1316 1317 0
-1318 126 0
-1318 245 0
1318 -126 -245 0
-982 -1318 0
-1319 161 0
-1319 280 0
1319 -161 -280 0
-982 -1319 0
-1320 167 0
-1320 286 0
1320 -167 -286 0
-982 -1320 0
-1321 172 0
-1321 291 0
1321 -172 -291 0
-982 -1321 0
-1322 300 0
-1322 177 0
1322 -300 -177 0
-982 -1322 0
-1323 301 0
-1323 178 0
1323 -301 -178 0
-982 -1323 0
-1324 302 0
-1324 179 0
1324 -302 -179 0
-982 -1324 0
-982 176 0
-176 982 1318 1319 1320 1321 1322 1323 1324 0
-1325 126 0
-1325 247 0
1325 -126 -247 0
-983 -1325 0
-1326 161 0
-1326 282 0
1326 -161 -282 0
-983 -1326 0
-1327 167 0
-1327 288 0
1327 -167 -288 0
-983 -1327 0
-1328 172 0
-1328 293 0
1328 -172 -293 0
-983 -1328 0
-1329 176 0
-1329 297 0
1329 -176 -297 0
-983 -1329 0
-1330 301 0
-1330 183 0
1330 -301 -183 0
-983 -1330 0
-1331 302 0
-1331 184 0
1331 -302 -184 0
-983 -1331 0
-983 300 0
-300 983 1325 1326 1327 1328 1329 1330 1331 0
-1332 126 0
-1332 248 0
1332 -126 -248 0
-984 -1332 0
-1333 161 0
-1333 283 0
1333 -161 -283 0
-984 -1333 0
-1334 167 0
-1334 289 0
1334 -167 -289 0
-984 -1334 0
-1335 172 0
-1335 294 0
1335 -172 -294 0
-984 -1335 0
-1336 176 0
-1336 298 0
1336 -176 -298 0
-984 -1336 0
-1337 300 0
-1337 303 0
1337 -300 -303 0
-984 -1337 0
-1338 302 0
-1338 185 0
1338 -302 -185 0
-984 -1338 0
-984 301 0
-301 984 1332 1333 1334 1335 1336 1337 1338 0
-1339 126 0
-1339 249 0
1339 -126 -249 0
-985 -1339 0
-1340 161 0
-1340 284 0
1340 -161 -284 0
-985 -1340 0
-1341 167 0
-1341 290 0
1341 -167 -290 0
-985 -1341 0
-1342 172 0
-1342 295 0
1342 -172 -295 0
-985 -1342 0
-1343 176 0
-1343 299 0
1343 -176 -299 0
-985 -1343 0
-1344 300 0
-1344 304 0
1344 -300 -304 0
-985 -1344 0
-1345 301 0
-1345 305 0
1345 -301 -305 0
-985 -1345 0
-985 302 0
-302 985 1339 1340 1341 1342 1343 1344 1345 0
-1346 162 0
-1346 122 0
1346 -162 -122 0
-986 -1346 0
-1347 168 0
-1347 123 0
1347 -168 -123 0
-986 -1347 0
-1348 173 0
-1348 124 0
1348 -173 -124 0
-986 -1348 0
-1349 177 0
-1349 125 0
1349 -177 -125 0
-986 -1349 0
-1350 180 0
-1350 126 0
1350 -180 -126 0
-986 -1350 0
-1351 303 0
-1351 128 0
1351 -303 -128 0
-986 -1351 0
-1352 304 0
-1352 129 0
1352 -304 -129 0
-986 -1352 0
-986 127 0
-127 986 1346 1347 1348 1349 1350 1351 1352 0
-1353 127 0
-1353 242 0
1353 -127 -242 0
-987 -1353 0
-1354 168 0
-1354 158 0
1354 -168 -158 0
-987 -1354 0
-1355 173 0
-1355 159 0
1355 -173 -159 0
-987 -1355 0
-1356 177 0
-1356 160 0
1356 -177 -160 0
-987 -1356 0
-1357 180 0
-1357 161 0
1357 -180 -161 0
-987 -1357 0
-1358 303 0
-1358 163 0
1358 -303 -163 0
-987 -1358 0
-1359 304 0
-1359 164 0
1359 -304 -164 0
-987 -1359 0
-987 162 0
-162 987 1353 1354 1355 1356 1357 1358 1359 0
-1360 127 0
-1360 243 0
1360 -127 -243 0
-988 -1360 0
-1361 162 0
-1361 278 0
1361 -162 -278 0
-988 -1361 0
-1362 173 0
-1362 165 0
1362 -173 -165 0
-988 -1362 0
-1363 177 0
-1363 166 0
1363 -177 -166 0
-988 -1363 0
-1364 180 0
-1364 167 0
1364 -180 -167 0
-988 -1364 0
-1365 303 0
-1365 169 0
1365 -303 -169 0
-988 -1365 0
-1366 304 0
-1366 170 0
1366 -304 -170 0
-988 -1366 0
-988 168 0
-168 988 1360 1361 1362 1363 1364 1365 1366 0
-1367 127 0
-1367 244 0
1367 -127 -244 0
-989 -1367 0
-1368 162 0
-1368 279 0
1368 -162 -279 0
-989 -1368 0
-1369 168 0
-1369 285 0
1369 -168 -285 0
-989 -1369 0
-1370 177 0
-1370 171 0
1370 -177 -171 0
-989 -1370 0
-1371 180 0
-1371 172 0
1371 -180 -172 0
-989 -1371 0
-1372 303 0
-1372 174 0
1372 -303 -174 0
-989 -1372 0
-1373 304 0
-1373 175 0
1373 -304 -175 0
-989 -1373 0
-989 173 0
-173 989 1367 1368 1369 1370 1371 1372 1373 0
-1374 127 0
-1374 245 0
1374 -127 -245 0
-990 -1374 0
-1375 162 0
-1375 280 0
1375 -162 -280 0
-990 -1375 0
-1376 168 0
-1376 286 0
1376 -168 -286 0
-990 -1376 0
-1377 173 0
-1377 291 0
1377 -173 -291 0
-990 -1377 0
-1378 180 0
-1378 176 0
1378 -180 -176 0
-990 -1378 0
-1379 303 0
-1379 178 0
1379 -303 -178 0
-990 -1379 0
-1380 304 0
-1380 179 0
1380 -304 -179 0
-990 -1380 0
-990 177 0
-177 990 1374 1375 1376 1377 1378 1379 1380 0
-1381 127 0
-1381 246 0
1381 -127 -246 0
-991 -1381 0
-1382 162 0
-1382 281 0
1382 -162 -281 0
-991 -1382 0
-1383 168 0
-1383 287 0
1383 -168 -287 0
-991 -1383 0
-1384 173 0
-1384 292 0
1384 -173 -292 0
-991 -1384 0
-1385 177 0
-1385 296 0
1385 -177 -296 0
-991 -1385 0
-1386 303 0
-1386 181 0
1386 -303 -181 0
-991 -1386 0
-1387 304 0
-1387 182 0
1387 -304 -182 0
-991 -1387 0
-991 180 0
-180 991 1381 1382 1383 1384 1385 1386 1387 0
-1388 127 0
-1388 248 0
1388 -127 -248 0
-992 -1388 0
-1389 162 0
-1389 283 0
1389 -162 -283 0
-992 -1389 0
-1390 168 0
-1390 289 0
1390 -168 -289 0
-992 -1390 0
-1391 173 0
-1391 294 0
1391 -173 -294 0
-992 -1391 0
-1392 177 0
-1392 298 0
1392 -177 -298 0
-992 -1392 0
-1393 180 0
-1393 301 0
1393 -180 -301 0
-992 -1393 0
-1394 304 0
-1394 185 0
1394 -304 -185 0
-992 -1394 0
-992 303 0
-303 992 1388 1389 1390 1391 1392 1393 1394 0
-1395 127 0
-1395 249 0
1395 -127 -249 0
-993 -1395 0
-1396 162 0
-1396 284 0
1396 -162 -284 0
-993 -1396 0
-1397 168 0
-1397 290 0
1397 -168 -290 0
-993 -1397 0
-1398 173 0
-1398 295 0
1398 -173 -295 0
-993 -1398 0
-1399 177 0
-1399 299 0
1399 -177 -299 0
-993 -1399 0
-1400 180 0
-1400 302 0
1400 -180 -302 0
-993 -1400 0
-1401 303 0
-1401 305 0
1401 -303 -305 0
-993 -1401 0
-993 304 0
-304 993 1395 1396 1397 1398 1399 1400 1401 0
-1402 163 0
-1402 122 0
1402 -163 -122 0
-994 -1402 0
-1403 169 0
-1403 123 0
1403 -169 -123 0
-994 -1403 0
-1404 174 0
-1404 124 0
1404 -174 -124 0
-994 -1404 0
-1405 178 0
-1405 125 0
1405 -178 -125 0
-994 -1405 0
-1406 181 0
-1406 126 0
1406 -181 -126 0
-994 -1406 0
-1407 183 0
-1407 127 0
1407 -183 -127 0
-994 -1407 0
-1408 305 0
-1408 129 0
1408 -305 -129 0
-994 -1408 0
-994 128 0
-128 994 1402 1403 1404 1405 1406 1407 1408 0
-1409 128 0
-1409 242 0
1409 -128 -242 0
-995 -1409 0
-1410 169 0
-1410 158 0
1410 -169 -158 0
-995 -1410 0
-1411 174 0
-1411 159 0
1411 -174 -159 0
-995 -1411 0
-1412 178 0
-1412 160 0
1412 -178 -160 0
-995 -1412 0
-1413 181 0
-1413 161 0
1413 -181 -161 0
-995 -1413 0
-1414 183 0
-1414 162 0
1414 -183 -162 0
-995 -1414 0
-1415 305 0
-1415 164 0
1415 -305 -164 0
-995 -1415 0
-995 163 0
-163 995 1409 1410 1411 1412 1413 1414 1415 0
-1416 128 0
-1416 243 0
1416 -128 -243 0
-996 -1416 0
-1417 163 0
-1417 278 0
1417 -163 -278 0
-996 -1417 0
-1418 174 0
-1418 165 0
1418 -174 -165 0
-996 -1418 0
-1419 178 0
-1419 166 0
1419 -178 -166 0
-996 -1419 0
-1420 181 0
-1420 167 0
1420 -181 -167 0
-996 -1420 0
-1421 183 0
-1421 168 0
1421 -183 -168 0
-996 -1421 0
-1422 305 0
-1422 170 0
1422 -305 -170 0
-996 -1422 0
-996 169 0
-169 996 1416 1417 1418 1419 1420 1421 1422 0
-1423 128 0
-1423 244 0
1423 -128 -244 0
-997 -1423 0
-1424 163 0
-1424 279 0
1424 -163 -279 0
-997 -1424 0
-1425 169 0
-1425 285 0
1425 -169 -285 0
-997 -1425 0
-1426 178 0
-1426 171 0
1426 -178 -171 0
-997 -1426 0
-1427 181 0
-1427 172 0
1427 -181 -172 0
-997 -1427 0
-1428 183 0
-1428 173 0
1428 -183 -173 0
-997 -1428 0
-1429 305 0
-1429 175 0
1429 -305 -175 0
-997 -1429 0
-997 174 0
-174 997 1423 1424 1425 1426 1427 1428 1429 0
-1430 128 0
-1430 245 0
1430 -128 -245 0
-998 -1430 0
-1431 163 0
-1431 280 0
1431 -163 -280 0
-998 -1431 0
-1432 169 0
-1432 286 0
1432 -169 -286 0
-998 -1432 0
-1433 174 0
-1433 291 0
1433 -174 -291 0
-998 -1433 0
-1434 181 0
-1434 176 0
1434 -181 -176 0
-998 -1434 0
-1435 183 0
-1435 177 0
1435 -183 -177 0
-998 -1435 0
-1436 305 0
-1436 179 0
1436 -305 -179 0
-998 -1436 0
-998 178 0
-178 998 1430 1431 1432 1433 1434 1435 1436 0
-1437 128 0
-1437 246 0
1437 -128 -246 0
-999 -1437 0
-1438 163 0
-1438 281 0
1438 -163 -281 0
-999 -1438 0
-1439 169 0
-1439 287 0
1439 -169 -287 0
-999 -1439 0
-1440 174 0
-1440 292 0
1440 -174 -292 0
-999 -1440 0
-1441 178 0
-1441 296 0
1441 -178 -296 0
-999 -1441 0
-1442 183 0
-1442 180 0
1442 -183 -180 0
-999 -1442 0
-1443 305 0
-1443 182 0
1443 -305 -182 0
-999 -1443 0
-999 181 0
-181 999 1437 1438 1439 1440 1441 1442 1443 0
-1444 128 0
-1444 247 0
1444 -128 -247 0
-1000 -1444 0
-1445 163 0
-1445 282 0
1445 -163 -282 0
-1000 -1445 0
-1446 169 0
-1446 288 0
1446 -169 -288 0
-1000 -1446 0
-1447 174 0
-1447 293 0
1447 -174 -293 0
-1000 -1447 0
-1448 178 0
-1448 297 0
1448 -178 -297 0
-1000 -1448 0
-1449 181 0
-1449 300 0
1449 -181 -300 0
-1000 -1449 0
-1450 305 0
-1450 184 0
1450 -305 -184 0
-1000 -1450 0
-1000 183 0
-183 1000 1444 1445 1446 1447 1448 1449 1450 0
-1451 128 0
-1451 249 0
1451 -128 -249 0
-1001 -1451 0
-1452 163 0
-1452 284 0
1452 -163 -284 0
-1001 -1452 0
-1453 169 0
-1453 290 0
1453 -169 -290 0
-1001 -1453 0
-1454 174 0
-1454 295 0
1454 -174 -295 0
-1001 -1454 0
-1455 178 0
-1455 299 0
1455 -178 -299 0
-1001 -1455 0
-1456 181 0
-1456 302 0
1456 -181 -302 0
-1001 -1456 0
-1457 183 0
-1457 304 0
1457 -183 -304 0
-1001 -1457 0
-1001 305 0
-305 1001 1451 1452 1453 1454 1455 1456 1457 0
-1458 164 0
-1458 122 0
1458 -164 -122 0
-1002 -1458 0
-1459 170 0
-1459 123 0
1459 -170 -123 0
-1002 -1459 0
-1460 175 0
-1460 124 0
1460 -175 -124 0
-1002 -1460 0
-1461 179 0
-1461 125 0
1461 -179 -125 0
-1002 -1461 0
-1462 182 0
-1462 126 0
1462 -182 -126 0
-1002 -1462 0
-1463 184 0
-1463 127 0
1463 -184 -127 0
-1002 -1463 0
-1464 185 0
-1464 128 0
1464 -185 -128 0
-1002 -1464 0
-1002 129 0
-129 1002 1458 1459 1460 1461 1462 1463 1464 0
-1465 129 0
-1465 242 0
1465 -129 -242 0
-1003 -1465 0
-1466 170 0
-1466 158 0
1466 -170 -158 0
-1003 -1466 0
-1467 175 0
-1467 159 0
1467 -175 -159 0
-1003 -1467 0
-1468 179 0
-1468 160 0
1468 -179 -160 0
-1003 -1468 0
-1469 182 0
-1469 161 0
1469 -182 -161 0
-1003 -1469 0
-1470 184 0
-1470 162 0
1470 -184 -162 0
-1003 -1470 0
-1471 185 0
-1471 163 0
1471 -185 -163 0
-1003 -1471 0
-1003 164 0
-164 1003 1465 1466 1467 1468 1469 1470 1471 0
-1472 129 0
-1472 243 0
1472 -129 -243 0
-1004 -1472 0
-1473 164 0
-1473 278 0
1473 -164 -278 0
-1004 -1473 0
-1474 175 0
-1474 165 0
1474 -175 -165 0
-1004 -1474 0
-1475 179 0
-1475 166 0
1475 -179 -166 0
-1004 -1475 0
-1476 182 0
-1476 167 0
1476 -182 -167 0
-1004 -1476 0
-1477 184 0
-1477 168 0
1477 -184 -168 0
-1004 -1477 0
-1478 185 0
-1478 169 0
1478 -185 -169 0
-1004 -1478 0
-1004 170 0
-170 1004 1472 1473 1474 1475 1476 1477 1478 0
-1479 129 0
-1479 244 0
1479 -129 -244 0
-1005 -1479 0
-1480 164 0
-1480 279 0
1480 -164 -279 0
-1005 -1480 0
-1481 170 0
-1481 285 0
1481 -170 -285 0
-1005 -1481 0
-1482 179 0
-1482 171 0
1482 -179 -171 0
-1005 -1482 0
-1483 182 0
-1483 172 0
1483 -182 -172 0
-1005 -1483 0
-1484 184 0
-1484 173 0
1484 -184 -173 0
-1005 -1484 0
-1485 185 0
-1485 174 0
1485 -185 -174 0
-1005 -1485 0
-1005 175 0
-175 1005 1479 1480 1481 1482 1483 1484 1485 0
-1486 129 0
-1486 245 0
1486 -129 -245 0
-1006 -1486 0
-1487 164 0
-1487 280 0
1487 -164 -280 0
-1006 -1487 0
-1488 170 0
-1488 286 0
1488 -170 -286 0
-1006 -1488 0
-1489 175 0
-1489 291 0
1489 -175 -291 0
-1006 -1489 0
-1490 182 0
-1490 176 0
1490 -182 -176 0
-1006 -1490 0
-1491 184 0
-1491 177 0
1491 -184 -177 0
-1006 -1491 0
-1492 185 0
-1492 178 0
1492 -185 -178 0
-1006 -1492 0
-1006 179 0
-179 1006 1486 1487 1488 1489 1490 1491 1492 0
-1493 129 0
-1493 246 0
1493 -129 -246 0
-1007 -1493 0
-1494 164 0
-1494 281 0
1494 -164 -281 0
-1007 -1494 0
-1495 170 0
-1495 287 0
1495 -170 -287 0
-1007 -1495 0
-1496 175 0
-1496 292 0
1496 -175 -292 0
-1007 -1496 0
-1497 179 0
-1497 296 0
1497 -179 -296 0
-1007 -1497 0
-1498 184 0
-1498 180 0
1498 -184 -180 0
-1007 -1498 0
-1499 185 0
-1499 181 0
1499 -185 -181 0
-1007 -1499 0
-1007 182 0
-182 1007 1493 1494 1495 1496 1497 1498 1499 0
-1500 129 0
-1500 247 0
1500 -129 -247 0
-1008 -1500 0
-1501 164 0
-1501 282 0
1501 -164 -282 0
-1008 -1501 0
-1502 170 0
-1502 288 0
1502 -170 -288 0
-1008 -1502 0
-1503 175 0
-1503 293 0
1503 -175 -293 0
-1008 -1503 0
-1504 179 0
-1504 297 0
1504 -179 -297 0
-1008 -1504 0
-1505 182 0
-1505 300 0
1505 -182 -300 0
-1008 -1505 0
-1506 185 0
-1506 183 0
1506 -185 -183 0
-1008 -1506 0
-1008 184 0
-184 1008 1500 1501 1502 1503 1504 1505 1506 0
-1507 129 0
-1507 248 0
1507 -129 -248 0
-1009 -1507 0
-1508 164 0
-1508 283 0
1508 -164 -283 0
-1009 -1508 0
-1509 170 0
-1509 289 0
1509 -170 -289 0
-1009 -1509 0
-1510 175 0
-1510 294 0
1510 -175 -294 0
-1009 -1510 0
-1511 179 0
-1511 298 0
1511 -179 -298 0
-1009 -1511 0
-1512 182 0
-1512 301 0
1512 -182 -301 0
-1009 -1512 0
-1513 184 0
-1513 303 0
1513 -184 -303 0
-1009 -1513 0
-1009 185 0
-185 1009 1507 1508 1509 1510 1511 1512 1513 0
-1586 250 0
-1586 158 0
1586 -250 -158 0
-1514 -1586 0
-1587 251 0
-1587 159 0
1587 -251 -159 0
-1514 -1587 0
-1588 252 0
-1588 160 0
1588 -252 -160 0
-1514 -1588 0
-1589 253 0
-1589 161 0
1589 -253 -161 0
-1514 -1589 0
-1590 254 0
-1590 162 0
1590 -254 -162 0
-1514 -1590 0
-1591 255 0
-1591 163 0
1591 -255 -163 0
-1514 -1591 0
-1592 256 0
-1592 164 0
1592 -256 -164 0
-1514 -1592 0
-1514 242 0
-242 1514 1586 1587 1588 1589 1590 1591 1592 0
-1593 242 0
-1593 278 0
1593 -242 -278 0
-1515 -1593 0
-1594 251 0
-1594 186 0
1594 -251 -186 0
-1515 -1594 0
-1595 252 0
-1595 187 0
1595 -252 -187 0
-1515 -1595 0
-1596 253 0
-1596 188 0
1596 -253 -188 0
-1515 -1596 0
-1597 254 0
-1597 189 0
1597 -254 -189 0
-1515 -1597 0
-1598 255 0
-1598 190 0
1598 -255 -190 0
-1515 -1598 0
-1599 256 0
-1599 191 0
1599 -256 -191 0
-1515 -1599 0
-1515 250 0
-250 1515 1593 1594 1595 1596 1597 1598 1599 0
-1600 242 0
-1600 279 0
1600 -242 -279 0
-1516 -1600 0
-1601 250 0
-1601 306 0
1601 -250 -306 0
-1516 -1601 0
-1602 252 0
-1602 192 0
1602 -252 -192 0
-1516 -1602 0
-1603 253 0
-1603 193 0
1603 -253 -193 0
-1516 -1603 0
-1604 254 0
-1604 194 0
1604 -254 -194 0
-1516 -1604 0
-1605 255 0
-1605 195 0
1605 -255 -195 0
-1516 -1605 0
-1606 256 0
-1606 196 0
1606 -256 -196 0
-1516 -1606 0
-1516 251 0
-251 1516 1600 1601 1602 1603 1604 1605 1606 0
-1607 242 0
-1607 280 0
1607 -242 -280 0
-1517 -1607 0
-1608 250 0
-1608 307 0
1608 -250 -307 0
-1517 -1608 0
-1609 251 0
-1609 312 0
1609 -251 -312 0
-1517 -1609 0
-1610 253 0
-1610 197 0
1610 -253 -197 0
-1517 -1610 0
-1611 254 0
-1611 198 0
1611 -254 -198 0
-1517 -1611 0
-1612 255 0
-1612 199 0
1612 -255 -199 0
-1517 -1612 0
-1613 256 0
-1613 200 0
1613 -256 -200 0
-1517 -1613 0
-1517 252 0
-252 1517 1607 1608 1609 1610 1611 1612 1613 0
-1614 242 0
-1614 281 0
1614 -242 -281 0
-1518 -1614 0
-1615 250 0
-1615 308 0
1615 -250 -308 0
-1518 -1615 0
-1616 251 0
-1616 313 0
1616 -251 -313 0
-1518 -1616 0
-1617 252 0
-1617 317 0
1617 -252 -317 0
-1518 -1617 0
-1618 254 0
-1618 201 0
1618 -254 -201 0
-1518 -1618 0
-1619 255 0
-1619 202 0
1619 -255 -202 0
-1518 -1619 0
-1620 256 0
-1620 203 0
1620 -256 -203 0
-1518 -1620 0
-1518 253 0
-253 1518 1614 1615 1616 1617 1618 1619 1620 0
-1621 242 0
-1621 282 0
1621 -242 -282 0
-1519 -1621 0
-1622 250 0
-1622 309 0
1622 -250 -309 0
-1519 -1622 0
-1623 251 0
-1623 314 0
1623 -251 -314 0
-1519 -1623 0
-1624 252 0
-1624 318 0
1624 -252 -318 0
-1519 -1624 0
-1625 253 0
-1625 321 0
1625 -253 -321 0
-1519 -1625 0
-1626 255 0
-1626 204 0
1626 -255 -204 0
-1519 -1626 0
-1627 256 0
-1627 205 0
1627 -256 -205 0
-1519 -1627 0
-1519 254 0
-254 1519 1621 1622 1623 1624 1625 1626 1627 0
-1628 242 0
-1628 283 0
1628 -242 -283 0
-1520 -1628 0
-1629 250 0
-1629 310 0
1629 -250 -310 0
-1520 -1629 0
-1630 251 0
-1630 315 0
1630 -251 -315 0
-1520 -1630 0
-1631 252 0
-1631 319 0
1631 -252 -319 0
-1520 -1631 0
-1632 253 0
-1632 322 0
1632 -253 -322 0
-1520 -1632 0
-1633 254 0
-1633 324 0
1633 -254 -324 0
-1520 -1633 0
-1634 256 0
-1634 206 0
1634 -256 -206 0
-1520 -1634 0
-1520 255 0
-255 1520 1628 1629 1630 1631 1632 1633 1634 0
-1635 242 0
-1635 284 0
1635 -242 -284 0
-1521 -1635 0
-1636 250 0
-1636 311 0
1636 -250 -311 0
-1521 -1636 0
-1637 251 0
-1637 316 0
1637 -251 -316 0
-1521 -1637 0
-1638 252 0
-1638 320 0
1638 -252 -320 0
-1521 -1638 0
-1639 253 0
-1639 323 0
1639 -253 -323 0
-1521 -1639 0
-1640 254 0
-1640 325 0
1640 -254 -325 0
-1521 -1640 0
-1641 255 0
-1641 326 0
1641 -255 -326 0
-1521 -1641 0
-1521 256 0
-256 1521 1635 1636 1637 1638 1639 1640 1641 0
-1642 278 0
-1642 130 0
1642 -278 -130 0
-1522 -1642 0
-1643 279 0
-1643 131 0
1643 -279 -131 0
-1522 -1643 0
-1644 280 0
-1644 132 0
1644 -280 -132 0
-1522 -1644 0
-1645 281 0
-1645 133 0
1645 -281 -133 0
-1522 -1645 0
-1646 282 0
-1646 134 0
1646 -282 -134 0
-1522 -1646 0
-1647 283 0
-1647 135 0
1647 -283 -135 0
-1522 -1647 0
-1648 284 0
-1648 136 0
1648 -284 -136 0
-1522 -1648 0
-1522 122 0
-122 1522 1642 1643 1644 1645 1646 1647 1648 0
-1649 122 0
-1649 250 0
1649 -122 -250 0
-1523 -1649 0
-1650 279 0
-1650 186 0
1650 -279 -186 0
-1523 -1650 0
-1651 280 0
-1651 187 0
1651 -280 -187 0
-1523 -1651 0
-1652 281 0
-1652 188 0
1652 -281 -188 0
-1523 -1652 0
-1653 282 0
-1653 189 0
1653 -282 -189 0
-1523 -1653 0
-1654 283 0
-1654 190 0
1654 -283 -190 0
-1523 -1654 0
-1655 284 0
-1655 191 0
1655 -284 -191 0
-1523 -1655 0
-1523 278 0
-278 1523 1649 1650 1651 1652 1653 1654 1655 0
-1656 122 0
-1656 251 0
1656 -122 -251 0
-1524 -1656 0
-1657 278 0
-1657 306 0
1657 -278 -306 0
-1524 -1657 0
-1658 280 0
-1658 192 0
1658 -280 -192 0
-1524 -1658 0
-1659 281 0
-1659 193 0
1659 -281 -193 0
-1524 -1659 0
-1660 282 0
-1660 194 0
1660 -282 -194 0
-1524 -1660 0
-1661 283 0
-1661 195 0
1661 -283 -195 0
-1524 -1661 0
-1662 284 0
-1662 196 0
1662 -284 -196 0
-1524 -1662 0
-1524 279 0
-279 1524 1656 1657 1658 1659 1660 1661 1662 0
-1663 122 0
-1663 252 0
1663 -122 -252 0
-1525 -1663 0
-1664 278 0
-1664 307 0
1664 -278 -307 0
-1525 -1664 0
-1665 279 0
-1665 312 0
1665 -279 -312 0
-1525 -1665 0
-1666 281 0
-1666 197 0
1666 -281 -197 0
-1525 -1666 0
-1667 282 0
-1667 198 0
1667 -282 -198 0
-1525 -1667 0
-1668 283 0
-1668 199 0
1668 -283 -199 0
-1525 -1668 0
-1669 284 0
-1669 200 0
1669 -284 -200 0
-1525 -1669 0
-1525 280 0
-280 1525 1663 1664 1665 1666 1667 1668 1669 0
-1670 122 0
-1670 253 0
1670 -122 -253 0
-1526 -1670 0
-1671 278 0
-1671 308 0
1671 -278 -308 0
-1526 -1671 0
-1672 279 0
-1672 313 0
1672 -279 -313 0
-1526 -1672 0
-1673 280 0
-1673 317 0
1673 -280 -317 0
-1526 -1673 0
-1674 282 0
-1674 201 0
1674 -282 -201 0
-1526 -1674 0
-1675 283 0
-1675 202 0
1675 -283 -202 0
-1526 -1675 0
-1676 284 0
-1676 203 0
1676 -284 -203 0
-1526 -1676 0
-1526 281 0
-281 1526 1670 1671 1672 1673 1674 1675 1676 0
-1677 122 0
-1677 254 0
1677 -122 -254 0
-1527 -1677 0
-1678 278 0
-1678 309 0
1678 -278 -309 0
-1527 -1678 0
-1679 279 0
-1679 314 0
1679 -279 -314 0
-1527 -1679 0
-1680 280 0
-1680 318 0
1680 -280 -318 0
-1527 -1680 0
-1681 281 0
-1681 321 0
1681 -281 -321 0
-1527 -1681 0
-1682 283 0
-1682 204 0
1682 -283 -204 0
-1527 -1682 0
-1683 284 0
-1683 205 0
1683 -284 -205 0
-1527 -1683 0
-1527 282 0
-282 1527 1677 1678 1679 1680 1681 1682 1683 0
-1684 122 0
-1684 255 0
1684 -122 -255 0
-1528 -1684 0
-1685 278 0
-1685 310 0
1685 -278 -310 0
-1528 -1685 0
-1686 279 0
-1686 315 0
1686 -279 -315 0
-1528 -1686 0
-1687 280 0
-1687 319 0
1687 -280 -319 0
-1528 -1687 0
-1688 281 0
-1688 322 0
1688 -281 -322 0
-1528 -1688 0
-1689 282 0
-1689 324 0
1689 -282 -324 0
-1528 -1689 0
-1690 284 0
-1690 206 0
1690 -284 -206 0
-1528 -1690 0
-1528 283 0
-283 1528 1684 1685 1686 1687 1688 1689 1690 0
-1691 122 0
-1691 256 0
1691 -122 -256 0
-1529 -1691 0
-1692 278 0
-1692 311 0
1692 -278 -311 0
-1529 -1692 0
-1693 279 0
-1693 316 0
1693 -279 -316 0
-1529 -1693 0
-1694 280 0
-1694 320 0
1694 -280 -320 0
-1529 -1694 0
-1695 281 0
-1695 323 0
1695 -281 -323 0
-1529 -1695 0
-1696 282 0
-1696 325 0
1696 -282 -325 0
-1529 -1696 0
-1697 283 0
-1697 326 0
1697 -283 -326 0
-1529 -1697 0
-1529 284 0
-284 1529 1691 1692 1693 1694 1695 1696 1697 0
-1698 158 0
-1698 122 0
1698 -158 -122 0
-1530 -1698 0
-1699 306 0
-1699 131 0
1699 -306 -131 0
-1530 -1699 0
-1700 307 0
-1700 132 0
1700 -307 -132 0
-1530 -1700 0
-1701 308 0
-1701 133 0
1701 -308 -133 0
-1530 -1701 0
-1702 309 0
-1702 134 0
1702 -309 -134 0
-1530 -1702 0
-1703 310 0
-1703 135 0
1703 -310 -135 0
-1530 -1703 0
-1704 311 0
-1704 136 0
1704 -311 -136 0
-1530 -1704 0
-1530 130 0
-130 1530 1698 1699 1700 1701 1702 1703 1704 0
-1705 130 0
-1705 242 0
1705 -130 -242 0
-1531 -1705 0
-1706 306 0
-1706 159 0
1706 -306 -159 0
-1531 -1706 0
-1707 307 0
-1707 160 0
1707 -307 -160 0
-1531 -1707 0
-1708 308 0
-1708 161 0
1708 -308 -161 0
-1531 -1708 0
-1709 309 0
-1709 162 0
1709 -309 -162 0
-1531 -1709 0
-1710 310 0
-1710 163 0
1710 -310 -163 0
-1531 -1710 0
-1711 311 0
-1711 164 0
1711 -311 -164 0
-1531 -1711 0
-1531 158 0
-158 1531 1705 1706 1707 1708 1709 1710 1711 0
-1712 130 0
-1712 251 0
1712 -130 -251 0
-1532 -1712 0
-1713 158 0
-1713 279 0
1713 -158 -279 0
-1532 -1713 0
-1714 307 0
-1714 192 0
1714 -307 -192 0
-1532 -1714 0
-1715 308 0
-1715 193 0
1715 -308 -193 0
-1532 -1715 0
-1716 309 0
-1716 194 0
1716 -309 -194 0
-1532 -1716 0
-1717 310 0
-1717 195 0
1717 -310 -195 0
-1532 -1717 0
-1718 311 0
-1718 196 0
1718 -311 -196 0
-1532 -1718 0
-1532 306 0
-306 1532 1712 1713 1714 1715 1716 1717 1718 0
-1719 130 0
-1719 252 0
1719 -130 -252 0
-1533 -1719 0
-1720 158 0
-1720 280 0
1720 -158 -280 0
-1533 -1720 0
-1721 306 0
-1721 312 0
1721 -306 -312 0
-1533 -1721 0
-1722 308 0
-1722 197 0
1722 -308 -197 0
-1533 -1722 0
-1723 309 0
-1723 198 0
1723 -309 -198 0
-1533 -1723 0
-1724 310 0
-1724 199 0
1724 -310 -199 0
-1533 -1724 0
-1725 311 0
-1725 200 0
1725 -311 -200 0
-1533 -1725 0
-1533 307 0
-307 1533 1719 1720 1721 1722 1723 1724 1725 0
-1726 130 0
-1726 253 0
1726 -130 -253 0
-1534 -1726 0
-1727 158 0
-1727 281 0
1727 -158 -281 0
-1534 -1727 0
-1728 306 0
-1728 313 0
1728 -306 -313 0
-1534 -1728 0
-1729 307 0
-1729 317 0
1729 -307 -317 0
-1534 -1729 0
-1730 309 0
-1730 201 0
1730 -309 -201 0
-1534 -1730 0
-1731 310 0
-1731 202 0
1731 -310 -202 0
-1534 -1731 0
-1732 311 0
-1732 203 0
1732 -311 -203 0
-1534 -1732 0
-1534 308 0
-308 1534 1726 1727 1728 1729 1730 1731 1732 0
-1733 130 0
-1733 254 0
1733 -130 -254 0
-1535 -1733 0
-1734 158 0
-1734 282 0
1734 -158 -282 0
-1535 -1734 0
-1735 306 0
-1735 314 0
1735 -306 -314 0
-1535 -1735 0
-1736 307 0
-1736 318 0
1736 -307 -318 0
-1535 -1736 0
-1737 308 0
-1737 321 0
1737 -308 -321 0
-1535 -1737 0
-1738 310 0
-1738 204 0
1738 -310 -204 0
-1535 -1738 0
-1739 311 0
-1739 205 0
1739 -311 -205 0
-1535 -1739 0
-1535 309 0
-309 1535 1733 1734 1735 1736 1737 1738 1739 0
-1740 130 0
-1740 255 0
1740 -130 -255 0
-1536 -1740 0
-1741 158 0
-1741 283 0
1741 -158 -283 0
-1536 -1741 0
-1742 306 0
-1742 315 0
1742 -306 -315 0
-1536 -1742 0
-1743 307 0
-1743 319 0
1743 -307 -319 0
-1536 -1743 0
-1744 308 0
-1744 322 0
1744 -308 -322 0
-1536 -1744 0
-1745 309 0
-1745 324 0
1745 -309 -324 0
-1536 -1745 0
-1746 311 0
-1746 206 0
1746 -311 -206 0
-1536 -1746 0
-1536 310 0
-310 1536 1740 1741 1742 1743 1744 1745 1746 0
-1747 130 0
-1747 256 0
1747 -130 -256 0
-1537 -1747 0
-1748 158 0
-1748 284 0
1748 -158 -284 0
-1537 -1748 0
-1749 306 0
-1749 316 0
1749 -306 -316 0
-1537 -1749 0
-1750 307 0
-1750 320 0
1750 -307 -320 0
-1537 -1750 0
-1751 308 0
-1751 323 0
1751 -308 -323 0
-1537 -1751 0
-1752 309 0
-1752 325 0
1752 -309 -325 0
-1537 -1752 0
-1753 310 0
-1753 326 0
1753 -310 -326 0
-1537 -1753 0
-1537 311 0
-311 1537 1747 1748 1749 1750 1751 1752 1753 0
-1754 159 0
-1754 122 0
1754 -159 -122 0
-1538 -1754 0
-1755 186 0
-1755 130 0
1755 -186 -130 0
-1538 -1755 0
-1756 312 0
-1756 132 0
1756 -312 -132 0
-1538 -1756 0
-1757 313 0
-1757 133 0
1757 -313 -133 0
-1538 -1757 0
-1758 314 0
-1758 134 0
1758 -314 -134 0
-1538 -1758 0
-1759 315 0
-1759 135 0
1759 -315 -135 0
-1538 -1759 0
-1760 316 0
-1760 136 0
1760 -316 -136 0
-1538 -1760 0
-1538 131 0
-131 1538 1754 1755 1756 1757 1758 1759 1760 0
-1761 131 0
-1761 242 0
1761 -131 -242 0
-1539 -1761 0
-1762 186 0
-1762 158 0
1762 -186 -158 0
-1539 -1762 0
-1763 312 0
-1763 160 0
1763 -312 -160 0
-1539 -1763 0
-1764 313 0
-1764 161 0
1764 -313 -161 0
-1539 -1764 0
-1765 314 0
-1765 162 0
1765 -314 -162 0
-1539 -1765 0
-1766 315 0
-1766 163 0
1766 -315 -163 0
-1539 -1766 0
-1767 316 0
-1767 164 0
1767 -316 -164 0
-1539 -1767 0
-1539 159 0
-159 1539 1761 1762 1763 1764 1765 1766 1767 0
-1768 131 0
-1768 250 0
1768 -131 -250 0
-1540 -1768 0
-1769 159 0
-1769 278 0
1769 -159 -278 0
-1540 -1769 0
-1770 312 0
-1770 187 0
1770 -312 -187 0
-1540 -1770 0
-1771 313 0
-1771 188 0
1771 -313 -188 0
-1540 -1771 0
-1772 314 0
-1772 189 0
1772 -314 -189 0
-1540 -1772 0
-1773 315 0
-1773 190 0
1773 -315 -190 0
-1540 -1773 0
-1774 316 0
-1774 191 0
1774 -316 -191 0
-1540 -1774 0
-1540 186 0
-186 1540 1768 1769 1770 1771 1772 1773 1774 0
-1775 131 0
-1775 252 0
1775 -131 -252 0
-1541 -1775 0
-1776 159 0
-1776 280 0
1776 -159 -280 0
-1541 -1776 0
-1777 186 0
-1777 307 0
1777 -186 -307 0
-1541 -1777 0
-1778 313 0
-1778 197 0
1778 -313 -197 0
-1541 -1778 0
-1779 314 0
-1779 198 0
1779 -314 -198 0
-1541 -1779 0
-1780 315 0
-1780 199 0
1780 -315 -199 0
-1541 -1780 0
-1781 316 0
-1781 200 0
1781 -316 -200 0
-1541 -1781 0
-1541 312 0
-312 1541 1775 1776 1777 1778 1779 1780 1781 0
-1782 131 0
-1782 253 0
1782 -131 -253 0
-1542 -1782 0
-1783 159 0
-1783 281 0
1783 -159 -281 0
-1542 -1783 0
-1784 186 0
-1784 308 0
1784 -186 -308 0
-1542 -1784 0
-1785 312 0
-1785 317 0
1785 -312 -317 0
-1542 -1785 0
-1786 314 0
-1786 201 0
1786 -314 -201 0
-1542 -1786 0
-1787 315 0
-1787 202 0
1787 -315 -202 0
-1542 -1787 0
-1788 316 0
-1788 203 0
1788 -316 -203 0
-1542 -1788 0
-1542 313 0
-313 1542 1782 1783 1784 1785 1786 1787 1788 0
-1789 131 0
-1789 254 0
1789 -131 -254 0
-1543 -1789 0
-1790 159 0
-1790 282 0
1790 -159 -282 0
-1543 -1790 0
-1791 186 0
-1791 309 0
1791 -186 -309 0
-1543 -1791 0
-1792 312 0
-1792 318 0
1792 -312 -318 0
-1543 -1792 0
-1793 313 0
-1793 321 0
1793 -313 -321 0
-1543 -1793 0
-1794 315 0
-1794 204 0
1794 -315 -204 0
-1543 -1794 0
-1795 316 0
-1795 205 0
1795 -316 -205 0
-1543 -1795 0
-1543 314 0
-314 1543 1789 1790 1791 1792 1793 1794 1795 0
-1796 131 0
-1796 255 0
1796 -131 -255 0
-1544 -1796 0
-1797 159 0
-1797 283 0
1797 -159 -283 0
-1544 -1797 0
-1798 186 0
-1798 310 0
1798 -186 -310 0
-1544 -1798 0
-1799 312 0
-1799 319 0
1799 -312 -319 0
-1544 -1799 0
-1800 313 0
-1800 322 0
1800 -313 -322 0
-1544 -1800 0
-1801 314 0
-1801 324 0
1801 -314 -324 0
-1544 -1801 0
-1802 316 0
-1802 206 0
1802 -316 -206 0
-1544 -1802 0
-1544 315 0
-315 1544 1796 1797 1798 1799 1800 1801 1802 0
-1803 131 0
-1803 256 0
1803 -131 -256 0
-1545 -1803 0
-1804 159 0
-1804 284 0
1804 -159 -284 0
-1545 -1804 0
-1805 186 0
-1805 311 0
1805 -186 -311 0
-1545 -1805 0
-1806 312 0
-1806 320 0
1806 -312 -320 0
-1545 -1806 0
-1807 313 0
-1807 323 0
1807 -313 -323 0
-1545 -1807 0
-1808 314 0
-1808 325 0
1808 -314 -325 0
-1545 -1808 0
-1809 315 0
-1809 326 0
1809 -315 -326 0
-1545 -1809 0
-1545 316 0
-316 1545 1803 1804 1805 1806 1807 1808 1809 0
-1810 160 0
-1810 122 0
1810 -160 -122 0
-1546 -1810 0
-1811 187 0
-1811 130 0
1811 -187 -130 0
-1546 -1811 0
-1812 192 0
-1812 131 0
1812 -192 -131 0
-1546 -1812 0
-1813 317 0
-1813 133 0
1813 -317 -133 0
-1546 -1813 0
-1814 318 0
-1814 134 0
1814 -318 -134 0
-1546 -1814 0
-1815 319 0
-1815 135 0
1815 -319 -135 0
-1546 -1815 0
-1816 320 0
-1816 136 0
1816 -320 -136 0
-1546 -1816 0
-1546 132 0
-132 1546 1810 1811 1812 1813 1814 1815 1816 0
-1817 132 0
-1817 242 0
1817 -132 -242 0
-1547 -1817 0
-1818 187 0
-1818 158 0
1818 -187 -158 0
-1547 -1818 0
-1819 192 0
-1819 159 0
1819 -192 -159 0
-1547 -1819 0
-1820 317 0
-1820 161 0
1820 -317 -161 0
-1547 -1820 0
-1821 318 0
-1821 162 0
1821 -318 -162 0
-1547 -1821 0
-1822 319 0
-1822 163 0
1822 -319 -163 0
-1547 -1822 0
-1823 320 0
-1823 164 0
1823 -320 -164 0
-1547 -1823 0
-1547 160 0
-160 1547 1817 1818 1819 1820 1821 1822 1823 0
-1824 132 0
-1824 250 0
1824 -132 -250 0
-1548 -1824 0
-1825 160 0
-1825 278 0
1825 -160 -278 0
-1548 -1825 0
-1826 192 0
-1826 186 0
1826 -192 -186 0
-1548 -1826 0
-1827 317 0
-1827 188 0
1827 -317 -188 0
-1548 -1827 0
-1828 318 0
-1828 189 0
1828 -318 -189 0
-1548 -1828 0
-1829 319 0
-1829 190 0
1829 -319 -190 0
-1548 -1829 0
-1830 320 0
-1830 191 0
1830 -320 -191 0
-1548 -1830 0
-1548 187 0
-187 1548 1824 1825 1826 1827 1828 1829 1830 0
-1831 132 0
-1831 251 0
1831 -132 -251 0
-1549 -1831 0
-1832 160 0
-1832 279 0
1832 -160 -279 0
-1549 -1832 0
-1833 187 0
-1833 306 0
1833 -187 -306 0
-1549 -1833 0
-1834 317 0
-1834 193 0
1834 -317 -193 0
-1549 -1834 0
-1835 318 0
-1835 194 0
1835 -318 -194 0
-1549 -1835 0
-1836 319 0
-1836 195 0
1836 -319 -195 0
-1549 -1836 0
-1837 320 0
-1837 196 0
1837 -320 -196 0
-1549 -1837 0
-1549 192 0
-192 1549 1831 1832 1833 1834 1835 1836 1837 0
-1838 132 0
-1838 253 0
1838 -132 -253 0
-1550 -1838 0
-1839 160 0
-1839 281 0
1839 -160 -281 0
-1550 -1839 0
-1840 187 0
-1840 308 0
1840 -187 -308 0
-1550 -1840 0
-1841 192 0
-1841 313 0
1841 -192 -313 0
-1550 -1841 0
-1842 318 0
-1842 201 0
1842 -318 -201 0
-1550 -1842 0
-1843 319 0
-1843 202 0
1843 -319 -202 0
-1550 -1843 0
-1844 320 0
-1844 203 0
1844 -320 -203 0
-1550 -1844 0
-1550 317 0
-317 1550 1838 1839 1840 1841 1842 1843 1844 0
-1845 132 0
-1845 254 0
1845 -132 -254 0
-1551 -1845 0
-1846 160 0
-1846 282 0
1846 -160 -282 0
-1551 -1846 0
-1847 187 0
-1847 309 0
1847 -187 -309 0
-1551 -1847 0
-1848 192 0
-1848 314 0
1848 -192 -314 0
-1551 -1848 0
-1849 317 0
-1849 321 0
1849 -317 -321 0
-1551 -1849 0
-1850 319 0
-1850 204 0
1850 -319 -204 0
-1551 -1850 0
-1851 320 0
-1851 205 0
1851 -320 -205 0
-1551 -1851 0
-1551 318 0
-318 1551 1845 1846 1847 1848 1849 1850 1851 0
-1852 132 0
-1852 255 0
1852 -132 -255 0
-1552 -1852 0
-1853 160 0
-1853 283 0
1853 -160 -283 0
-1552 -1853 0
-1854 187 0
-1854 310 0
1854 -187 -310 0
-1552 -1854 0
-1855 192 0
-1855 315 0
1855 -192 -315 0
-1552 -1855 0
-1856 317 0
-1856 322 0
1856 -317 -322 0
-1552 -1856 0
-1857 318 0
-1857 324 0
1857 -318 -324 0
-1552 -1857 0
-1858 320 0
-1858 206 0
1858 -320 -206 0
-1552 -1858 0
-1552 319 0
-319 1552 1852 1853 1854 1855 1856 1857 1858 0
-1859 132 0
-1859 256 0
1859 -132 -256 0
-1553 -1859 0
-1860 160 0
-1860 284 0
1860 -160 -284 0
-1553 -1860 0
-1861 187 0
-1861 311 0
1861 -187 -311 0
-1553 -1861 0
-1862 192 0
-1862 316 0
1862 -192 -316 0
-1553 -1862 0
-1863 317 0
-1863 323 0
1863 -317 -323 0
-1553 -1863 0
-1864 318 0
-1864 325 0
1864 -318 -325 0
-1553 -1864 0
-1865 319 0
-1865 326 0
1865 -319 -326 0
-1553 -1865 0
-1553 320 0
-320 1553 1859 1860 1861 1862 1863 1864 1865 0
-1866 161 0
-1866 122 0
1866 -161 -122 0
-1554 -1866 0
-1867 188 0
-1867 130 0
1867 -188 -130 0
-1554 -1867 0
-1868 193 0
-1868 131 0
1868 -193 -131 0
-1554 -1868 0
-1869 197 0
-1869 132 0
1869 -197 -132 0
-1554 -1869 0
-1870 321 0
-1870 134 0
1870 -321 -134 0
-1554 -1870 0
-1871 322 0
-1871 135 0
1871 -322 -135 0
-1554 -1871 0
-1872 323 0
-1872 136 0
1872 -323 -136 0
-1554 -1872 0
-1554 133 0
-133 1554 1866 1867 1868 1869 1870 1871 1872 0
-1873 133 0
-1873 242 0
1873 -133 -242 0
-1555 -1873 0
-1874 188 0
-1874 158 0
1874 -188 -158 0
-1555 -1874 0
-1875 193 0
-1875 159 0
1875 -193 -159 0
-1555 -1875 0
-1876 197 0
-1876 160 0
1876 -197 -160 0
-1555 -1876 0
-1877 321 0
-1877 162 0
1877 -321 -162 0
-1555 -1877 0
-1878 322 0
-1878 163 0
1878 -322 -163 0
-1555 -1878 0
-1879 323 0
-1879 164 0
1879 -323 -164 0
-1555 -1879 0
-1555 161 0
-161 1555 1873 1874 1875 1876 1877 1878 1879 0
-1880 133 0
-1880 250 0
1880 -133 -250 0
-1556 -1880 0
-1881 161 0
-1881 278 0
1881 -161 -278 0
-1556 -1881 0
-1882 193 0
-1882 186 0
1882 -193 -186 0
-1556 -1882 0
-1883 197 0
-1883 187 0
1883 -197 -187 0
-1556 -1883 0
-1884 321 0
-1884 189 0
1884 -321 -189 0
-1556 -1884 0
-1885 322 0
-1885 190 0
1885 -322 -190 0
-1556 -1885 0
-1886 323 0
-1886 191 0
1886 -323 -191 0
-1556 -1886 0
-1556 188 0
-188 1556 1880 1881 1882 1883 1884 1885 1886 0
-1887 133 0
-1887 251 0
1887 -133 -251 0
-1557 -1887 0
-1888 161 0
-1888 279 0
1888 -161 -279 0
-1557 -1888 0
-1889 188 0
-1889 306 0
1889 -188 -306 0
-1557 -1889 0
-1890 197 0
-1890 192 0
1890 -197 -192 0
-1557 -1890 0
-1891 321 0
-1891 194 0
1891 -321 -194 0
-1557 -1891 0
-1892 322 0
-1892 195 0
1892 -322 -195 0
-1557 -1892 0
-1893 323 0
-1893 196 0
1893 -323 -196 0
-1557 -1893 0
-1557 193 0
-193 1557 1887 1888 1889 1890 1891 1892 1893 0
-1894 133 0
-1894 252 0
1894 -133 -252 0
-1558 -1894 0
-1895 161 0
-1895 280 0
1895 -161 -280 0
-1558 -1895 0
-1896 188 0
-1896 307 0
1896 -188 -307 0
-1558 -1896 0
-1897 193 0
-1897 312 0
1897 -193 -312 0
-1558 -1897 0
-1898 321 0
-1898 198 0
1898 -321 -198 0
-1558 -1898 0
-1899 322 0
-1899 199 0
1899 -322 -199 0
-1558 -1899 0
-1900 323 0
-1900 200 0
1900 -323 -200 0
-1558 -1900 0
-1558 197 0
-197 1558 1894 1895 1896 1897 1898 1899 1900 0
-1901 133 0
-1901 254 0
1901 -133 -254 0
-1559 -1901 0
-1902 161 0
-1902 282 0
1902 -161 -282 0
-1559 -1902 0
-1903 188 0
-1903 309 0
1903 -188 -309 0
-1559 -1903 0
-1904 193 0
-1904 314 0
1904 -193 -314 0
-1559 -1904 0
-1905 197 0
-1905 318 0
1905 -197 -318 0
-1559 -1905 0
-1906 322 0
-1906 204 0
1906 -322 -204 0
-1559 -1906 0
-1907 323 0
-1907 205 0
1907 -323 -205 0
-1559 -1907 0
-1559 321 0
-321 1559 1901 1902 1903 1904 1905 1906 1907 0
-1908 133 0
-1908 255 0
1908 -133 -255 0
-1560 -1908 0
-1909 161 0
-1909 283 0
1909 -161 -283 0
-1560 -1909 0
-1910 188 0
-1910 310 0
1910 -188 -310 0
-1560 -1910 0
-1911 193 0
-1911 315 0
1911 -193 -315 0
-1560 -1911 0
-1912 197 0
-1912 319 0
1912 -197 -319 0
-1560 -1912 0
-1913 321 0
-1913 324 0
1913 -321 -324 0
-1560 -1913 0
-1914 323 0
-1914 206 0
1914 -323 -206 0
-1560 -1914 0
-1560 322 0
-322 1560 1908 1909 1910 1911 1912 1913 1914 0
-1915 133 0
-1915 256 0
1915 -133 -256 0
-1561 -1915 0
-1916 161 0
-1916 284 0
1916 -161 -284 0
-1561 -1916 0
-1917 188 0
-1917 311 0
1917 -188 -311 0
-1561 -1917 0
-1918 193 0
-1918 316 0
1918 -193 -316 0
-1561 -1918 0
-1919 197 0
-1919 320 0
1919 -197 -320 0
-1561 -1919 0
-1920 321 0
-1920 325 0
1920 -321 -325 0
-1561 -1920 0
-1921 322 0
-1921 326 0
1921 -322 -326 0
-1561 -1921 0
-1561 323 0
-323 1561 1915 1916 1917 1918 1919 1920 1921 0
-1922 162 0
-1922 122 0
1922 -162 -122 0
-1562 -1922 0
-1923 189 0
-1923 130 0
1923 -189 -130 0
-1562 -1923 0
-1924 194 0
-1924 131 0
1924 -194 -131 0
-1562 -1924 0
-1925 198 0
-1925 132 0
1925 -198 -132 0
-1562 -1925 0
-1926 201 0
-1926 133 0
1926 -201 -133 0
-1562 -1926 0
-1927 324 0
-1927 135 0
1927 -324 -135 0
-1562 -1927 0
-1928 325 0
-1928 136 0
1928 -325 -136 0
-1562 -1928 0
-1562 134 0
-134 1562 1922 1923 1924 1925 1926 1927 1928 0
-1929 134 0
-1929 242 0
1929 -134 -242 0
-1563 -1929 0
-1930 189 0
-1930 158 0
1930 -189 -158 0
-1563 -1930 0
-1931 194 0
-1931 159 0
1931 -194 -159 0
-1563 -1931 0
-1932 198 0
-1932 160 0
1932 -198 -160 0
-1563 -1932 0
-1933 201 0
-1933 161 0
1933 -201 -161 0
-1563 -1933 0
-1934 324 0
-1934 163 0
1934 -324 -163 0
-1563 -1934 0
-1935 325 0
-1935 164 0
1935 -325 -164 0
-1563 -1935 0
-1563 162 0
-162 1563 1929 1930 1931 1932 1933 1934 1935 0
-1936 134 0
-1936 250 0
1936 -134 -250 0
-1564 -1936 0
-1937 162 0
-1937 278 0
1937 -162 -278 0
-1564 -1937 0
-1938 194 0
-1938 186 0
1938 -194 -186 0
-1564 -1938 0
-1939 198 0
-1939 187 0
1939 -198 -187 0
-1564 -1939 0
-1940 201 0
-1940 188 0
1940 -201 -188 0
-1564 -1940 0
-1941 324 0
-1941 190 0
1941 -324 -190 0
-1564 -1941 0
-1942 325 0
-1942 191 0
1942 -325 -191 0
-1564 -1942 0
-1564 189 0
-189 1564 1936 1937 1938 1939 1940 1941 1942 0
-1943 134 0
-1943 251 0
1943 -134 -251 0
-1565 -1943 0
-1944 162 0
-1944 279 0
1944 -162 -279 0
-1565 -1944 0
-1945 189 0
-1945 306 0
1945 -189 -306 0
-1565 -1945 0
-1946 198 0
-1946 192 0
1946 -198 -192 0
-1565 -1946 0
-1947 201 0
-1947 193 0
1947 -201 -193 0
-1565 -1947 0
-1948 324 0
-1948 195 0
1948 -324 -195 0
-1565 -1948 0
-1949 325 0
-1949 196 0
1949 -325 -196 0
-1565 -1949 0
-1565 194 0
-194 1565 1943 1944 1945 1946 1947 1948 1949 0
-1950 134 0
-1950 252 0
1950 -134 -252 0
-1566 -1950 0
-1951 162 0
-1951 280 0
1951 -162 -280 0
-1566 -1951 0
-1952 189 0
-1952 307 0
1952 -189 -307 0
-1566 -1952 0
-1953 194 0
-1953 312 0
1953 -194 -312 0
-1566 -1953 0
-1954 201 0
-1954 197 0
1954 -201 -197 0
-1566 -1954 0
-1955 324 0
-1955 199 0
1955 -324 -199 0
-1566 -1955 0
-1956 325 0
-1956 200 0
1956 -325 -200 0
-1566 -1956 0
-1566 198 0
-198 1566 1950 1951 1952 1953 1954 1955 1956 0
-1957 134 0
-1957 253 0
1957 -134 -253 0
-1567 -1957 0
-1958 162 0
-1958 281 0
1958 -162 -281 0
-1567 -1958 0
-1959 189 0
-1959 308 0
1959 -189 -308 0
-1567 -1959 0
-1960 194 0
-1960 313 0
1960 -194 -313 0
-1567 -1960 0
-1961 198 0
-1961 317 0
1961 -198 -317 0
-1567 -1961 0
-1962 324 0
-1962 202 0
1962 -324 -202 0
-1567 -1962 0
-1963 325 0
-1963 203 0
1963 -325 -203 0
-1567 -1963 0
-1567 201 0
-201 1567 1957 1958 1959 1960 1961 1962 1963 0
-1964 134 0
-1964 255 0
1964 -134 -255 0
-1568 -1964 0
-1965 162 0
-1965 283 0
1965 -162 -283 0
-1568 -1965 0
-1966 189 0
-1966 310 0
1966 -189 -310 0
-1568 -1966 0
-1967 194 0
-1967 315 0
1967 -194 -315 0
-1568 -1967 0
-1968 198 0
-1968 319 0
1968 -198 -319 0
-1568 -1968 0
-1969 201 0
-1969 322 0
1969 -201 -322 0
-1568 -1969 0
-1970 325 0
-1970 206 0
1970 -325 -206 0
-1568 -1970 0
-1568 324 0
-324 1568 1964 1965 1966 1967 1968 1969 1970 0
-1971 134 0
-1971 256 0
1971 -134 -256 0
-1569 -1971 0
-1972 162 0
-1972 284 0
1972 -162 -284 0
-1569 -1972 0
-1973 189 0
-1973 311 0
1973 -189 -311 0
-1569 -1973 0
-1974 194 0
-1974 316 0
1974 -194 -316 0
-1569 -1974 0
-1975 198 0
-1975 320 0
1975 -198 -320 0
-1569 -1975 0
-1976 201 0
-1976 323 0
1976 -201 -323 0
-1569 -1976 0
-1977 324 0
-1977 326 0
1977 -324 -326 0
-1569 -1977 0
-1569 325 0
-325 1569 1971 1972 1973 1974 1975 1976 1977 0
-1978 163 0
-1978 122 0
1978 -163 -122 0
-1570 -1978 0
-1979 190 0
-1979 130 0
1979 -190 -130 0
-1570 -1979 0
-1980 195 0
-1980 131 0
1980 -195 -131 0
-1570 -1980 0
-1981 199 0
-1981 132 0
1981 -199 -132 0
-1570 -1981 0
-1982 202 0
-1982 133 0
1982 -202 -133 0
-1570 -1982 0
-1983 204 0
-1983 134 0
1983 -204 -134 0
-1570 -1983 0
-1984 326 0
-1984 136 0
1984 -326 -136 0
-1570 -1984 0
-1570 135 0
-135 1570 1978 1979 1980 1981 1982 1983 1984 0
-1985 135 0
-1985 242 0
1985 -135 -242 0
-1571 -1985 0
-1986 190 0
-1986 158 0
1986 -190 -158 0
-1571 -1986 0
-1987 195 0
-1987 159 0
1987 -195 -159 0
-1571 -1987 0
-1988 199 0
-1988 160 0
1988 -199 -160 0
-1571 -1988 0
-1989 202 0
-1989 161 0
1989 -202 -161 0
-1571 -1989 0
-1990 204 0
-1990 162 0
1990 -204 -162 0
-1571 -1990 0
-1991 326 0
-1991 164 0
1991 -326 -164 0
-1571 -1991 0
-1571 163 0
-163 1571 1985 1986 1987 1988 1989 1990 1991 0
-1992 135 0
-1992 250 0
1992 -135 -250 0
-1572 -1992 0
-1993 163 0
-1993 278 0
1993 -163 -278 0
-1572 -1993 0
-1994 195 0
-1994 186 0
1994 -195 -186 0
-1572 -1994 0
-1995 199 0
-1995 187 0
1995 -199 -187 0
-1572 -1995 0
-1996 202 0
-1996 188 0
1996 -202 -188 0
-1572 -1996 0
-1997 204 0
-1997 189 0
1997 -204 -189 0
-1572 -1997 0
-1998 326 0
-1998 191 0
1998 -326 -191 0
-1572 -1998 0
-1572 190 0
-190 1572 1992 1993 1994 1995 1996 1997 1998 0
-1999 135 0
-1999 251 0
1999 -135 -251 0
-1573 -1999 0
-2000 163 0
-2000 279 0
2000 -163 -279 0
-1573 -2000 0
-2001 190 0
-2001 306 0
2001 -190 -306 0
-1573 -2001 0
-2002 199 0
-2002 192 0
2002 -199 -192 0
-1573 -2002 0
-2003 202 0
-2003 193 0
2003 -202 -193 0
-1573 -2003 0
-2004 204 0
-2004 194 0
2004 -204 -194 0
-1573 -2004 0
-2005 326 0
-2005 196 0
2005 -326 -196 0
-1573 -2005 0
-1573 195 0
-195 1573 1999 2000 2001 2002 2003 2004 2005 0
-2006 135 0
-2006 252 0
2006 -135 -252 0
-1574 -2006 0
-2007 163 0
-2007 280 0
2007 -163 -280 0
-1574 -2007 0
-2008 190 0
-2008 307 0
2008 -190 -307 0
-1574 -2008 0
-2009 195 0
-2009 312 0
2009 -195 -312 0
-1574 -2009 0
-2010 202 0
-2010 197 0
2010 -202 -197 0
-1574 -2010 0
-2011 204 0
-2011 198 0
2011 -204 -198 0
-1574 -2011 0
-2012 326 0
-2012 200 0
2012 -326 -200 0
-1574 -2012 0
-1574 199 0
-199 1574 2006 2007 2008 2009 2010 2011 2012 0
-2013 135 0
-2013 253 0
2013 -135 -253 0
-1575 -2013 0
-2014 163 0
-2014 281 0
2014 -163 -281 0
-1575 -2014 0
-2015 190 0
-2015 308 0
2015 -190 -308 0
-1575 -2015 0
-2016 195 0
-2016 313 0
2016 -195 -313 0
-1575 -2016 0
-2017 199 0
-2017 317 0
2017 -199 -317 0
-1575 -2017 0
-2018 204 0
-2018 201 0
2018 -204 -201 0
-1575 -2018 0
-2019 326 0
-2019 203 0
2019 -326 -203 0
-1575 -2019 0
-1575 202 0
-202 1575 2013 2014 2015 2016 2017 2018 2019 0
-2020 135 0
-2020 254 0
2020 -135 -254 0
-1576 -2020 0
-2021 163 0
-2021 282 0
2021 -163 -282 0
-1576 -2021 0
-2022 190 0
-2022 309 0
2022 -190 -309 0
-1576 -2022 0
-2023 195 0
-2023 314 0
2023 -195 -314 0
-1576 -2023 0
-2024 199 0
-2024 318 0
2024 -199 -318 0
-1576 -2024 0
-2025 202 0
-2025 321 0
2025 -202 -321 0
-1576 -2025 0
-2026 326 0
-2026 205 0
2026 -326 -205 0
-1576 -2026 0
-1576 204 0
-204 1576 2020 2021 2022 2023 2024 2025 2026 0
-2027 135 0
-2027 256 0
2027 -135 -256 0
-1577 -2027 0
-2028 163 0
-2028 284 0
2028 -163 -284 0
-1577 -2028 0
-2029 190 0
-2029 311 0
2029 -190 -311 0
-1577 -2029 0
-2030 195 0
-2030 316 0
2030 -195 -316 0
-1577 -2030 0
-2031 199 0
-2031 320 0
2031 -199 -320 0
-1577 -2031 0
-2032 202 0
-2032 323 0
2032 -202 -323 0
-1577 -2032 0
-2033 204 0
-2033 325 0
2033 -204 -325 0
-1577 -2033 0
-1577 326 0
-326 1577 2027 2028 2029 2030 2031 2032 2033 0
-2034 164 0
-2034 122 0
2034 -164 -122 0
-1578 -2034 0
-2035 191 0
-2035 130 0
2035 -191 -130 0
-1578 -2035 0
-2036 196 0
-2036 131 0
2036 -196 -131 0
-1578 -2036 0
-2037 200 0
-2037 132 0
2037 -200 -132 0
-1578 -2037 0
-2038 203 0
-2038 133 0
2038 -203 -133 0
-1578 -2038 0
-2039 205 0
-2039 134 0
2039 -205 -134 0
-1578 -2039 0
-2040 206 0
-2040 135 0
2040 -206 -135 0
-1578 -2040 0
-1578 136 0
-136 1578 2034 2035 2036 2037 2038 2039 2040 0
-2041 136 0
-2041 242 0
2041 -136 -242 0
-1579 -2041 0
-2042 191 0
-2042 158 0
2042 -191 -158 0
-1579 -2042 0
-2043 196 0
-2043 159 0
2043 -196 -159 0
-1579 -2043 0
-2044 200 0
-2044 160 0
2044 -200 -160 0
-1579 -2044 0
-2045 203 0
-2045 161 0
2045 -203 -161 0
-1579 -2045 0
-2046 205 0
-2046 162 0
2046 -205 -162 0
-1579 -2046 0
-2047 206 0
-2047 163 0
2047 -206 -163 0
-1579 -2047 0
-1579 164 0
-164 1579 2041 2042 2043 2044 2045 2046 2047 0
-2048 136 0
-2048 250 0
2048 -136 -250 0
-1580 -2048 0
-2049 164 0
-2049 278 0
2049 -164 -278 0
-1580 -2049 0
-2050 196 0
-2050 186 0
2050 -196 -186 0
-1580 -2050 0
-2051 200 0
-2051 187 0
2051 -200 -187 0
-1580 -2051 0
-2052 203 0
-2052 188 0
2052 -203 -188 0
-1580 -2052 0
-2053 205 0
-2053 189 0
2053 -205 -189 0
-1580 -2053 0
-2054 206 0
-2054 190 0
2054 -206 -190 0
-1580 -2054 0
-1580 191 0
-191 1580 2048 2049 2050 2051 2052 2053 2054 0
-2055 136 0
-2055 251 0
2055 -136 -251 0
-1581 -2055 0
-2056 164 0
-2056 279 0
2056 -164 -279 0
-1581 -2056 0
-2057 191 0
-2057 306 0
2057 -191 -306 0
-1581 -2057 0
-2058 200 0
-2058 192 0
2058 -200 -192 0
-1581 -2058 0
-2059 203 0
-2059 193 0
2059 -203 -193 0
-1581 -2059 0
-2060 205 0
-2060 194 0
2060 -205 -194 0
-1581 -2060 0
-2061 206 0
-2061 195 0
2061 -206 -195 0
-1581 -2061 0
-1581 196 0
-196 1581 2055 2056 2057 2058 2059 2060 2061 0
-2062 136 0
-2062 252 0
2062 -136 -252 0
-1582 -2062 0
-2063 164 0
-2063 280 0
2063 -164 -280 0
-1582 -2063 0
-2064 191 0
-2064 307 0
2064 -191 -307 0
-1582 -2064 0
-2065 196 0
-2065 312 0
2065 -196 -312 0
-1582 -2065 0
-2066 203 0
-2066 197 0
2066 -203 -197 0
-1582 -2066 0
-2067 205 0
-2067 198 0
2067 -205 -198 0
-1582 -2067 0
-2068 206 0
-2068 199 0
2068 -206 -199 0
-1582 -2068 0
-1582 200 0
-200 1582 2062 2063 2064 2065 2066 2067 2068 0
-2069 136 0
-2069 253 0
2069 -136 -253 0
-1583 -2069 0
-2070 164 0
-2070 281 0
2070 -164 -281 0
-1583 -2070 0
-2071 191 0
-2071 308 0
2071 -191 -308 0
-1583 -2071 0
-2072 196 0
-2072 313 0
2072 -196 -313 0
-1583 -2072 0
-2073 200 0
-2073 317 0
2073 -200 -317 0
-1583 -2073 0
-2074 205 0
-2074 201 0
2074 -205 -201 0
-1583 -2074 0
-2075 206 0
-2075 202 0
2075 -206 -202 0
-1583 -2075 0
-1583 203 0
-203 1583 2069 2070 2071 2072 2073 2074 2075 0
-2076 136 0
-2076 254 0
2076 -136 -254 0
-1584 -2076 0
-2077 164 0
-2077 282 0
2077 -164 -282 0
-1584 -2077 0
-2078 191 0
-2078 309 0
2078 -191 -309 0
-1584 -2078 0
-2079 196 0
-2079 314 0
2079 -196 -314 0
-1584 -2079 0
-2080 200 0
-2080 318 0
2080 -200 -318 0
-1584 -2080 0
-2081 203 0
-2081 321 0
2081 -203 -321 0
-1584 -2081 0
-2082 206 0
-2082 204 0
2082 -206 -204 0
-1584 -2082 0
-1584 205 0
-205 1584 2076 2077 2078 2079 2080 2081 2082 0
-2083 136 0
-2083 255 0
2083 -136 -255 0
-1585 -2083 0
-2084 164 0
-2084 283 0
2084 -164 -283 0
-1585 -2084 0
-2085 191 0
-2085 310 0
2085 -191 -310 0
-1585 -2085 0
-2086 196 0
-2086 315 0
2086 -196 -315 0
-1585 -2086 0
-2087 200 0
-2087 319 0
2087 -200 -319 0
-1585 -2087 0
-2088 203 0
-2088 322 0
2088 -203 -322 0
-1585 -2088 0
-2089 205 0
-2089 324 0
2089 -205 -324 0
-1585 -2089 0
-1585 206 0
-206 1585 2083 2084 2085 2086 2087 2088 2089 0
-2162 250 0
-2162 158 0
2162 -250 -158 0
-2090 -2162 0
-2163 257 0
-2163 165 0
2163 -257 -165 0
-2090 -2163 0
-2164 258 0
-2164 166 0
2164 -258 -166 0
-2090 -2164 0
-2165 259 0
-2165 167 0
2165 -259 -167 0
-2090 -2165 0
-2166 260 0
-2166 168 0
2166 -260 -168 0
-2090 -2166 0
-2167 261 0
-2167 169 0
2167 -261 -169 0
-2090 -2167 0
-2168 262 0
-2168 170 0
2168 -262 -170 0
-2090 -2168 0
-2090 243 0
-243 2090 2162 2163 2164 2165 2166 2167 2168 0
-2169 243 0
-2169 278 0
2169 -243 -278 0
-2091 -2169 0
-2170 257 0
-2170 186 0
2170 -257 -186 0
-2091 -2170 0
-2171 258 0
-2171 187 0
2171 -258 -187 0
-2091 -2171 0
-2172 259 0
-2172 188 0
2172 -259 -188 0
-2091 -2172 0
-2173 260 0
-2173 189 0
2173 -260 -189 0
-2091 -2173 0
-2174 261 0
-2174 190 0
2174 -261 -190 0
-2091 -2174 0
-2175 262 0
-2175 191 0
2175 -262 -191 0
-2091 -2175 0
-2091 250 0
-250 2091 2169 2170 2171 2172 2173 2174 2175 0
-2176 243 0
-2176 285 0
2176 -243 -285 0
-2092 -2176 0
-2177 250 0
-2177 306 0
2177 -250 -306 0
-2092 -2177 0
-2178 258 0
-2178 207 0
2178 -258 -207 0
-2092 -2178 0
-2179 259 0
-2179 208 0
2179 -259 -208 0
-2092 -2179 0
-2180 260 0
-2180 209 0
2180 -260 -209 0
-2092 -2180 0
-2181 261 0
-2181 210 0
2181 -261 -210 0
-2092 -2181 0
-2182 262 0
-2182 211 0
2182 -262 -211 0
-2092 -2182 0
-2092 257 0
-257 2092 2176 2177 2178 2179 2180 2181 2182 0
-2183 243 0
-2183 286 0
2183 -243 -286 0
-2093 -2183 0
-2184 250 0
-2184 307 0
2184 -250 -307 0
-2093 -2184 0
-2185 257 0
-2185 327 0
2185 -257 -327 0
-2093 -2185 0
-2186 259 0
-2186 212 0
2186 -259 -212 0
-2093 -2186 0
-2187 260 0
-2187 213 0
2187 -260 -213 0
-2093 -2187 0
-2188 261 0
-2188 214 0
2188 -261 -214 0
-2093 -2188 0
-2189 262 0
-2189 215 0
2189 -262 -215 0
-2093 -2189 0
-2093 258 0
-258 2093 2183 2184 2185 2186 2187 2188 2189 0
-2190 243 0
-2190 287 0
2190 -243 -287 0
-2094 -2190 0
-2191 250 0
-2191 308 0
2191 -250 -308 0
-2094 -2191 0
-2192 257 0
-2192 328 0
2192 -257 -328 0
-2094 -2192 0
-2193 258 0
-2193 332 0
2193 -258 -332 0
-2094 -2193 0
-2194 260 0
-2194 216 0
2194 -260 -216 0
-2094 -2194 0
-2195 261 0
-2195 217 0
2195 -261 -217 0
-2094 -2195 0
-2196 262 0
-2196 218 0
2196 -262 -218 0
-2094 -2196 0
-2094 259 0
-259 2094 2190 2191 2192 2193 2194 2195 2196 0
-2197 243 0
-2197 288 0
2197 -243 -288 0
-2095 -2197 0
-2198 250 0
-2198 309 0
2198 -250 -309 0
-2095 -2198 0
-2199 257 0
-2199 329 0
2199 -257 -329 0
-2095 -2199 0
-2200 258 0
-2200 333 0
2200 -258 -333 0
-2095 -2200 0
-2201 259 0
-2201 336 0
2201 -259 -336 0
-2095 -2201 0
-2202 261 0
-2202 219 0
2202 -261 -219 0
-2095 -2202 0
-2203 262 0
-2203 220 0
2203 -262 -220 0
-2095 -2203 0
-2095 260 0
-260 2095 2197 2198 2199 2200 2201 2202 2203 0
-2204 243 0
-2204 289 0
2204 -243 -289 0
-2096 -2204 0
-2205 250 0
-2205 310 0
2205 -250 -310 0
-2096 -2205 0
-2206 257 0
-2206 330 0
2206 -257 -330 0
-2096 -2206 0
-2207 258 0
-2207 334 0
2207 -258 -334 0
-2096 -2207 0
-2208 259 0
-2208 337 0
2208 -259 -337 0
-2096 -2208 0
-2209 260 0
-2209 339 0
2209 -260 -339 0
-2096 -2209 0
-2210 262 0
-2210 221 0
2210 -262 -221 0
-2096 -2210 0
-2096 261 0
-261 2096 2204 2205 2206 2207 2208 2209 2210 0
-2211 243 0
-2211 290 0
2211 -243 -290 0
-2097 -2211 0
-2212 250 0
-2212 311 0
2212 -250 -311 0
-2097 -2212 0
-2213 257 0
-2213 331 0
2213 -257 -331 0
-2097 -2213 0
-2214 258 0
-2214 335 0
2214 -258 -335 0
-2097 -2214 0
-2215 259 0
-2215 338 0
2215 -259 -338 0
-2097 -2215 0
-2216 260 0
-2216 340 0
2216 -260 -340 0
-2097 -2216 0
-2217 261 0
-2217 341 0
2217 -261 -341 0
-2097 -2217 0
-2097 262 0
-262 2097 2211 2212 2213 2214 2215 2216 2217 0
-2218 278 0
-2218 130 0
2218 -278 -130 0
-2098 -2218 0
-2219 285 0
-2219 137 0
2219 -285 -137 0
-2098 -2219 0
-2220 286 0
-2220 138 0
2220 -286 -138 0
-2098 -2220 0
-2221 287 0
-2221 139 0
2221 -287 -139 0
-2098 -2221 0
-2222 288 0
-2222 140 0
2222 -288 -140 0
-2098 -2222 0
-2223 289 0
-2223 141 0
2223 -289 -141 0
-2098 -2223 0
-2224 290 0
-2224 142 0
2224 -290 -142 0
-2098 -2224 0
-2098 123 0
-123 2098 2218 2219 2220 2221 2222 2223 2224 0
-2225 123 0
-2225 250 0
2225 -123 -250 0
-2099 -2225 0
-2226 285 0
-2226 186 0
2226 -285 -186 0
-2099 -2226 0
-2227 286 0
-2227 187 0
2227 -286 -187 0
-2099 -2227 0
-2228 287 0
-2228 188 0
2228 -287 -188 0
-2099 -2228 0
-2229 288 0
-2229 189 0
2229 -288 -189 0
-2099 -2229 0
-2230 289 0
-2230 190 0
2230 -289 -190 0
-2099 -2230 0
-2231 290 0
-2231 191 0
2231 -290 -191 0
-2099 -2231 0
-2099 278 0
-278 2099 2225 2226 2227 2228 2229 2230 2231 0
-2232 123 0
-2232 257 0
2232 -123 -257 0
-2100 -2232 0
-2233 278 0
-2233 306 0
2233 -278 -306 0
-2100 -2233 0
-2234 286 0
-2234 207 0
2234 -286 -207 0
-2100 -2234 0
-2235 287 0
-2235 208 0
2235 -287 -208 0
-2100 -2235 0
-2236 288 0
-2236 209 0
2236 -288 -209 0
-2100 -2236 0
-2237 289 0
-2237 210 0
2237 -289 -210 0
-2100 -2237 0
-2238 290 0
-2238 211 0
2238 -290 -211 0
-2100 -2238 0
-2100 285 0
-285 2100 2232 2233 2234 2235 2236 2237 2238 0
-2239 123 0
-2239 258 0
2239 -123 -258 0
-2101 -2239 0
-2240 278 0
-2240 307 0
2240 -278 -307 0
-2101 -2240 0
-2241 285 0
-2241 327 0
2241 -285 -327 0
-2101 -2241 0
-2242 287 0
-2242 212 0
2242 -287 -212 0
-2101 -2242 0
-2243 288 0
-2243 213 0
2243 -288 -213 0
-2101 -2243 0
-2244 289 0
-2244 214 0
2244 -289 -214 0
-2101 -2244 0
-2245 290 0
-2245 215 0
2245 -290 -215 0
-2101 -2245 0
-2101 286 0
-286 2101 2239 2240 2241 2242 2243 2244 2245 0
-2246 123 0
-2246 259 0
2246 -123 -259 0
-2102 -2246 0
-2247 278 0
-2247 308 0
2247 -278 -308 0
-2102 -2247 0
-2248 285 0
-2248 328 0
2248 -285 -328 0
-2102 -2248 0
-2249 286 0
-2249 332 0
2249 -286 -332 0
-2102 -2249 0
-2250 288 0
-2250 216 0
2250 -288 -216 0
-2102 -2250 0
-2251 289 0
-2251 217 0
2251 -289 -217 0
-2102 -2251 0
-2252 290 0
-2252 218 0
2252 -290 -218 0
-2102 -2252 0
-2102 287 0
-287 2102 2246 2247 2248 2249 2250 2251 2252 0
-2253 123 0
-2253 260 0
2253 -123 -260 0
-2103 -2253 0
-2254 278 0
-2254 309 0
2254 -278 -309 0
-2103 -2254 0
-2255 285 0
-2255 329 0
2255 -285 -329 0
-2103 -2255 0
-2256 286 0
-2256 333 0
2256 -286 -333 0
-2103 -2256 0
-2257 287 0
-2257 336 0
2257 -287 -336 0
-2103 -2257 0
-2258 289 0
-2258 219 0
2258 -289 -219 0
-2103 -2258 0
-2259 290 0
-2259 220 0
2259 -290 -220 0
-2103 -2259 0
-2103 288 0
-288 2103 2253 2254 2255 2256 2257 2258 2259 0
-2260 123 0
-2260 261 0
2260 -123 -261 0
-2104 -2260 0
-2261 278 0
-2261 310 0
2261 -278 -310 0
-2104 -2261 0
-2262 285 0
-2262 330 0
2262 -285 -330 0
-2104 -2262 0
-2263 286 0
-2263 334 0
2263 -286 -334 0
-2104 -2263 0
-2264 287 0
-2264 337 0
2264 -287 -337 0
-2104 -2264 0
-2265 288 0
-2265 339 0
2265 -288 -339 0
-2104 -2265 0
-2266 290 0
-2266 221 0
2266 -290 -221 0
-2104 -2266 0
-2104 289 0
-289 2104 2260 2261 2262 2263 2264 2265 2266 0
-2267 123 0
-2267 262 0
2267 -123 -262 0
-2105 -2267 0
-2268 278 0
-2268 311 0
2268 -278 -311 0
-2105 -2268 0
-2269 285 0
-2269 331 0
2269 -285 -331 0
-2105 -2269 0
-2270 286 0
-2270 335 0
2270 -286 -335 0
-2105 -2270 0
-2271 287 0
-2271 338 0
2271 -287 -338 0
-2105 -2271 0
-2272 288 0
-2272 340 0
2272 -288 -340 0
-2105 -2272 0
-2273 289 0
-2273 341 0
2273 -289 -341 0
-2105 -2273 0
-2105 290 0
-290 2105 2267 2268 2269 2270 2271 2272 2273 0
-2274 158 0
-2274 123 0
2274 -158 -123 0
-2106 -2274 0
-2275 306 0
-2275 137 0
2275 -306 -137 0
-2106 -2275 0
-2276 307 0
-2276 138 0
2276 -307 -138 0
-2106 -2276 0
-2277 308 0
-2277 139 0
2277 -308 -139 0
-2106 -2277 0
-2278 309 0
-2278 140 0
2278 -309 -140 0
-2106 -2278 0
-2279 310 0
-2279 141 0
2279 -310 -141 0
-2106 -2279 0
-2280 311 0
-2280 142 0
2280 -311 -142 0
-2106 -2280 0
-2106 130 0
-130 2106 2274 2275 2276 2277 2278 2279 2280 0
-2281 130 0
-2281 243 0
2281 -130 -243 0
-2107 -2281 0
-2282 306 0
-2282 165 0
2282 -306 -165 0
-2107 -2282 0
-2283 307 0
-2283 166 0
2283 -307 -166 0
-2107 -2283 0
-2284 308 0
-2284 167 0
2284 -308 -167 0
-2107 -2284 0
-2285 309 0
-2285 168 0
2285 -309 -168 0
-2107 -2285 0
-2286 310 0
-2286 169 0
2286 -310 -169 0
-2107 -2286 0
-2287 311 0
-2287 170 0
2287 -311 -170 0
-2107 -2287 0
-2107 158 0
-158 2107 2281 2282 2283 2284 2285 2286 2287 0
-2288 130 0
-2288 257 0
2288 -130 -257 0
-2108 -2288 0
-2289 158 0
-2289 285 0
2289 -158 -285 0
-2108 -2289 0
-2290 307 0
-2290 207 0
2290 -307 -207 0
-2108 -2290 0
-2291 308 0
-2291 208 0
2291 -308 -208 0
-2108 -2291 0
-2292 309 0
-2292 209 0
2292 -309 -209 0
-2108 -2292 0
-2293 310 0
-2293 210 0
2293 -310 -210 0
-2108 -2293 0
-2294 311 0
-2294 211 0
2294 -311 -211 0
-2108 -2294 0
-2108 306 0
-306 2108 2288 2289 2290 2291 2292 2293 2294 0
-2295 130 0
-2295 258 0
2295 -130 -258 0
-2109 -2295 0
-2296 158 0
-2296 286 0
2296 -158 -286 0
-2109 -2296 0
-2297 306 0
-2297 327 0
2297 -306 -327 0
-2109 -2297 0
-2298 308 0
-2298 212 0
2298 -308 -212 0
-2109 -2298 0
-2299 309 0
-2299 213 0
2299 -309 -213 0
-2109 -2299 0
-2300 310 0
-2300 214 0
2300 -310 -214 0
-2109 -2300 0
-2301 311 0
-2301 215 0
2301 -311 -215 0
-2109 -2301 0
-2109 307 0
-307 2109 2295 2296 2297 2298 2299 2300 2301 0
-2302 130 0
-2302 259 0
2302 -130 -259 0
-2110 -2302 0
-2303 158 0
-2303 287 0
2303 -158 -287 0
-2110 -2303 0
-2304 306 0
-2304 328 0
2304 -306 -328 0
-2110 -2304 0
-2305 307 0
-2305 332 0
2305 -307 -332 0
-2110 -2305 0
-2306 309 0
-2306 216 0
2306 -309 -216 0
-2110 -2306 0
-2307 310 0
-2307 217 0
2307 -310 -217 0
-2110 -2307 0
-2308 311 0
-2308 218 0
2308 -311 -218 0
-2110 -2308 0
-2110 308 0
-308 2110 2302 2303 2304 2305 2306 2307 2308 0
-2309 130 0
-2309 260 0
2309 -130 -260 0
-2111 -2309 0
-2310 158 0
-2310 288 0
2310 -158 -288 0
-2111 -2310 0
-2311 306 0
-2311 329 0
2311 -306 -329 0
-2111 -2311 0
-2312 307 0
-2312 333 0
2312 -307 -333 0
-2111 -2312 0
-2313 308 0
-2313 336 0
2313 -308 -336 0
-2111 -2313 0
-2314 310 0
-2314 219 0
2314 -310 -219 0
-2111 -2314 0
-2315 311 0
-2315 220 0
2315 -311 -220 0
-2111 -2315 0
-2111 309 0
-309 2111 2309 2310 2311 2312 2313 2314 2315 0
-2316 130 0
-2316 261 0
2316 -130 -261 0
-2112 -2316 0
-2317 158 0
-2317 289 0
2317 -158 -289 0
-2112 -2317 0
-2318 306 0
-2318 330 0
2318 -306 -330 0
-2112 -2318 0
-2319 307 0
-2319 334 0
2319 -307 -334 0
-2112 -2319 0
-2320 308 0
-2320 337 0
2320 -308 -337 0
-2112 -2320 0
-2321 309 0
-2321 339 0
2321 -309 -339 0
-2112 -2321 0
-2322 311 0
-2322 221 0
2322 -311 -221 0
-2112 -2322 0
-2112 310 0
-310 2112 2316 2317 2318 2319 2320 2321 2322 0
-2323 130 0
-2323 262 0
2323 -130 -262 0
-2113 -2323 0
-2324 158 0
-2324 290 0
2324 -158 -290 0
-2113 -2324 0
-2325 306 0
-2325 331 0
2325 -306 -331 0
-2113 -2325 0
-2326 307 0
-2326 335 0
2326 -307 -335 0
-2113 -2326 0
-2327 308 0
-2327 338 0
2327 -308 -338 0
-2113 -2327 0
-2328 309 0
-2328 340 0
2328 -309 -340 0
-2113 -2328 0
-2329 310 0
-2329 341 0
2329 -310 -341 0
-2113 -2329 0
-2113 311 0
-311 2113 2323 2324 2325 2326 2327 2328 2329 0
-2330 165 0
-2330 123 0
2330 -165 -123 0
-2114 -2330 0
-2331 186 0
-2331 130 0
2331 -186 -130 0
-2114 -2331 0
-2332 327 0
-2332 138 0
2332 -327 -138 0
-2114 -2332 0
-2333 328 0
-2333 139 0
2333 -328 -139 0
-2114 -2333 0
-2334 329 0
-2334 140 0
2334 -329 -140 0
-2114 -2334 0
-2335 330 0
-2335 141 0
2335 -330 -141 0
-2114 -2335 0
-2336 331 0
-2336 142 0
2336 -331 -142 0
-2114 -2336 0
-2114 137 0
-137 2114 2330 2331 2332 2333 2334 2335 2336 0
-2337 137 0
-2337 243 0
2337 -137 -243 0
-2115 -2337 0
-2338 186 0
-2338 158 0
2338 -186 -158 0
-2115 -2338 0
-2339 327 0
-2339 166 0
2339 -327 -166 0
-2115 -2339 0
-2340 328 0
-2340 167 0
2340 -328 -167 0
-2115 -2340 0
-2341 329 0
-2341 168 0
2341 -329 -168 0
-2115 -2341 0
-2342 330 0
-2342 169 0
2342 -330 -169 0
-2115 -2342 0
-2343 331 0
-2343 170 0
2343 -331 -170 0
-2115 -2343 0
-2115 165 0
-165 2115 2337 2338 2339 2340 2341 2342 2343 0
-2344 137 0
-2344 250 0
2344 -137 -250 0
-2116 -2344 0
-2345 165 0
-2345 278 0
2345 -165 -278 0
-2116 -2345 0
-2346 327 0
-2346 187 0
2346 -327 -187 0
-2116 -2346 0
-2347 328 0
-2347 188 0
2347 -328 -188 0
-2116 -2347 0
-2348 329 0
-2348 189 0
2348 -329 -189 0
-2116 -2348 0
-2349 330 0
-2349 190 0
2349 -330 -190 0
-2116 -2349 0
-2350 331 0
-2350 191 0
2350 -331 -191 0
-2116 -2350 0
-2116 186 0
-186 2116 2344 2345 2346 2347 2348 2349 2350 0
-2351 137 0
-2351 258 0
2351 -137 -258 0
-2117 -2351 0
-2352 165 0
-2352 286 0
2352 -165 -286 0
-2117 -2352 0
-2353 186 0
-2353 307 0
2353 -186 -307 0
-2117 -2353 0
-2354 328 0
-2354 212 0
2354 -328 -212 0
-2117 -2354 0
-2355 329 0
-2355 213 0
2355 -329 -213 0
-2117 -2355 0
-2356 330 0
-2356 214 0
2356 -330 -214 0
-2117 -2356 0
-2357 331 0
-2357 215 0
2357 -331 -215 0
-2117 -2357 0
-2117 327 0
-327 2117 2351 2352 2353 2354 2355 2356 2357 0
-2358 137 0
-2358 259 0
2358 -137 -259 0
-2118 -2358 0
-2359 165 0
-2359 287 0
2359 -165 -287 0
-2118 -2359 0
-2360 186 0
-2360 308 0
2360 -186 -308 0
-2118 -2360 0
-2361 327 0
-2361 332 0
2361 -327 -332 0
-2118 -2361 0
-2362 329 0
-2362 216 0
2362 -329 -216 0
-2118 -2362 0
-2363 330 0
-2363 217 0
2363 -330 -217 0
-2118 -2363 0
-2364 331 0
-2364 218 0
2364 -331 -218 0
-2118 -2364 0
-2118 328 0
-328 2118 2358 2359 2360 2361 2362 2363 2364 0
-2365 137 0
-2365 260 0
2365 -137 -260 0
-2119 -2365 0
-2366 165 0
-2366 288 0
2366 -165 -288 0
-2119 -2366 0
-2367 186 0
-2367 309 0
2367 -186 -309 0
-2119 -2367 0
-2368 327 0
-2368 333 0
2368 -327 -333 0
-2119 -2368 0
-2369 328 0
-2369 336 0
2369 -328 -336 0
-2119 -2369 0
-2370 330 0
-2370 219 0
2370 -330 -219 0
-2119 -2370 0
-2371 331 0
-2371 220 0
2371 -331 -220 0
-2119 -2371 0
-2119 329 0
-329 2119 2365 2366 2367 2368 2369 2370 2371 0
-2372 137 0
-2372 261 0
2372 -137 -261 0
-2120 -2372 0
-2373 165 0
-2373 289 0
2373 -165 -289 0
-2120 -2373 0
-2374 186 0
-2374 310 0
2374 -186 -310 0
-2120 -2374 0
-2375 327 0
-2375 334 0
2375 -327 -334 0
-2120 -2375 0
-2376 328 0
-2376 337 0
2376 -328 -337 0
-2120 -2376 0
-2377 329 0
-2377 339 0
2377 -329 -339 0
-2120 -2377 0
-2378 331 0
-2378 221 0
2378 -331 -221 0
-2120 -2378 0
-2120 330 0
-330 2120 2372 2373 2374 2375 2376 2377 2378 0
-2379 137 0
-2379 262 0
2379 -137 -262 0
-2121 -2379 0
-2380 165 0
-2380 290 0
2380 -165 -290 0
-2121 -2380 0
-2381 186 0
-2381 311 0
2381 -186 -311 0
-2121 -2381 0
-2382 327 0
-2382 335 0
2382 -327 -335 0
-2121 -2382 0
-2383 328 0
-2383 338 0
2383 -328 -338 0
-2121 -2383 0
-2384 329 0
-2384 340 0
2384 -329 -340 0
-2121 -2384 0
-2385 330 0
-2385 341 0
2385 -330 -341 0
-2121 -2385 0
-2121 331 0
-331 2121 2379 2380 2381 2382 2383 2384 2385 0
-2386 166 0
-2386 123 0
2386 -166 -123 0
-2122 -2386 0
-2387 187 0
-2387 130 0
2387 -187 -130 0
-2122 -2387 0
-2388 207 0
-2388 137 0
2388 -207 -137 0
-2122 -2388 0
-2389 332 0
-2389 139 0
2389 -332 -139 0
-2122 -2389 0
-2390 333 0
-2390 140 0
2390 -333 -140 0
-2122 -2390 0
-2391 334 0
-2391 141 0
2391 -334 -141 0
-2122 -2391 0
-2392 335 0
-2392 142 0
2392 -335 -142 0
-2122 -2392 0
-2122 138 0
-138 2122 2386 2387 2388 2389 2390 2391 2392 0
-2393 138 0
-2393 243 0
2393 -138 -243 0
-2123 -2393 0
-2394 187 0
-2394 158 0
2394 -187 -158 0
-2123 -2394 0
-2395 207 0
-2395 165 0
2395 -207 -165 0
-2123 -2395 0
-2396 332 0
-2396 167 0
2396 -332 -167 0
-2123 -2396 0
-2397 333 0
-2397 168 0
2397 -333 -168 0
-2123 -2397 0
-2398 334 0
-2398 169 0
2398 -334 -169 0
-2123 -2398 0
-2399 335 0
-2399 170 0
2399 -335 -170 0
-2123 -2399 0
-2123 166 0
-166 2123 2393 2394 2395 2396 2397 2398 2399 0
-2400 138 0
-2400 250 0
2400 -138 -250 0
-2124 -2400 0
-2401 166 0
-2401 278 0
2401 -166 -278 0
-2124 -2401 0
-2402 207 0
-2402 186 0
2402 -207 -186 0
-2124 -2402 0
-2403 332 0
-2403 188 0
2403 -332 -188 0
-2124 -2403 0
-2404 333 0
-2404 189 0
2404 -333 -189 0
-2124 -2404 0
-2405 334 0
-2405 190 0
2405 -334 -190 0
-2124 -2405 0
-2406 335 0
-2406 191 0
2406 -335 -191 0
-2124 -2406 0
-2124 187 0
-187 2124 2400 2401 2402 2403 2404 2405 2406 0
-2407 138 0
-2407 257 0
2407 -138 -257 0
-2125 -2407 0
-2408 166 0
-2408 285 0
2408 -166 -285 0
-2125 -2408 0
-2409 187 0
-2409 306 0
2409 -187 -306 0
-2125 -2409 0
-2410 332 0
-2410 208 0
2410 -332 -208 0
-2125 -2410 0
-2411 333 0
-2411 209 0
2411 -333 -209 0
-2125 -2411 0
-2412 334 0
-2412 210 0
2412 -334 -210 0
-2125 -2412 0
-2413 335 0
-2413 211 0
2413 -335 -211 0
-2125 -2413 0
-2125 207 0
-207 2125 2407 2408 2409 2410 2411 2412 2413 0
-2414 138 0
-2414 259 0
2414 -138 -259 0
-2126 -2414 0
-2415 166 0
-2415 287 0
2415 -166 -287 0
-2126 -2415 0
-2416 187 0
-2416 308 0
2416 -187 -308 0
-2126 -2416 0
-2417 207 0
-2417 328 0
2417 -207 -328 0
-2126 -2417 0
-2418 333 0
-2418 216 0
2418 -333 -216 0
-2126 -2418 0
-2419 334 0
-2419 217 0
2419 -334 -217 0
-2126 -2419 0
-2420 335 0
-2420 218 0
2420 -335 -218 0
-2126 -2420 0
-2126 332 0
-332 2126 2414 2415 2416 2417 2418 2419 2420 0
-2421 138 0
-2421 260 0
2421 -138 -260 0
-2127 -2421 0
-2422 166 0
-2422 288 0
2422 -166 -288 0
-2127 -2422 0
-2423 187 0
-2423 309 0
2423 -187 -309 0
-2127 -2423 0
-2424 207 0
-2424 329 0
2424 -207 -329 0
-2127 -2424 0
-2425 332 0
-2425 336 0
2425 -332 -336 0
-2127 -2425 0
-2426 334 0
-2426 219 0
2426 -334 -219 0
-2127 -2426 0
-2427 335 0
-2427 220 0
2427 -335 -220 0
-2127 -2427 0
-2127 333 0
-333 2127 2421 2422 2423 2424 2425 2426 2427 0
-2428 138 0
-2428 261 0
2428 -138 -261 0
-2128 -2428 0
-2429 166 0
-2429 289 0
2429 -166 -289 0
-2128 -2429 0
-2430 187 0
-2430 310 0
2430 -187 -310 0
-2128 -2430 0
-2431 207 0
-2431 330 0
2431 -207 -330 0
-2128 -2431 0
-2432 332 0
-2432 337 0
2432 -332 -337 0
-2128 -2432 0
-2433 333 0
-2433 339 0
2433 -333 -339 0
-2128 -2433 0
-2434 335 0
-2434 221 0
2434 -335 -221 0
-2128 -2434 0
-2128 334 0
-334 2128 2428 2429 2430 2431 2432 2433 2434 0
-2435 138 0
-2435 262 0
2435 -138 -262 0
-2129 -2435 0
-2436 166 0
-2436 290 0
2436 -166 -290 0
-2129 -2436 0
-2437 187 0
-2437 311 0
2437 -187 -311 0
-2129 -2437 0
-2438 207 0
-2438 331 0
2438 -207 -331 0
-2129 -2438 0
-2439 332 0
-2439 338 0
2439 -332 -338 0
-2129 -2439 0
-2440 333 0
-2440 340 0
2440 -333 -340 0
-2129 -2440 0
-2441 334 0
-2441 341 0
2441 -334 -341 0
-2129 -2441 0
-2129 335 0
-335 2129 2435 2436 2437 2438 2439 2440 2441 0
-2442 167 0
-2442 123 0
2442 -167 -123 0
-2130 -2442 0
-2443 188 0
-2443 130 0
2443 -188 -130 0
-2130 -2443 0
-2444 208 0
-2444 137 0
2444 -208 -137 0
-2130 -2444 0
-2445 212 0
-2445 138 0
2445 -212 -138 0
-2130 -2445 0
-2446 336 0
-2446 140 0
2446 -336 -140 0
-2130 -2446 0
-2447 337 0
-2447 141 0
2447 -337 -141 0
-2130 -2447 0
-2448 338 0
-2448 142 0
2448 -338 -142 0
-2130 -2448 0
-2130 139 0
-139 2130 2442 2443 2444 2445 2446 2447 2448 0
-2449 139 0
-2449 243 0
2449 -139 -243 0
-2131 -2449 0
-2450 188 0
-2450 158 0
2450 -188 -158 0
-2131 -2450 0
-2451 208 0
-2451 165 0
2451 -208 -165 0
-2131 -2451 0
-2452 212 0
-2452 166 0
2452 -212 -166 0
-2131 -2452 0
-2453 336 0
-2453 168 0
2453 -336 -168 0
-2131 -2453 0
-2454 337 0
-2454 169 0
2454 -337 -169 0
-2131 -2454 0
-2455 338 0
-2455 170 0
2455 -338 -170 0
-2131 -2455 0
-2131 167 0
-167 2131 2449 2450 2451 2452 2453 2454 2455 0
-2456 139 0
-2456 250 0
2456 -139 -250 0
-2132 -2456 0
-2457 167 0
-2457 278 0
2457 -167 -278 0
-2132 -2457 0
-2458 208 0
-2458 186 0
2458 -208 -186 0
-2132 -2458 0
-2459 212 0
-2459 187 0
2459 -212 -187 0
-2132 -2459 0
-2460 336 0
-2460 189 0
2460 -336 -189 0
-2132 -2460 0
-2461 337 0
-2461 190 0
2461 -337 -190 0
-2132 -2461 0
-2462 338 0
-2462 191 0
2462 -338 -191 0
-2132 -2462 0
-2132 188 0
-188 2132 2456 2457 2458 2459 2460 2461 2462 0
-2463 139 0
-2463 257 0
2463 -139 -257 0
-2133 -2463 0
-2464 167 0
-2464 285 0
2464 -167 -285 0
-2133 -2464 0
-2465 188 0
-2465 306 0
2465 -188 -306 0
-2133 -2465 0
-2466 212 0
-2466 207 0
2466 -212 -207 0
-2133 -2466 0
-2467 336 0
-2467 209 0
2467 -336 -209 0
-2133 -2467 0
-2468 337 0
-2468 210 0
2468 -337 -210 0
-2133 -2468 0
-2469 338 0
-2469 211 0
2469 -338 -211 0
-2133 -2469 0
-2133 208 0
-208 2133 2463 2464 2465 2466 2467 2468 2469 0
-2470 139 0
-2470 258 0
2470 -139 -258 0
-2134 -2470 0
-2471 167 0
-2471 286 0
2471 -167 -286 0
-2134 -2471 0
-2472 188 0
-2472 307 0
2472 -188 -307 0
-2134 -2472 0
-2473 208 0
-2473 327 0
2473 -208 -327 0
-2134 -2473 0
-2474 336 0
-2474 213 0
2474 -336 -213 0
-2134 -2474 0
-2475 337 0
-2475 214 0
2475 -337 -214 0
-2134 -2475 0
-2476 338 0
-2476 215 0
2476 -338 -215 0
-2134 -2476 0
-2134 212 0
-212 2134 2470 2471 2472 2473 2474 2475 2476 0
-2477 139 0
-2477 260 0
2477 -139 -260 0
-2135 -2477 0
-2478 167 0
-2478 288 0
2478 -167 -288 0
-2135 -2478 0
-2479 188 0
-2479 309 0
2479 -188 -309 0
-2135 -2479 0
-2480 208 0
-2480 329 0
2480 -208 -329 0
-2135 -2480 0
-2481 212 0
-2481 333 0
2481 -212 -333 0
-2135 -2481 0
-2482 337 0
-2482 219 0
2482 -337 -219 0
-2135 -2482 0
-2483 338 0
-2483 220 0
2483 -338 -220 0
-2135 -2483 0
-2135 336 0
-336 2135 2477 2478 2479 2480 2481 2482 2483 0
-2484 139 0
-2484 261 0
2484 -139 -261 0
-2136 -2484 0
-2485 167 0
-2485 289 0
2485 -167 -289 0
-2136 -2485 0
-2486 188 0
-2486 310 0
2486 -188 -310 0
-2136 -2486 0
-2487 208 0
-2487 330 0
2487 -208 -330 0
-2136 -2487 0
-2488 212 0
-2488 334 0
2488 -212 -334 0
-2136 -2488 0
-2489 336 0
-2489 339 0
2489 -336 -339 0
-2136 -2489 0
-2490 338 0
-2490 221 0
2490 -338 -221 0
-2136 -2490 0
-2136 337 0
-337 2136 2484 2485 2486 2487 2488 2489 2490 0
-2491 139 0
-2491 262 0
2491 -139 -262 0
-2137 -2491 0
-2492 167 0
-2492 290 0
2492 -167 -290 0
-2137 -2492 0
-2493 188 0
-2493 311 0
2493 -188 -311 0
-2137 -2493 0
-2494 208 0
-2494 331 0
2494 -208 -331 0
-2137 -2494 0
-2495 212 0
-2495 335 0
2495 -212 -335 0
-2137 -2495 0
-2496 336 0
-2496 340 0
2496 -336 -340 0
-2137 -2496 0
-2497 337 0
-2497 341 0
2497 -337 -341 0
-2137 -2497 0
-2137 338 0
-338 2137 2491 2492 2493 2494 2495 2496 2497 0
-2498 168 0
-2498 123 0
2498 -168 -123 0
-2138 -2498 0
-2499 189 0
-2499 130 0
2499 -189 -130 0
-2138 -2499 0
-2500 209 0
-2500 137 0
2500 -209 -137 0
-2138 -2500 0
-2501 213 0
-2501 138 0
2501 -213 -138 0
-2138 -2501 0
-2502 216 0
-2502 139 0
2502 -216 -139 0
-2138 -2502 0
-2503 339 0
-2503 141 0
2503 -339 -141 0
-2138 -2503 0
-2504 340 0
-2504 142 0
2504 -340 -142 0
-2138 -2504 0
-2138 140 0
-140 2138 2498 2499 2500 2501 2502 2503 2504 0
-2505 140 0
-2505 243 0
2505 -140 -243 0
-2139 -2505 0
-2506 189 0
-2506 158 0
2506 -189 -158 0
-2139 -2506 0
-2507 209 0
-2507 165 0
2507 -209 -165 0
-2139 -2507 0
-2508 213 0
-2508 166 0
2508 -213 -166 0
-2139 -2508 0
-2509 216 0
-2509 167 0
2509 -216 -167 0
-2139 -2509 0
-2510 339 0
-2510 169 0
2510 -339 -169 0
-2139 -2510 0
-2511 340 0
-2511 170 0
2511 -340 -170 0
-2139 -2511 0
-2139 168 0
-168 2139 2505 2506 2507 2508 2509 2510 2511 0
-2512 140 0
-2512 250 0
2512 -140 -250 0
-2140 -2512 0
-2513 168 0
-2513 278 0
2513 -168 -278 0
-2140 -2513 0
-2514 209 0
-2514 186 0
2514 -209 -186 0
-2140 -2514 0
-2515 213 0
-2515 187 0
2515 -213 -187 0
-2140 -2515 0
-2516 216 0
-2516 188 0
2516 -216 -188 0
-2140 -2516 0
-2517 339 0
-2517 190 0
2517 -339 -190 0
-2140 -2517 0
-2518 340 0
-2518 191 0
2518 -340 -191 0
-2140 -2518 0
-2140 189 0
-189 2140 2512 2513 2514 2515 2516 2517 2518 0
-2519 140 0
-2519 257 0
2519 -140 -257 0
-2141 -2519 0
-2520 168 0
-2520 285 0
2520 -168 -285 0
-2141 -2520 0
-2521 189 0
-2521 306 0
2521 -189 -306 0
-2141 -2521 0
-2522 213 0
-2522 207 0
2522 -213 -207 0
-2141 -2522 0
-2523 216 0
-2523 208 0
2523 -216 -208 0
-2141 -2523 0
-2524 339 0
-2524 210 0
2524 -339 -210 0
-2141 -2524 0
-2525 340 0
-2525 211 0
2525 -340 -211 0
-2141 -2525 0
-2141 209 0
-209 2141 2519 2520 2521 2522 2523 2524 2525 0
-2526 140 0
-2526 258 0
2526 -140 -258 0
-2142 -2526 0
-2527 168 0
-2527 286 0
2527 -168 -286 0
-2142 -2527 0
-2528 189 0
-2528 307 0
2528 -189 -307 0
-2142 -2528 0
-2529 209 0
-2529 327 0
2529 -209 -327 0
-2142 -2529 0
-2530 216 0
-2530 212 0
2530 -216 -212 0
-2142 -2530 0
-2531 339 0
-2531 214 0
2531 -339 -214 0
-2142 -2531 0
-2532 340 0
-2532 215 0
2532 -340 -215 0
-2142 -2532 0
-2142 213 0
-213 2142 2526 2527 2528 2529 2530 2531 2532 0
-2533 140 0
-2533 259 0
2533 -140 -259 0
-2143 -2533 0
-2534 168 0
-2534 287 0
2534 -168 -287 0
-2143 -2534 0
-2535 189 0
-2535 308 0
2535 -189 -308 0
-2143 -2535 0
-2536 209 0
-2536 328 0
2536 -209 -328 0
-2143 -2536 0
-2537 213 0
-2537 332 0
2537 -213 -332 0
-2143 -2537 0
-2538 339 0
-2538 217 0
2538 -339 -217 0
-2143 -2538 0
-2539 340 0
-2539 218 0
2539 -340 -218 0
-2143 -2539 0
-2143 216 0
-216 2143 2533 2534 2535 2536 2537 2538 2539 0
-2540 140 0
-2540 261 0
2540 -140 -261 0
-2144 -2540 0
-2541 168 0
-2541 289 0
2541 -168 -289 0
-2144 -2541 0
-2542 189 0
-2542 310 0
2542 -189 -310 0
-2144 -2542 0
-2543 209 0
-2543 330 0
2543 -209 -330 0
-2144 -2543 0
-2544 213 0
-2544 334 0
2544 -213 -334 0
-2144 -2544 0
-2545 216 0
-2545 337 0
2545 -216 -337 0
-2144 -2545 0
-2546 340 0
-2546 221 0
2546 -340 -221 0
-2144 -2546 0
-2144 339 0
-339 2144 2540 2541 2542 2543 2544 2545 2546 0
-2547 140 0
-2547 262 0
2547 -140 -262 0
-2145 -2547 0
-2548 168 0
-2548 290 0
2548 -168 -290 0
-2145 -2548 0
-2549 189 0
-2549 311 0
2549 -189 -311 0
-2145 -2549 0
-2550 209 0
-2550 331 0
2550 -209 -331 0
-2145 -2550 0
-2551 213 0
-2551 335 0
2551 -213 -335 0
-2145 -2551 0
-2552 216 0
-2552 338 0
2552 -216 -338 0
-2145 -2552 0
-2553 339 0
-2553 341 0
2553 -339 -341 0
-2145 -2553 0
-2145 340 0
-340 2145 2547 2548 2549 2550 2551 2552 2553 0
-2554 169 0
-2554 123 0
2554 -169 -123 0
-2146 -2554 0
-2555 190 0
-2555 130 0
2555 -190 -130 0
-2146 -2555 0
-2556 210 0
-2556 137 0
2556 -210 -137 0
-2146 -2556 0
-2557 214 0
-2557 138 0
2557 -214 -138 0
-2146 -2557 0
-2558 217 0
-2558 139 0
2558 -217 -139 0
-2146 -2558 0
-2559 219 0
-2559 140 0
2559 -219 -140 0
-2146 -2559 0
-2560 341 0
-2560 142 0
2560 -341 -142 0
-2146 -2560 0
-2146 141 0
-141 2146 2554 2555 2556 2557 2558 2559 2560 0
-2561 141 0
-2561 243 0
2561 -141 -243 0
-2147 -2561 0
-2562 190 0
-2562 158 0
2562 -190 -158 0
-2147 -2562 0
-2563 210 0
-2563 165 0
2563 -210 -165 0
-2147 -2563 0
-2564 214 0
-2564 166 0
2564 -214 -166 0
-2147 -2564 0
-2565 217 0
-2565 167 0
2565 -217 -167 0
-2147 -2565 0
-2566 219 0
-2566 168 0
2566 -219 -168 0
-2147 -2566 0
-2567 341 0
-2567 170 0
2567 -341 -170 0
-2147 -2567 0
-2147 169 0
-169 2147 2561 2562 2563 2564 2565 2566 2567 0
-2568 141 0
-2568 250 0
2568 -141 -250 0
-2148 -2568 0
-2569 169 0
-2569 278 0
2569 -169 -278 0
-2148 -2569 0
-2570 210 0
-2570 186 0
2570 -210 -186 0
-2148 -2570 0
-2571 214 0
-2571 187 0
2571 -214 -187 0
-2148 -2571 0
-2572 217 0
-2572 188 0
2572 -217 -188 0
-2148 -2572 0
-2573 219 0
-2573 189 0
2573 -219 -189 0
-2148 -2573 0
-2574 341 0
-2574 191 0
2574 -341 -191 0
-2148 -2574 0
-2148 190 0
-190 2148 2568 2569 2570 2571 2572 2573 2574 0
-2575 141 0
-2575 257 0
2575 -141 -257 0
-2149 -2575 0
-2576 169 0
-2576 285 0
2576 -169 -285 0
-2149 -2576 0
-2577 190 0
-2577 306 0
2577 -190 -306 0
-2149 -2577 0
-2578 214 0
-2578 207 0
2578 -214 -207 0
-2149 -2578 0
-2579 217 0
-2579 208 0
2579 -217 -208 0
-2149 -2579 0
-2580 219 0
-2580 209 0
2580 -219 -209 0
-2149 -2580 0
-2581 341 0
-2581 211 0
2581 -341 -211 0
-2149 -2581 0
-2149 210 0
-210 2149 2575 2576 2577 2578 2579 2580 2581 0
-2582 141 0
-2582 258 0
2582 -141 -258 0
-2150 -2582 0
-2583 169 0
-2583 286 0
2583 -169 -286 0
-2150 -2583 0
-2584 190 0
-2584 307 0
2584 -190 -307 0
-2150 -2584 0
-2585 210 0
-2585 327 0
2585 -210 -327 0
-2150 -2585 0
-2586 217 0
-2586 212 0
2586 -217 -212 0
-2150 -2586 0
-2587 219 0
-2587 213 0
2587 -219 -213 0
-2150 -2587 0
-2588 341 0
-2588 215 0
2588 -341 -215 0
-2150 -2588 0
-2150 214 0
-214 2150 2582 2583 2584 2585 2586 2587 2588 0
-2589 141 0
-2589 259 0
2589 -141 -259 0
-2151 -2589 0
-2590 169 0
-2590 287 0
2590 -169 -287 0
-2151 -2590 0
-2591 190 0
-2591 308 0
2591 -190 -308 0
-2151 -2591 0
-2592 210 0
-2592 328 0
2592 -210 -328 0
-2151 -2592 0
-2593 214 0
-2593 332 0
2593 -214 -332 0
-2151 -2593 0
-2594 219 0
-2594 216 0
2594 -219 -216 0
-2151 -2594 0
-2595 341 0
-2595 218 0
2595 -341 -218 0
-2151 -2595 0
-2151 217 0
-217 2151 2589 2590 2591 2592 2593 2594 2595 0
-2596 141 0
-2596 260 0
2596 -141 -260 0
-2152 -2596 0
-2597 169 0
-2597 288 0
2597 -169 -288 0
-2152 -2597 0
-2598 190 0
-2598 309 0
2598 -190 -309 0
-2152 -2598 0
-2599 210 0
-2599 329 0
2599 -210 -329 0
-2152 -2599 0
-2600 214 0
-2600 333 0
2600 -214 -333 0
-2152 -2600 0
-2601 217 0
-2601 336 0
2601 -217 -336 0
-2152 -2601 0
-2602 341 0
-2602 220 0
2602 -341 -220 0
-2152 -2602 0
-2152 219 0
-219 2152 2596 2597 2598 2599 2600 2601 2602 0
-2603 141 0
-2603 262 0
2603 -141 -262 0
-2153 -2603 0
-2604 169 0
-2604 290 0
2604 -169 -290 0
-2153 -2604 0
-2605 190 0
-2605 311 0
2605 -190 -311 0
-2153 -2605 0
-2606 210 0
-2606 331 0
2606 -210 -331 0
-2153 -2606 0
-2607 214 0
-2607 335 0
2607 -214 -335 0
-2153 -2607 0
-2608 217 0
-2608 338 0
2608 -217 -338 0
-2153 -2608 0
-2609 219 0
-2609 340 0
2609 -219 -340 0
-2153 -2609 0
-2153 341 0
-341 2153 2603 2604 2605 2606 2607 2608 2609 0
-2610 170 0
-2610 123 0
2610 -170 -123 0
-2154 -2610 0
-2611 191 0
-2611 130 0
2611 -191 -130 0
-2154 -2611 0
-2612 211 0
-2612 137 0
2612 -211 -137 0
-2154 -2612 0
-2613 215 0
-2613 138 0
2613 -215 -138 0
-2154 -2613 0
-2614 218 0
-2614 139 0
2614 -218 -139 0
-2154 -2614 0
-2615 220 0
-2615 140 0
2615 -220 -140 0
-2154 -2615 0
-2616 221 0
-2616 141 0
2616 -221 -141 0
-2154 -2616 0
-2154 142 0
-142 2154 2610 2611 2612 2613 2614 2615 2616 0
-2617 142 0
-2617 243 0
2617 -142 -243 0
-2155 -2617 0
-2618 191 0
-2618 158 0
2618 -191 -158 0
-2155 -2618 0
-2619 211 0
-2619 165 0
2619 -211 -165 0
-2155 -2619 0
-2620 215 0
-2620 166 0
2620 -215 -166 0
-2155 -2620 0
-2621 218 0
-2621 167 0
2621 -218 -167 0
-2155 -2621 0
-2622 220 0
-2622 168 0
2622 -220 -168 0
-2155 -2622 0
-2623 221 0
-2623 169 0
2623 -221 -169 0
-2155 -2623 0
-2155 170 0
-170 2155 2617 2618 2619 2620 2621 2622 2623 0
-2624 142 0
-2624 250 0
2624 -142 -250 0
-2156 -2624 0
-2625 170 0
-2625 278 0
2625 -170 -278 0
-2156 -2625 0
-2626 211 0
-2626 186 0
2626 -211 -186 0
-2156 -2626 0
-2627 215 0
-2627 187 0
2627 -215 -187 0
-2156 -2627 0
-2628 218 0
-2628 188 0
2628 -218 -188 0
-2156 -2628 0
-2629 220 0
-2629 189 0
2629 -220 -189 0
-2156 -2629 0
-2630 221 0
-2630 190 0
2630 -221 -190 0
-2156 -2630 0
-2156 191 0
-191 2156 2624 2625 2626 2627 2628 2629 2630 0
-2631 142 0
-2631 257 0
2631 -142 -257 0
-2157 -2631 0
-2632 170 0
-2632 285 0
2632 -170 -285 0
-2157 -2632 0
-2633 191 0
-2633 306 0
2633 -191 -306 0
-2157 -2633 0
-2634 215 0
-2634 207 0
2634 -215 -207 0
-2157 -2634 0
-2635 218 0
-2635 208 0
2635 -218 -208 0
-2157 -2635 0
-2636 220 0
-2636 209 0
2636 -220 -209 0
-2157 -2636 0
-2637 221 0
-2637 210 0
2637 -221 -210 0
-2157 -2637 0
-2157 211 0
-211 2157 2631 2632 2633 2634 2635 2636 2637 0
-2638 142 0
-2638 258 0
2638 -142 -258 0
-2158 -2638 0
-2639 170 0
-2639 286 0
2639 -170 -286 0
-2158 -2639 0
-2640 191 0
-2640 307 0
2640 -191 -307 0
-2158 -2640 0
-2641 211 0
-2641 327 0
2641 -211 -327 0
-2158 -2641 0
-2642 218 0
-2642 212 0
2642 -218 -212 0
-2158 -2642 0
-2643 220 0
-2643 213 0
2643 -220 -213 0
-2158 -2643 0
-2644 221 0
-2644 214 0
2644 -221 -214 0
-2158 -2644 0
-2158 215 0
-215 2158 2638 2639 2640 2641 2642 2643 2644 0
-2645 142 0
-2645 259 0
2645 -142 -259 0
-2159 -2645 0
-2646 170 0
-2646 287 0
2646 -170 -287 0
-2159 -2646 0
-2647 191 0
-2647 308 0
2647 -191 -308 0
-2159 -2647 0
-2648 211 0
-2648 328 0
2648 -211 -328 0
-2159 -2648 0
-2649 215 0
-2649 332 0
2649 -215 -332 0
-2159 -2649 0
-2650 220 0
-2650 216 0
2650 -220 -216 0
-2159 -2650 0
-2651 221 0
-2651 217 0
2651 -221 -217 0
-2159 -2651 0
-2159 218 0
-218 2159 2645 2646 2647 2648 2649 2650 2651 0
-2652 142 0
-2652 260 0
2652 -142 -260 0
-2160 -2652 0
-2653 170 0
-2653 288 0
2653 -170 -288 0
-2160 -2653 0
-2654 191 0
-2654 309 0
2654 -191 -309 0
-2160 -2654 0
-2655 211 0
-2655 329 0
2655 -211 -329 0
-2160 -2655 0
-2656 215 0
-2656 333 0
2656 -215 -333 0
-2160 -2656 0
-2657 218 0
-2657 336 0
2657 -218 -336 0
-2160 -2657 0
-2658 221 0
-2658 219 0
2658 -221 -219 0
-2160 -2658 0
-2160 220 0
-220 2160 2652 2653 2654 2655 2656 2657 2658 0
-2659 142 0
-2659 261 0
2659 -142 -261 0
-2161 -2659 0
-2660 170 0
-2660 289 0
2660 -170 -289 0
-2161 -2660 0
-2661 191 0
-2661 310 0
2661 -191 -310 0
-2161 -2661 0
-2662 211 0
-2662 330 0
2662 -211 -330 0
-2161 -2662 0
-2663 215 0
-2663 334 0
2663 -215 -334 0
-2161 -2663 0
-2664 218 0
-2664 337 0
2664 -218 -337 0
-2161 -2664 0
-2665 220 0
-2665 339 0
2665 -220 -339 0
-2161 -2665 0
-2161 221 0
-221 2161 2659 2660 2661 2662 2663 2664 2665 0
-2738 251 0
-2738 159 0
2738 -251 -159 0
-2666 -2738 0
-2739 257 0
-2739 165 0
2739 -257 -165 0
-2666 -2739 0
-2740 263 0
-2740 171 0
2740 -263 -171 0
-2666 -2740 0
-2741 264 0
-2741 172 0
2741 -264 -172 0
-2666 -2741 0
-2742 265 0
-2742 173 0
2742 -265 -173 0
-2666 -2742 0
-2743 266 0
-2743 174 0
2743 -266 -174 0
-2666 -2743 0
-2744 267 0
-2744 175 0
2744 -267 -175 0
-2666 -2744 0
-2666 244 0
-244 2666 2738 2739 2740 2741 2742 2743 2744 0
-2745 244 0
-2745 279 0
2745 -244 -279 0
-2667 -2745 0
-2746 257 0
-2746 186 0
2746 -257 -186 0
-2667 -2746 0
-2747 263 0
-2747 192 0
2747 -263 -192 0
-2667 -2747 0
-2748 264 0
-2748 193 0
2748 -264 -193 0
-2667 -2748 0
-2749 265 0
-2749 194 0
2749 -265 -194 0
-2667 -2749 0
-2750 266 0
-2750 195 0
2750 -266 -195 0
-2667 -2750 0
-2751 267 0
-2751 196 0
2751 -267 -196 0
-2667 -2751 0
-2667 251 0
-251 2667 2745 2746 2747 2748 2749 2750 2751 0
-2752 244 0
-2752 285 0
2752 -244 -285 0
-2668 -2752 0
-2753 251 0
-2753 306 0
2753 -251 -306 0
-2668 -2753 0
-2754 263 0
-2754 207 0
2754 -263 -207 0
-2668 -2754 0
-2755 264 0
-2755 208 0
2755 -264 -208 0
-2668 -2755 0
-2756 265 0
-2756 209 0
2756 -265 -209 0
-2668 -2756 0
-2757 266 0
-2757 210 0
2757 -266 -210 0
-2668 -2757 0
-2758 267 0
-2758 211 0
2758 -267 -211 0
-2668 -2758 0
-2668 257 0
-257 2668 2752 2753 2754 2755 2756 2757 2758 0
-2759 244 0
-2759 291 0
2759 -244 -291 0
-2669 -2759 0
-2760 251 0
-2760 312 0
2760 -251 -312 0
-2669 -2760 0
-2761 257 0
-2761 327 0
2761 -257 -327 0
-2669 -2761 0
-2762 264 0
-2762 222 0
2762 -264 -222 0
-2669 -2762 0
-2763 265 0
-2763 223 0
2763 -265 -223 0
-2669 -2763 0
-2764 266 0
-2764 224 0
2764 -266 -224 0
-2669 -2764 0
-2765 267 0
-2765 225 0
2765 -267 -225 0
-2669 -2765 0
-2669 263 0
-263 2669 2759 2760 2761 2762 2763 2764 2765 0
-2766 244 0
-2766 292 0
2766 -244 -292 0
-2670 -2766 0
-2767 251 0
-2767 313 0
2767 -251 -313 0
-2670 -2767 0
-2768 257 0
-2768 328 0
2768 -257 -328 0
-2670 -2768 0
-2769 263 0
-2769 342 0
2769 -263 -342 0
-2670 -2769 0
-2770 265 0
-2770 226 0
2770 -265 -226 0
-2670 -2770 0
-2771 266 0
-2771 227 0
2771 -266 -227 0
-2670 -2771 0
-2772 267 0
-2772 228 0
2772 -267 -228 0
-2670 -2772 0
-2670 264 0
-264 2670 2766 2767 2768 2769 2770 2771 2772 0
-2773 244 0
-2773 293 0
2773 -244 -293 0
-2671 -2773 0
-2774 251 0
-2774 314 0
2774 -251 -314 0
-2671 -2774 0
-2775 257 0
-2775 329 0
2775 -257 -329 0
-2671 -2775 0
-2776 263 0
-2776 343 0
2776 -263 -343 0
-2671 -2776 0
-2777 264 0
-2777 346 0
2777 -264 -346 0
-2671 -2777 0
-2778 266 0
-2778 229 0
2778 -266 -229 0
-2671 -2778 0
-2779 267 0
-2779 230 0
2779 -267 -230 0
-2671 -2779 0
-2671 265 0
-265 2671 2773 2774 2775 2776 2777 2778 2779 0
-2780 244 0
-2780 294 0
2780 -244 -294 0
-2672 -2780 0
-2781 251 0
-2781 315 0
2781 -251 -315 0
-2672 -2781 0
-2782 257 0
-2782 330 0
2782 -257 -330 0
-2672 -2782 0
-2783 263 0
-2783 344 0
2783 -263 -344 0
-2672 -2783 0
-2784 264 0
-2784 347 0
2784 -264 -347 0
-2672 -2784 0
-2785 265 0
-2785 349 0
2785 -265 -349 0
-2672 -2785 0
-2786 267 0
-2786 231 0
2786 -267 -231 0
-2672 -2786 0
-2672 266 0
-266 2672 2780 2781 2782 2783 2784 2785 2786 0
-2787 244 0
-2787 295 0
2787 -244 -295 0
-2673 -2787 0
-2788 251 0
-2788 316 0
2788 -251 -316 0
-2673 -2788 0
-2789 257 0
-2789 331 0
2789 -257 -331 0
-2673 -2789 0
-2790 263 0
-2790 345 0
2790 -263 -345 0
-2673 -2790 0
-2791 264 0
-2791 348 0
2791 -264 -348 0
-2673 -2791 0
-2792 265 0
-2792 350 0
2792 -265 -350 0
-2673 -2792 0
-2793 266 0
-2793 351 0
2793 -266 -351 0
-2673 -2793 0
-2673 267 0
-267 2673 2787 2788 2789 2790 2791 2792 2793 0
-2794 279 0
-2794 131 0
2794 -279 -131 0
-2674 -2794 0
-2795 285 0
-2795 137 0
2795 -285 -137 0
-2674 -2795 0
-2796 291 0
-2796 143 0
2796 -291 -143 0
-2674 -2796 0
-2797 292 0
-2797 144 0
2797 -292 -144 0
-2674 -2797 0
-2798 293 0
-2798 145 0
2798 -293 -145 0
-2674 -2798 0
-2799 294 0
-2799 146 0
2799 -294 -146 0
-2674 -2799 0
-2800 295 0
-2800 147 0
2800 -295 -147 0
-2674 -2800 0
-2674 124 0
-124 2674 2794 2795 2796 2797 2798 2799 2800 0
-2801 124 0
-2801 251 0
2801 -124 -251 0
-2675 -2801 0
-2802 285 0
-2802 186 0
2802 -285 -186 0
-2675 -2802 0
-2803 291 0
-2803 192 0
2803 -291 -192 0
-2675 -2803 0
-2804 292 0
-2804 193 0
2804 -292 -193 0
-2675 -2804 0
-2805 293 0
-2805 194 0
2805 -293 -194 0
-2675 -2805 0
-2806 294 0
-2806 195 0
2806 -294 -195 0
-2675 -2806 0
-2807 295 0
-2807 196 0
2807 -295 -196 0
-2675 -2807 0
-2675 279 0
-279 2675 2801 2802 2803 2804 2805 2806 2807 0
-2808 124 0
-2808 257 0
2808 -124 -257 0
-2676 -2808 0
-2809 279 0
-2809 306 0
2809 -279 -306 0
-2676 -2809 0
-2810 291 0
-2810 207 0
2810 -291 -207 0
-2676 -2810 0
-2811 292 0
-2811 208 0
2811 -292 -208 0
-2676 -2811 0
-2812 293 0
-2812 209 0
2812 -293 -209 0
-2676 -2812 0
-2813 294 0
-2813 210 0
2813 -294 -210 0
-2676 -2813 0
-2814 295 0
-2814 211 0
2814 -295 -211 0
-2676 -2814 0
-2676 285 0
-285 2676 2808 2809 2810 2811 2812 2813 2814 0
-2815 124 0
-2815 263 0
2815 -124 -263 0
-2677 -2815 0
-2816 279 0
-2816 312 0
2816 -279 -312 0
-2677 -2816 0
-2817 285 0
-2817 327 0
2817 -285 -327 0
-2677 -2817 0
-2818 292 0
-2818 222 0
2818 -292 -222 0
-2677 -2818 0
-2819 293 0
-2819 223 0
2819 -293 -223 0
-2677 -2819 0
-2820 294 0
-2820 224 0
2820 -294 -224 0
-2677 -2820 0
-2821 295 0
-2821 225 0
2821 -295 -225 0
-2677 -2821 0
-2677 291 0
-291 2677 2815 2816 2817 2818 2819 2820 2821 0
-2822 124 0
-2822 264 0
2822 -124 -264 0
-2678 -2822 0
-2823 279 0
-2823 313 0
2823 -279 -313 0
-2678 -2823 0
-2824 285 0
-2824 328 0
2824 -285 -328 0
-2678 -2824 0
-2825 291 0
-2825 342 0
2825 -291 -342 0
-2678 -2825 0
-2826 293 0
-2826 226 0
2826 -293 -226 0
-2678 -2826 0
-2827 294 0
-2827 227 0
2827 -294 -227 0
-2678 -2827 0
-2828 295 0
-2828 228 0
2828 -295 -228 0
-2678 -2828 0
-2678 292 0
-292 2678 2822 2823 2824 2825 2826 2827 2828 0
-2829 124 0
-2829 265 0
2829 -124 -265 0
-2679 -2829 0
-2830 279 0
-2830 314 0
2830 -279 -314 0
-2679 -2830 0
-2831 285 0
-2831 329 0
2831 -285 -329 0
-2679 -2831 0
-2832 291 0
-2832 343 0
2832 -291 -343 0
-2679 -2832 0
-2833 292 0
-2833 346 0
2833 -292 -346 0
-2679 -2833 0
-2834 294 0
-2834 229 0
2834 -294 -229 0
-2679 -2834 0
-2835 295 0
-2835 230 0
2835 -295 -230 0
-2679 -2835 0
-2679 293 0
-293 2679 2829 2830 2831 2832 2833 2834 2835 0
-2836 124 0
-2836 266 0
2836 -124 -266 0
-2680 -2836 0
-2837 279 0
-2837 315 0
2837 -279 -315 0
-2680 -2837 0
-2838 285 0
-2838 330 0
2838 -285 -330 0
-2680 -2838 0
-2839 291 0
-2839 344 0
2839 -291 -344 0
-2680 -2839 0
-2840 292 0
-2840 347 0
2840 -292 -347 0
-2680 -2840 0
-2841 293 0
-2841 349 0
2841 -293 -349 0
-2680 -2841 0
-2842 295 0
-2842 231 0
2842 -295 -231 0
-2680 -2842 0
-2680 294 0
-294 2680 2836 2837 2838 2839 2840 2841 2842 0
-2843 124 0
-2843 267 0
2843 -124 -267 0
-2681 -2843 0
-2844 279 0
-2844 316 0
2844 -279 -316 0
-2681 -2844 0
-2845 285 0
-2845 331 0
2845 -285 -331 0
-2681 -2845 0
-2846 291 0
-2846 345 0
2846 -291 -345 0
-2681 -2846 0
-2847 292 0
-2847 348 0
2847 -292 -348 0
-2681 -2847 0
-2848 293 0
-2848 350 0
2848 -293 -350 0
-2681 -2848 0
-2849 294 0
-2849 351 0
2849 -294 -351 0
-2681 -2849 0
-2681 295 0
-295 2681 2843 2844 2845 2846 2847 2848 2849 0
-2850 159 0
-2850 124 0
2850 -159 -124 0
-2682 -2850 0
-2851 306 0
-2851 137 0
2851 -306 -137 0
-2682 -2851 0
-2852 312 0
-2852 143 0
2852 -312 -143 0
-2682 -2852 0
-2853 313 0
-2853 144 0
2853 -313 -144 0
-2682 -2853 0
-2854 314 0
-2854 145 0
2854 -314 -145 0
-2682 -2854 0
-2855 315 0
-2855 146 0
2855 -315 -146 0
-2682 -2855 0
-2856 316 0
-2856 147 0
2856 -316 -147 0
-2682 -2856 0
-2682 131 0
-131 2682 2850 2851 2852 2853 2854 2855 2856 0
-2857 131 0
-2857 244 0
2857 -131 -244 0
-2683 -2857 0
-2858 306 0
-2858 165 0
2858 -306 -165 0
-2683 -2858 0
-2859 312 0
-2859 171 0
2859 -312 -171 0
-2683 -2859 0
-2860 313 0
-2860 172 0
2860 -313 -172 0
-2683 -2860 0
-2861 314 0
-2861 173 0
2861 -314 -173 0
-2683 -2861 0
-2862 315 0
-2862 174 0
2862 -315 -174 0
-2683 -2862 0
-2863 316 0
-2863 175 0
2863 -316 -175 0
-2683 -2863 0
-2683 159 0
-159 2683 2857 2858 2859 2860 2861 2862 2863 0
-2864 131 0
-2864 257 0
2864 -131 -257 0
-2684 -2864 0
-2865 159 0
-2865 285 0
2865 -159 -285 0
-2684 -2865 0
-2866 312 0
-2866 207 0
2866 -312 -207 0
-2684 -2866 0
-2867 313 0
-2867 208 0
2867 -313 -208 0
-2684 -2867 0
-2868 314 0
-2868 209 0
2868 -314 -209 0
-2684 -2868 0
-2869 315 0
-2869 210 0
2869 -315 -210 0
-2684 -2869 0
-2870 316 0
-2870 211 0
2870 -316 -211 0
-2684 -2870 0
-2684 306 0
-306 2684 2864 2865 2866 2867 2868 2869 2870 0
-2871 131 0
-2871 263 0
2871 -131 -263 0
-2685 -2871 0
-2872 159 0
-2872 291 0
2872 -159 -291 0
-2685 -2872 0
-2873 306 0
-2873 327 0
2873 -306 -327 0
-2685 -2873 0
-2874 313 0
-2874 222 0
2874 -313 -222 0
-2685 -2874 0
-2875 314 0
-2875 223 0
2875 -314 -223 0
-2685 -2875 0
-2876 315 0
-2876 224 0
2876 -315 -224 0
-2685 -2876 0
-2877 316 0
-2877 225 0
2877 -316 -225 0
-2685 -2877 0
-2685 312 0
-312 2685 2871 2872 2873 2874 2875 2876 2877 0
-2878 131 0
-2878 264 0
2878 -131 -264 0
-2686 -2878 0
-2879 159 0
-2879 292 0
2879 -159 -292 0
-2686 -2879 0
-2880 306 0
-2880 328 0
2880 -306 -328 0
-2686 -2880 0
-2881 312 0
-2881 342 0
2881 -312 -342 0
-2686 -2881 0
-2882 314 0
-2882 226 0
2882 -314 -226 0
-2686 -2882 0
-2883 315 0
-2883 227 0
2883 -315 -227 0
-2686 -2883 0
-2884 316 0
-2884 228 0
2884 -316 -228 0
-2686 -2884 0
-2686 313 0
-313 2686 2878 2879 2880 2881 2882 2883 2884 0
-2885 131 0
-2885 265 0
2885 -131 -265 0
-2687 -2885 0
-2886 159 0
-2886 293 0
2886 -159 -293 0
-2687 -2886 0
-2887 306 0
-2887 329 0
2887 -306 -329 0
-2687 -2887 0
-2888 312 0
-2888 343 0
2888 -312 -343 0
-2687 -2888 0
-2889 313 0
-2889 346 0
2889 -313 -346 0
-2687 -2889 0
-2890 315 0
-2890 229 0
2890 -315 -229 0
-2687 -2890 0
-2891 316 0
-2891 230 0
2891 -316 -230 0
-2687 -2891 0
-2687 314 0
-314 2687 2885 2886 2887 2888 2889 2890 2891 0
-2892 131 0
-2892 266 0
2892 -131 -266 0
-2688 -2892 0
-2893 159 0
-2893 294 0
2893 -159 -294 0
-2688 -2893 0
-2894 306 0
-2894 330 0
2894 -306 -330 0
-2688 -2894 0
-2895 312 0
-2895 344 0
2895 -312 -344 0
-2688 -2895 0
-2896 313 0
-2896 347 0
2896 -313 -347 0
-2688 -2896 0
-2897 314 0
-2897 349 0
2897 -314 -349 0
-2688 -2897 0
-2898 316 0
-2898 231 0
2898 -316 -231 0
-2688 -2898 0
-2688 315 0
-315 2688 2892 2893 2894 2895 2896 2897 2898 0
-2899 131 0
-2899 267 0
2899 -131 -267 0
-2689 -2899 0
-2900 159 0
-2900 295 0
2900 -159 -295 0
-2689 -2900 0
-2901 306 0
-2901 331 0
2901 -306 -331 0
-2689 -2901 0
-2902 312 0
-2902 345 0
2902 -312 -345 0
-2689 -2902 0
-2903 313 0
-2903 348 0
2903 -313 -348 0
-2689 -2903 0
-2904 314 0
-2904 350 0
2904 -314 -350 0
-2689 -2904 0
-2905 315 0
-2905 351 0
2905 -315 -351 0
-2689 -2905 0
-2689 316 0
-316 2689 2899 2900 2901 2902 2903 2904 2905 0
-2906 165 0
-2906 124 0
2906 -165 -124 0
-2690 -2906 0
-2907 186 0
-2907 131 0
2907 -186 -131 0
-2690 -2907 0
-2908 327 0
-2908 143 0
2908 -327 -143 0
-2690 -2908 0
-2909 328 0
-2909 144 0
2909 -328 -144 0
-2690 -2909 0
-2910 329 0
-2910 145 0
2910 -329 -145 0
-2690 -2910 0
-2911 330 0
-2911 146 0
2911 -330 -146 0
-2690 -2911 0
-2912 331 0
-2912 147 0
2912 -331 -147 0
-2690 -2912 0
-2690 137 0
-137 2690 2906 2907 2908 2909 2910 2911 2912 0
-2913 137 0
-2913 244 0
2913 -137 -244 0
-2691 -2913 0
-2914 186 0
-2914 159 0
2914 -186 -159 0
-2691 -2914 0
-2915 327 0
-2915 171 0
2915 -327 -171 0
-2691 -2915 0
-2916 328 0
-2916 172 0
2916 -328 -172 0
-2691 -2916 0
-2917 329 0
-2917 173 0
2917 -329 -173 0
-2691 -2917 0
-2918 330 0
-2918 174 0
2918 -330 -174 0
-2691 -2918 0
-2919 331 0
-2919 175 0
2919 -331 -175 0
-2691 -2919 0
-2691 165 0
-165 2691 2913 2914 2915 2916 2917 2918 2919 0
-2920 137 0
-2920 251 0
2920 -137 -251 0
-2692 -2920 0
-2921 165 0
-2921 279 0
2921 -165 -279 0
-2692 -2921 0
-2922 327 0
-2922 192 0
2922 -327 -192 0
-2692 -2922 0
-2923 328 0
-2923 193 0
2923 -328 -193 0
-2692 -2923 0
-2924 329 0
-2924 194 0
2924 -329 -194 0
-2692 -2924 0
-2925 330 0
-2925 195 0
2925 -330 -195 0
-2692 -2925 0
-2926 331 0
-2926 196 0
2926 -331 -196 0
-2692 -2926 0
-2692 186 0
-186 2692 2920 2921 2922 2923 2924 2925 2926 0
-2927 137 0
-2927 263 0
2927 -137 -263 0
-2693 -2927 0
-2928 165 0
-2928 291 0
2928 -165 -291 0
-2693 -2928 0
-2929 186 0
-2929 312 0
2929 -186 -312 0
-2693 -2929 0
-2930 328 0
-2930 222 0
2930 -328 -222 0
-2693 -2930 0
-2931 329 0
-2931 223 0
2931 -329 -223 0
-2693 -2931 0
-2932 330 0
-2932 224 0
2932 -330 -224 0
-2693 -2932 0
-2933 331 0
-2933 225 0
2933 -331 -225 0
-2693 -2933 0
-2693 327 0
-327 2693 2927 2928 2929 2930 2931 2932 2933 0
-2934 137 0
-2934 264 0
2934 -137 -264 0
-2694 -2934 0
-2935 165 0
-2935 292 0
2935 -165 -292 0
-2694 -2935 0
-2936 186 0
-2936 313 0
2936 -186 -313 0
-2694 -2936 0
-2937 327 0
-2937 342 0
2937 -327 -342 0
-2694 -2937 0
-2938 329 0
-2938 226 0
2938 -329 -226 0
-2694 -2938 0
-2939 330 0
-2939 227 0
2939 -330 -227 0
-2694 -2939 0
-2940 331 0
-2940 228 0
2940 -331 -228 0
-2694 -2940 0
-2694 328 0
-328 2694 2934 2935 2936 2937 2938 2939 2940 0
-2941 137 0
-2941 265 0
2941 -137 -265 0
-2695 -2941 0
-2942 165 0
-2942 293 0
2942 -165 -293 0
-2695 -2942 0
-2943 186 0
-2943 314 0
2943 -186 -314 0
-2695 -2943 0
-2944 327 0
-2944 343 0
2944 -327 -343 0
-2695 -2944 0
-2945 328 0
-2945 346 0
2945 -328 -346 0
-2695 -2945 0
-2946 330 0
-2946 229 0
2946 -330 -229 0
-2695 -2946 0
-2947 331 0
-2947 230 0
2947 -331 -230 0
-2695 -2947 0
-2695 329 0
-329 2695 2941 2942 2943 2944 2945 2946 2947 0
-2948 137 0
-2948 266 0
2948 -137 -266 0
-2696 -2948 0
-2949 165 0
-2949 294 0
2949 -165 -294 0
-2696 -2949 0
-2950 186 0
-2950 315 0
2950 -186 -315 0
-2696 -2950 0
-2951 327 0
-2951 344 0
2951 -327 -344 0
-2696 -2951 0
-2952 328 0
-2952 347 0
2952 -328 -347 0
-2696 -2952 0
-2953 329 0
-2953 349 0
2953 -329 -349 0
-2696 -2953 0
-2954 331 0
-2954 231 0
2954 -331 -231 0
-2696 -2954 0
-2696 330 0
-330 2696 2948 2949 2950 2951 2952 2953 2954 0
-2955 137 0
-2955 267 0
2955 -137 -267 0
-2697 -2955 0
-2956 165 0
-2956 295 0
2956 -165 -295 0
-2697 -2956 0
-2957 186 0
-2957 316 0
2957 -186 -316 0
-2697 -2957 0
-2958 327 0
-2958 345 0
2958 -327 -345 0
-2697 -2958 0
-2959 328 0
-2959 348 0
2959 -328 -348 0
-2697 -2959 0
-2960 329 0
-2960 350 0
2960 -329 -350 0
-2697 -2960 0
-2961 330 0
-2961 351 0
2961 -330 -351 0
-2697 -2961 0
-2697 331 0
-331 2697 2955 2956 2957 2958 2959 2960 2961 0
-2962 171 0
-2962 124 0
2962 -171 -124 0
-2698 -2962 0
-2963 192 0
-2963 131 0
2963 -192 -131 0
-2698 -2963 0
-2964 207 0
-2964 137 0
2964 -207 -137 0
-2698 -2964 0
-2965 342 0
-2965 144 0
2965 -342 -144 0
-2698 -2965 0
-2966 343 0
-2966 145 0
2966 -343 -145 0
-2698 -2966 0
-2967 344 0
-2967 146 0
2967 -344 -146 0
-2698 -2967 0
-2968 345 0
-2968 147 0
2968 -345 -147 0
-2698 -2968 0
-2698 143 0
-143 2698 2962 2963 2964 2965 2966 2967 2968 0
-2969 143 0
-2969 244 0
2969 -143 -244 0
-2699 -2969 0
-2970 192 0
-2970 159 0
2970 -192 -159 0
-2699 -2970 0
-2971 207 0
-2971 165 0
2971 -207 -165 0
-2699 -2971 0
-2972 342 0
-2972 172 0
2972 -342 -172 0
-2699 -2972 0
-2973 343 0
-2973 173 0
2973 -343 -173 0
-2699 -2973 0
-2974 344 0
-2974 174 0
2974 -344 -174 0
-2699 -2974 0
-2975 345 0
-2975 175 0
2975 -345 -175 0
-2699 -2975 0
-2699 171 0
-171 2699 2969 2970 2971 2972 2973 2974 2975 0
-2976 143 0
-2976 251 0
2976 -143 -251 0
-2700 -2976 0
-2977 171 0
-2977 279 0
2977 -171 -279 0
-2700 -2977 0
-2978 207 0
-2978 186 0
2978 -207 -186 0
-2700 -2978 0
-2979 342 0
-2979 193 0
2979 -342 -193 0
-2700 -2979 0
-2980 343 0
-2980 194 0
2980 -343 -194 0
-2700 -2980 0
-2981 344 0
-2981 195 0
2981 -344 -195 0
-2700 -2981 0
-2982 345 0
-2982 196 0
2982 -345 -196 0
-2700 -2982 0
-2700 192 0
-192 2700 2976 2977 2978 2979 2980 2981 2982 0
-2983 143 0
-2983 257 0
2983 -143 -257 0
-2701 -2983 0
-2984 171 0
-2984 285 0
2984 -171 -285 0
-2701 -2984 0
-2985 192 0
-2985 306 0
2985 -192 -306 0
-2701 -2985 0
-2986 342 0
-2986 208 0
2986 -342 -208 0
-2701 -2986 0
-2987 343 0
-2987 209 0
2987 -343 -209 0
-2701 -2987 0
-2988 344 0
-2988 210 0
2988 -344 -210 0
-2701 -2988 0
-2989 345 0
-2989 211 0
2989 -345 -211 0
-2701 -2989 0
-2701 207 0
-207 2701 2983 2984 2985 2986 2987 2988 2989 0
-2990 143 0
-2990 264 0
2990 -143 -264 0
-2702 -2990 0
-2991 171 0
-2991 292 0
2991 -171 -292 0
-2702 -2991 0
-2992 192 0
-2992 313 0
2992 -192 -313 0
-2702 -2992 0
-2993 207 0
-2993 328 0
2993 -207 -328 0
-2702 -2993 0
-2994 343 0
-2994 226 0
2994 -343 -226 0
-2702 -2994 0
-2995 344 0
-2995 227 0
2995 -344 -227 0
-2702 -2995 0
-2996 345 0
-2996 228 0
2996 -345 -228 0
-2702 -2996 0
-2702 342 0
-342 2702 2990 2991 2992 2993 2994 2995 2996 0
-2997 143 0
-2997 265 0
2997 -143 -265 0
-2703 -2997 0
-2998 171 0
-2998 293 0
2998 -171 -293 0
-2703 -2998 0
-2999 192 0
-2999 314 0
2999 -192 -314 0
-2703 -2999 0
-3000 207 0
-3000 329 0
3000 -207 -329 0
-2703 -3000 0
-3001 342 0
-3001 346 0
3001 -342 -346 0
-2703 -3001 0
-3002 344 0
-3002 229 0
3002 -344 -229 0
-2703 -3002 0
-3003 345 0
-3003 230 0
3003 -345 -230 0
-2703 -3003 0
-2703 343 0
-343 2703 2997 2998 2999 3000 3001 3002 3003 0
-3004 143 0
-3004 266 0
3004 -143 -266 0
-2704 -3004 0
-3005 171 0
-3005 294 0
3005 -171 -294 0
-2704 -3005 0
-3006 192 0
-3006 315 0
3006 -192 -315 0
-2704 -3006 0
-3007 207 0
-3007 330 0
3007 -207 -330 0
-2704 -3007 0
-3008 342 0
-3008 347 0
3008 -342 -347 0
-2704 -3008 0
-3009 343 0
-3009 349 0
3009 -343 -349 0
-2704 -3009 0
-3010 345 0
-3010 231 0
3010 -345 -231 0
-2704 -3010 0
-2704 344 0
-344 2704 3004 3005 3006 3007 3008 3009 3010 0
-3011 143 0
-3011 267 0
3011 -143 -267 0
-2705 -3011 0
-3012 171 0
-3012 295 0
3012 -171 -295 0
-2705 -3012 0
-3013 192 0
-3013 316 0
3013 -192 -316 0
-2705 -3013 0
-3014 207 0
-3014 331 0
3014 -207 -331 0
-2705 -3014 0
-3015 342 0
-3015 348 0
3015 -342 -348 0
-2705 -3015 0
-3016 343 0
-3016 350 0
3016 -343 -350 0
-2705 -3016 0
-3017 344 0
-3017 351 0
3017 -344 -351 0
-2705 -3017 0
-2705 345 0
-345 2705 3011 3012 3013 3014 3015 3016 3017 0
-3018 172 0
-3018 124 0
3018 -172 -124 0
-2706 -3018 0
-3019 193 0
-3019 131 0
3019 -193 -131 0
-2706 -3019 0
-3020 208 0
-3020 137 0
3020 -208 -137 0
-2706 -3020 0
-3021 222 0
-3021 143 0
3021 -222 -143 0
-2706 -3021 0
-3022 346 0
-3022 145 0
3022 -346 -145 0
-2706 -3022 0
-3023 347 0
-3023 146 0
3023 -347 -146 0
-2706 -3023 0
-3024 348 0
-3024 147 0
3024 -348 -147 0
-2706 -3024 0
-2706 144 0
-144 2706 3018 3019 3020 3021 3022 3023 3024 0
-3025 144 0
-3025 244 0
3025 -144 -244 0
-2707 -3025 0
-3026 193 0
-3026 159 0
3026 -193 -159 0
-2707 -3026 0
-3027 208 0
-3027 165 0
3027 -208 -165 0
-2707 -3027 0
-3028 222 0
-3028 171 0
3028 -222 -171 0
-2707 -3028 0
-3029 346 0
-3029 173 0
3029 -346 -173 0
-2707 -3029 0
-3030 347 0
-3030 174 0
3030 -347 -174 0
-2707 -3030 0
-3031 348 0
-3031 175 0
3031 -348 -175 0
-2707 -3031 0
-2707 172 0
-172 2707 3025 3026 3027 3028 3029 3030 3031 0
-3032 144 0
-3032 251 0
3032 -144 -251 0
-2708 -3032 0
-3033 172 0
-3033 279 0
3033 -172 -279 0
-2708 -3033 0
-3034 208 0
-3034 186 0
3034 -208 -186 0
-2708 -3034 0
-3035 222 0
-3035 192 0
3035 -222 -192 0
-2708 -3035 0
-3036 346 0
-3036 194 0
3036 -346 -194 0
-2708 -3036 0
-3037 347 0
-3037 195 0
3037 -347 -195 0
-2708 -3037 0
-3038 348 0
-3038 196 0
3038 -348 -196 0
-2708 -3038 0
-2708 193 0
-193 2708 3032 3033 3034 3035 3036 3037 3038 0
-3039 144 0
-3039 257 0
3039 -144 -257 0
-2709 -3039 0
-3040 172 0
-3040 285 0
3040 -172 -285 0
-2709 -3040 0
-3041 193 0
-3041 306 0
3041 -193 -306 0
-2709 -3041 0
-3042 222 0
-3042 207 0
3042 -222 -207 0
-2709 -3042 0
-3043 346 0
-3043 209 0
3043 -346 -209 0
-2709 -3043 0
-3044 347 0
-3044 210 0
3044 -347 -210 0
-2709 -3044 0
-3045 348 0
-3045 211 0
3045 -348 -211 0
-2709 -3045 0
-2709 208 0
-208 2709 3039 3040 3041 3042 3043 3044 3045 0
-3046 144 0
-3046 263 0
3046 -144 -263 0
-2710 -3046 0
-3047 172 0
-3047 291 0
3047 -172 -291 0
-2710 -3047 0
-3048 193 0
-3048 312 0
3048 -193 -312 0
-2710 -3048 0
-3049 208 0
-3049 327 0
3049 -208 -327 0
-2710 -3049 0
-3050 346 0
-3050 223 0
3050 -346 -223 0
-2710 -3050 0
-3051 347 0
-3051 224 0
3051 -347 -224 0
-2710 -3051 0
-3052 348 0
-3052 225 0
3052 -348 -225 0
-2710 -3052 0
-2710 222 0
-222 2710 3046 3047 3048 3049 3050 3051 3052 0
-3053 144 0
-3053 265 0
3053 -144 -265 0
-2711 -3053 0
-3054 172 0
-3054 293 0
3054 -172 -293 0
-2711 -3054 0
-3055 193 0
-3055 314 0
3055 -193 -314 0
-2711 -3055 0
-3056 208 0
-3056 329 0
3056 -208 -329 0
-2711 -3056 0
-3057 222 0
-3057 343 0
3057 -222 -343 0
-2711 -3057 0
-3058 347 0
-3058 229 0
3058 -347 -229 0
-2711 -3058 0
-3059 348 0
-3059 230 0
3059 -348 -230 0
-2711 -3059 0
-2711 346 0
-346 2711 3053 3054 3055 3056 3057 3058 3059 0
-3060 144 0
-3060 266 0
3060 -144 -266 0
-2712 -3060 0
-3061 172 0
-3061 294 0
3061 -172 -294 0
-2712 -3061 0
-3062 193 0
-3062 315 0
3062 -193 -315 0
-2712 -3062 0
-3063 208 0
-3063 330 0
3063 -208 -330 0
-2712 -3063 0
-3064 222 0
-3064 344 0
3064 -222 -344 0
-2712 -3064 0
-3065 346 0
-3065 349 0
3065 -346 -349 0
-2712 -3065 0
-3066 348 0
-3066 231 0
3066 -348 -231 0
-2712 -3066 0
-2712 347 0
-347 2712 3060 3061 3062 3063 3064 3065 3066 0
-3067 144 0
-3067 267 0
3067 -144 -267 0
-2713 -3067 0
-3068 172 0
-3068 295 0
3068 -172 -295 0
-2713 -3068 0
-3069 193 0
-3069 316 0
3069 -193 -316 0
-2713 -3069 0
-3070 208 0
-3070 331 0
3070 -208 -331 0
-2713 -3070 0
-3071 222 0
-3071 345 0
3071 -222 -345 0
-2713 -3071 0
-3072 346 0
-3072 350 0
3072 -346 -350 0
-2713 -3072 0
-3073 347 0
-3073 351 0
3073 -347 -351 0
-2713 -3073 0
-2713 348 0
-348 2713 3067 3068 3069 3070 3071 3072 3073 0
-3074 173 0
-3074 124 0
3074 -173 -124 0
-2714 -3074 0
-3075 194 0
-3075 131 0
3075 -194 -131 0
-2714 -3075 0
-3076 209 0
-3076 137 0
3076 -209 -137 0
-2714 -3076 0
-3077 223 0
-3077 143 0
3077 -223 -143 0
-2714 -3077 0
-3078 226 0
-3078 144 0
3078 -226 -144 0
-2714 -3078 0
-3079 349 0
-3079 146 0
3079 -349 -146 0
-2714 -3079 0
-3080 350 0
-3080 147 0
3080 -350 -147 0
-2714 -3080 0
-2714 145 0
-145 2714 3074 3075 3076 3077 3078 3079 3080 0
-3081 145 0
-3081 244 0
3081 -145 -244 0
-2715 -3081 0
-3082 194 0
-3082 159 0
3082 -194 -159 0
-2715 -3082 0
-3083 209 0
-3083 165 0
3083 -209 -165 0
-2715 -3083 0
-3084 223 0
-3084 171 0
3084 -223 -171 0
-2715 -3084 0
-3085 226 0
-3085 172 0
3085 -226 -172 0
-2715 -3085 0
-3086 349 0
-3086 174 0
3086 -349 -174 0
-2715 -3086 0
-3087 350 0
-3087 175 0
3087 -350 -175 0
-2715 -3087 0
-2715 173 0
-173 2715 3081 3082 3083 3084 3085 3086 3087 0
-3088 145 0
-3088 251 0
3088 -145 -251 0
-2716 -3088 0
-3089 173 0
-3089 279 0
3089 -173 -279 0
-2716 -3089 0
-3090 209 0
-3090 186 0
3090 -209 -186 0
-2716 -3090 0
-3091 223 0
-3091 192 0
3091 -223 -192 0
-2716 -3091 0
-3092 226 0
-3092 193 0
3092 -226 -193 0
-2716 -3092 0
-3093 349 0
-3093 195 0
3093 -349 -195 0
-2716 -3093 0
-3094 350 0
-3094 196 0
3094 -350 -196 0
-2716 -3094 0
-2716 194 0
-194 2716 3088 3089 3090 3091 3092 3093 3094 0
-3095 145 0
-3095 257 0
3095 -145 -257 0
-2717 -3095 0
-3096 173 0
-3096 285 0
3096 -173 -285 0
-2717 -3096 0
-3097 194 0
-3097 306 0
3097 -194 -306 0
-2717 -3097 0
-3098 223 0
-3098 207 0
3098 -223 -207 0
-2717 -3098 0
-3099 226 0
-3099 208 0
3099 -226 -208 0
-2717 -3099 0
-3100 349 0
-3100 210 0
3100 -349 -210 0
-2717 -3100 0
-3101 350 0
-3101 211 0
3101 -350 -211 0
-2717 -3101 0
-2717 209 0
-209 2717 3095 3096 3097 3098 3099 3100 3101 0
-3102 145 0
-3102 263 0
3102 -145 -263 0
-2718 -3102 0
-3103 173 0
-3103 291 0
3103 -173 -291 0
-2718 -3103 0
-3104 194 0
-3104 312 0
3104 -194 -312 0
-2718 -3104 0
-3105 209 0
-3105 327 0
3105 -209 -327 0
-2718 -3105 0
-3106 226 0
-3106 222 0
3106 -226 -222 0
-2718 -3106 0
-3107 349 0
-3107 224 0
3107 -349 -224 0
-2718 -3107 0
-3108 350 0
-3108 225 0
3108 -350 -225 0
-2718 -3108 0
-2718 223 0
-223 2718 3102 3103 3104 3105 3106 3107 3108 0
-3109 145 0
-3109 264 0
3109 -145 -264 0
-2719 -3109 0
-3110 173 0
-3110 292 0
3110 -173 -292 0
-2719 -3110 0
-3111 194 0
-3111 313 0
3111 -194 -313 0
-2719 -3111 0
-3112 209 0
-3112 328 0
3112 -209 -328 0
-2719 -3112 0
-3113 223 0
-3113 342 0
3113 -223 -342 0
-2719 -3113 0
-3114 349 0
-3114 227 0
3114 -349 -227 0
-2719 -3114 0
-3115 350 0
-3115 228 0
3115 -350 -228 0
-2719 -3115 0
-2719 226 0
-226 2719 3109 3110 3111 3112 3113 3114 3115 0
-3116 145 0
-3116 266 0
3116 -145 -266 0
-2720 -3116 0
-3117 173 0
-3117 294 0
3117 -173 -294 0
-2720 -3117 0
-3118 194 0
-3118 315 0
3118 -194 -315 0
-2720 -3118 0
-3119 209 0
-3119 330 0
3119 -209 -330 0
-2720 -3119 0
-3120 223 0
-3120 344 0
3120 -223 -344 0
-2720 -3120 0
-3121 226 0
-3121 347 0
3121 -226 -347 0
-2720 -3121 0
-3122 350 0
-3122 231 0
3122 -350 -231 0
-2720 -3122 0
-2720 349 0
-349 2720 3116 3117 3118 3119 3120 3121 3122 0
-3123 145 0
-3123 267 0
3123 -145 -267 0
-2721 -3123 0
-3124 173 0
-3124 295 0
3124 -173 -295 0
-2721 -3124 0
-3125 194 0
-3125 316 0
3125 -194 -316 0
-2721 -3125 0
-3126 209 0
-3126 331 0
3126 -209 -331 0
-2721 -3126 0
-3127 223 0
-3127 345 0
3127 -223 -345 0
-2721 -3127 0
-3128 226 0
-3128 348 0
3128 -226 -348 0
-2721 -3128 0
-3129 349 0
-3129 351 0
3129 -349 -351 0
-2721 -3129 0
-2721 350 0
-350 2721 3123 3124 3125 3126 3127 3128 3129 0
-3130 174 0
-3130 124 0
3130 -174 -124 0
-2722 -3130 0
-3131 195 0
-3131 131 0
3131 -195 -131 0
-2722 -3131 0
-3132 210 0
-3132 137 0
3132 -210 -137 0
-2722 -3132 0
-3133 224 0
-3133 143 0
3133 -224 -143 0
-2722 -3133 0
-3134 227 0
-3134 144 0
3134 -227 -144 0
-2722 -3134 0
-3135 229 0
-3135 145 0
3135 -229 -145 0
-2722 -3135 0
-3136 351 0
-3136 147 0
3136 -351 -147 0
-2722 -3136 0
-2722 146 0
-146 2722 3130 3131 3132 3133 3134 3135 3136 0
-3137 146 0
-3137 244 0
3137 -146 -244 0
-2723 -3137 0
-3138 195 0
-3138 159 0
3138 -195 -159 0
-2723 -3138 0
-3139 210 0
-3139 165 0
3139 -210 -165 0
-2723 -3139 0
-3140 224 0
-3140 171 0
3140 -224 -171 0
-2723 -3140 0
-3141 227 0
-3141 172 0
3141 -227 -172 0
-2723 -3141 0
-3142 229 0
-3142 173 0
3142 -229 -173 0
-2723 -3142 0
-3143 351 0
-3143 175 0
3143 -351 -175 0
-2723 -3143 0
-2723 174 0
-174 2723 3137 3138 3139 3140 3141 3142 3143 0
-3144 146 0
-3144 251 0
3144 -146 -251 0
-2724 -3144 0
-3145 174 0
-3145 279 0
3145 -174 -279 0
-2724 -3145 0
-3146 210 0
-3146 186 0
3146 -210 -186 0
-2724 -3146 0
-3147 224 0
-3147 192 0
3147 -224 -192 0
-2724 -3147 0
-3148 227 0
-3148 193 0
3148 -227 -193 0
-2724 -3148 0
-3149 229 0
-3149 194 0
3149 -229 -194 0
-2724 -3149 0
-3150 351 0
-3150 196 0
3150 -351 -196 0
-2724 -3150 0
-2724 195 0
-195 2724 3144 3145 3146 3147 3148 3149 3150 0
-3151 146 0
-3151 257 0
3151 -146 -257 0
-2725 -3151 0
-3152 174 0
-3152 285 0
3152 -174 -285 0
-2725 -3152 0
-3153 195 0
-3153 306 0
3153 -195 -306 0
-2725 -3153 0
-3154 224 0
-3154 207 0
3154 -224 -207 0
-2725 -3154 0
-3155 227 0
-3155 208 0
3155 -227 -208 0
-2725 -3155 0
-3156 229 0
-3156 209 0
3156 -229 -209 0
-2725 -3156 0
-3157 351 0
-3157 211 0
3157 -351 -211 0
-2725 -3157 0
-2725 210 0
-210 2725 3151 3152 3153 3154 3155 3156 3157 0
-3158 146 0
-3158 263 0
3158 -146 -263 0
-2726 -3158 0
-3159 174 0
-3159 291 0
3159 -174 -291 0
-2726 -3159 0
-3160 195 0
-3160 312 0
3160 -195 -312 0
-2726 -3160 0
-3161 210 0
-3161 327 0
3161 -210 -327 0
-2726 -3161 0
-3162 227 0
-3162 222 0
3162 -227 -222 0
-2726 -3162 0
-3163 229 0
-3163 223 0
3163 -229 -223 0
-2726 -3163 0
-3164 351 0
-3164 225 0
3164 -351 -225 0
-2726 -3164 0
-2726 224 0
-224 2726 3158 3159 3160 3161 3162 3163 3164 0
-3165 146 0
-3165 264 0
3165 -146 -264 0
-2727 -3165 0
-3166 174 0
-3166 292 0
3166 -174 -292 0
-2727 -3166 0
-3167 195 0
-3167 313 0
3167 -195 -313 0
-2727 -3167 0
-3168 210 0
-3168 328 0
3168 -210 -328 0
-2727 -3168 0
-3169 224 0
-3169 342 0
3169 -224 -342 0
-2727 -3169 0
-3170 229 0
-3170 226 0
3170 -229 -226 0
-2727 -3170 0
-3171 351 0
-3171 228 0
3171 -351 -228 0
-2727 -3171 0
-2727 227 0
-227 2727 3165 3166 3167 3168 3169 3170 3171 0
-3172 146 0
-3172 265 0
3172 -146 -265 0
-2728 -3172 0
-3173 174 0
-3173 293 0
3173 -174 -293 0
-2728 -3173 0
-3174 195 0
-3174 314 0
3174 -195 -314 0
-2728 -3174 0
-3175 210 0
-3175 329 0
3175 -210 -329 0
-2728 -3175 0
-3176 224 0
-3176 343 0
3176 -224 -343 0
-2728 -3176 0
-3177 227 0
-3177 346 0
3177 -227 -346 0
-2728 -3177 0
-3178 351 0
-3178 230 0
3178 -351 -230 0
-2728 -3178 0
-2728 229 0
-229 2728 3172 3173 3174 3175 3176 3177 3178 0
-3179 146 0
-3179 267 0
3179 -146 -267 0
-2729 -3179 0
-3180 174 0
-3180 295 0
3180 -174 -295 0
-2729 -3180 0
-3181 195 0
-3181 316 0
3181 -195 -316 0
-2729 -3181 0
-3182 210 0
-3182 331 0
3182 -210 -331 0
-2729 -3182 0
-3183 224 0
-3183 345 0
3183 -224 -345 0
-2729 -3183 0
-3184 227 0
-3184 348 0
3184 -227 -348 0
-2729 -3184 0
-3185 229 0
-3185 350 0
3185 -229 -350 0
-2729 -3185 0
-2729 351 0
-351 2729 3179 3180 3181 3182 3183 3184 3185 0
-3186 175 0
-3186 124 0
3186 -175 -124 0
-2730 -3186 0
-3187 196 0
-3187 131 0
3187 -196 -131 0
-2730 -3187 0
-3188 211 0
-3188 137 0
3188 -211 -137 0
-2730 -3188 0
-3189 225 0
-3189 143 0
3189 -225 -143 0
-2730 -3189 0
-3190 228 0
-3190 144 0
3190 -228 -144 0
-2730 -3190 0
-3191 230 0
-3191 145 0
3191 -230 -145 0
-2730 -3191 0
-3192 231 0
-3192 146 0
3192 -231 -146 0
-2730 -3192 0
-2730 147 0
-147 2730 3186 3187 3188 3189 3190 3191 3192 0
-3193 147 0
-3193 244 0
3193 -147 -244 0
-2731 -3193 0
-3194 196 0
-3194 159 0
3194 -196 -159 0
-2731 -3194 0
-3195 211 0
-3195 165 0
3195 -211 -165 0
-2731 -3195 0
-3196 225 0
-3196 171 0
3196 -225 -171 0
-2731 -3196 0
-3197 228 0
-3197 172 0
3197 -228 -172 0
-2731 -3197 0
-3198 230 0
-3198 173 0
3198 -230 -173 0
-2731 -3198 0
-3199 231 0
-3199 174 0
3199 -231 -174 0
-2731 -3199 0
-2731 175 0
-175 2731 3193 3194 3195 3196 3197 3198 3199 0
-3200 147 0
-3200 251 0
3200 -147 -251 0
-2732 -3200 0
-3201 175 0
-3201 279 0
3201 -175 -279 0
-2732 -3201 0
-3202 211 0
-3202 186 0
3202 -211 -186 0
-2732 -3202 0
-3203 225 0
-3203 192 0
3203 -225 -192 0
-2732 -3203 0
-3204 228 0
-3204 193 0
3204 -228 -193 0
-2732 -3204 0
-3205 230 0
-3205 194 0
3205 -230 -194 0
-2732 -3205 0
-3206 231 0
-3206 195 0
3206 -231 -195 0
-2732 -3206 0
-2732 196 0
-196 2732 3200 3201 3202 3203 3204 3205 3206 0
-3207 147 0
-3207 257 0
3207 -147 -257 0
-2733 -3207 0
-3208 175 0
-3208 285 0
3208 -175 -285 0
-2733 -3208 0
-3209 196 0
-3209 306 0
3209 -196 -306 0
-2733 -3209 0
-3210 225 0
-3210 207 0
3210 -225 -207 0
-2733 -3210 0
-3211 228 0
-3211 208 0
3211 -228 -208 0
-2733 -3211 0
-3212 230 0
-3212 209 0
3212 -230 -209 0
-2733 -3212 0
-3213 231 0
-3213 210 0
3213 -231 -210 0
-2733 -3213 0
-2733 211 0
-211 2733 3207 3208 3209 3210 3211 3212 3213 0
-3214 147 0
-3214 263 0
3214 -147 -263 0
-2734 -3214 0
-3215 175 0
-3215 291 0
3215 -175 -291 0
-2734 -3215 0
-3216 196 0
-3216 312 0
3216 -196 -312 0
-2734 -3216 0
-3217 211 0
-3217 327 0
3217 -211 -327 0
-2734 -3217 0
-3218 228 0
-3218 222 0
3218 -228 -222 0
-2734 -3218 0
-3219 230 0
-3219 223 0
3219 -230 -223 0
-2734 -3219 0
-3220 231 0
-3220 224 0
3220 -231 -224 0
-2734 -3220 0
-2734 225 0
-225 2734 3214 3215 3216 3217 3218 3219 3220 0
-3221 147 0
-3221 264 0
3221 -147 -264 0
-2735 -3221 0
-3222 175 0
-3222 292 0
3222 -175 -292 0
-2735 -3222 0
-3223 196 0
-3223 313 0
3223 -196 -313 0
-2735 -3223 0
-3224 211 0
-3224 328 0
3224 -211 -328 0
-2735 -3224 0
-3225 225 0
-3225 342 0
3225 -225 -342 0
-2735 -3225 0
-3226 230 0
-3226 226 0
3226 -230 -226 0
-2735 -3226 0
-3227 231 0
-3227 227 0
3227 -231 -227 0
-2735 -3227 0
-2735 228 0
-228 2735 3221 3222 3223 3224 3225 3226 3227 0
-3228 147 0
-3228 265 0
3228 -147 -265 0
-2736 -3228 0
-3229 175 0
-3229 293 0
3229 -175 -293 0
-2736 -3229 0
-3230 196 0
-3230 314 0
3230 -196 -314 0
-2736 -3230 0
-3231 211 0
-3231 329 0
3231 -211 -329 0
-2736 -3231 0
-3232 225 0
-3232 343 0
3232 -225 -343 0
-2736 -3232 0
-3233 228 0
-3233 346 0
3233 -228 -346 0
-2736 -3233 0
-3234 231 0
-3234 229 0
3234 -231 -229 0
-2736 -3234 0
-2736 230 0
-230 2736 3228 3229 3230 3231 3232 3233 3234 0
-3235 147 0
-3235 266 0
3235 -147 -266 0
-2737 -3235 0
-3236 175 0
-3236 294 0
3236 -175 -294 0
-2737 -3236 0
-3237 196 0
-3237 315 0
3237 -196 -315 0
-2737 -3237 0
-3238 211 0
-3238 330 0
3238 -211 -330 0
-2737 -3238 0
-3239 225 0
-3239 344 0
3239 -225 -344 0
-2737 -3239 0
-3240 228 0
-3240 347 0
3240 -228 -347 0
-2737 -3240 0
-3241 230 0
-3241 349 0
3241 -230 -349 0
-2737 -3241 0
-2737 231 0
-231 2737 3235 3236 3237 3238 3239 3240 3241 0
-3314 252 0
-3314 160 0
3314 -252 -160 0
-3242 -3314 0
-3315 258 0
-3315 166 0
3315 -258 -166 0
-3242 -3315 0
-3316 263 0
-3316 171 0
3316 -263 -171 0
-3242 -3316 0
-3317 268 0
-3317 176 0
3317 -268 -176 0
-3242 -3317 0
-3318 269 0
-3318 177 0
3318 -269 -177 0
-3242 -3318 0
-3319 270 0
-3319 178 0
3319 -270 -178 0
-3242 -3319 0
-3320 271 0
-3320 179 0
3320 -271 -179 0
-3242 -3320 0
-3242 245 0
-245 3242 3314 3315 3316 3317 3318 3319 3320 0
-3321 245 0
-3321 280 0
3321 -245 -280 0
-3243 -3321 0
-3322 258 0
-3322 187 0
3322 -258 -187 0
-3243 -3322 0
-3323 263 0
-3323 192 0
3323 -263 -192 0
-3243 -3323 0
-3324 268 0
-3324 197 0
3324 -268 -197 0
-3243 -3324 0
-3325 269 0
-3325 198 0
3325 -269 -198 0
-3243 -3325 0
-3326 270 0
-3326 199 0
3326 -270 -199 0
-3243 -3326 0
-3327 271 0
-3327 200 0
3327 -271 -200 0
-3243 -3327 0
-3243 252 0
-252 3243 3321 3322 3323 3324 3325 3326 3327 0
-3328 245 0
-3328 286 0
3328 -245 -286 0
-3244 -3328 0
-3329 252 0
-3329 307 0
3329 -252 -307 0
-3244 -3329 0
-3330 263 0
-3330 207 0
3330 -263 -207 0
-3244 -3330 0
-3331 268 0
-3331 212 0
3331 -268 -212 0
-3244 -3331 0
-3332 269 0
-3332 213 0
3332 -269 -213 0
-3244 -3332 0
-3333 270 0
-3333 214 0
3333 -270 -214 0
-3244 -3333 0
-3334 271 0
-3334 215 0
3334 -271 -215 0
-3244 -3334 0
-3244 258 0
-258 3244 3328 3329 3330 3331 3332 3333 3334 0
-3335 245 0
-3335 291 0
3335 -245 -291 0
-3245 -3335 0
-3336 252 0
-3336 312 0
3336 -252 -312 0
-3245 -3336 0
-3337 258 0
-3337 327 0
3337 -258 -327 0
-3245 -3337 0
-3338 268 0
-3338 222 0
3338 -268 -222 0
-3245 -3338 0
-3339 269 0
-3339 223 0
3339 -269 -223 0
-3245 -3339 0
-3340 270 0
-3340 224 0
3340 -270 -224 0
-3245 -3340 0
-3341 271 0
-3341 225 0
3341 -271 -225 0
-3245 -3341 0
-3245 263 0
-263 3245 3335 3336 3337 3338 3339 3340 3341 0
-3342 245 0
-3342 296 0
3342 -245 -296 0
-3246 -3342 0
-3343 252 0
-3343 317 0
3343 -252 -317 0
-3246 -3343 0
-3344 258 0
-3344 332 0
3344 -258 -332 0
-3246 -3344 0
-3345 263 0
-3345 342 0
3345 -263 -342 0
-3246 -3345 0
-3346 269 0
-3346 232 0
3346 -269 -232 0
-3246 -3346 0
-3347 270 0
-3347 233 0
3347 -270 -233 0
-3246 -3347 0
-3348 271 0
-3348 234 0
3348 -271 -234 0
-3246 -3348 0
-3246 268 0
-268 3246 3342 3343 3344 3345 3346 3347 3348 0
-3349 245 0
-3349 297 0
3349 -245 -297 0
-3247 -3349 0
-3350 252 0
-3350 318 0
3350 -252 -318 0
-3247 -3350 0
-3351 258 0
-3351 333 0
3351 -258 -333 0
-3247 -3351 0
-3352 263 0
-3352 343 0
3352 -263 -343 0
-3247 -3352 0
-3353 268 0
-3353 352 0
3353 -268 -352 0
-3247 -3353 0
-3354 270 0
-3354 235 0
3354 -270 -235 0
-3247 -3354 0
-3355 271 0
-3355 236 0
3355 -271 -236 0
-3247 -3355 0
-3247 269 0
-269 3247 3349 3350 3351 3352 3353 3354 3355 0
-3356 245 0
-3356 298 0
3356 -245 -298 0
-3248 -3356 0
-3357 252 0
-3357 319 0
3357 -252 -319 0
-3248 -3357 0
-3358 258 0
-3358 334 0
3358 -258 -334 0
-3248 -3358 0
-3359 263 0
-3359 344 0
3359 -263 -344 0
-3248 -3359 0
-3360 268 0
-3360 353 0
3360 -268 -353 0
-3248 -3360 0
-3361 269 0
-3361 355 0
3361 -269 -355 0
-3248 -3361 0
-3362 271 0
-3362 237 0
3362 -271 -237 0
-3248 -3362 0
-3248 270 0
-270 3248 3356 3357 3358 3359 3360 3361 3362 0
-3363 245 0
-3363 299 0
3363 -245 -299 0
-3249 -3363 0
-3364 252 0
-3364 320 0
3364 -252 -320 0
-3249 -3364 0
-3365 258 0
-3365 335 0
3365 -258 -335 0
-3249 -3365 0
-3366 263 0
-3366 345 0
3366 -263 -345 0
-3249 -3366 0
-3367 268 0
-3367 354 0
3367 -268 -354 0
-3249 -3367 0
-3368 269 0
-3368 356 0
3368 -269 -356 0
-3249 -3368 0
-3369 270 0
-3369 357 0
3369 -270 -357 0
-3249 -3369 0
-3249 271 0
-271 3249 3363 3364 3365 3366 3367 3368 3369 0
-3370 280 0
-3370 132 0
3370 -280 -132 0
-3250 -3370 0
-3371 286 0
-3371 138 0
3371 -286 -138 0
-3250 -3371 0
-3372 291 0
-3372 143 0
3372 -291 -143 0
-3250 -3372 0
-3373 296 0
-3373 148 0
3373 -296 -148 0
-3250 -3373 0
-3374 297 0
-3374 149 0
3374 -297 -149 0
-3250 -3374 0
-3375 298 0
-3375 150 0
3375 -298 -150 0
-3250 -3375 0
-3376 299 0
-3376 151 0
3376 -299 -151 0
-3250 -3376 0
-3250 125 0
-125 3250 3370 3371 3372 3373 3374 3375 3376 0
-3377 125 0
-3377 252 0
3377 -125 -252 0
-3251 -3377 0
-3378 286 0
-3378 187 0
3378 -286 -187 0
-3251 -3378 0
-3379 291 0
-3379 192 0
3379 -291 -192 0
-3251 -3379 0
-3380 296 0
-3380 197 0
3380 -296 -197 0
-3251 -3380 0
-3381 297 0
-3381 198 0
3381 -297 -198 0
-3251 -3381 0
-3382 298 0
-3382 199 0
3382 -298 -199 0
-3251 -3382 0
-3383 299 0
-3383 200 0
3383 -299 -200 0
-3251 -3383 0
-3251 280 0
-280 3251 3377 3378 3379 3380 3381 3382 3383 0
-3384 125 0
-3384 258 0
3384 -125 -258 0
-3252 -3384 0
-3385 280 0
-3385 307 0
3385 -280 -307 0
-3252 -3385 0
-3386 291 0
-3386 207 0
3386 -291 -207 0
-3252 -3386 0
-3387 296 0
-3387 212 0
3387 -296 -212 0
-3252 -3387 0
-3388 297 0
-3388 213 0
3388 -297 -213 0
-3252 -3388 0
-3389 298 0
-3389 214 0
3389 -298 -214 0
-3252 -3389 0
-3390 299 0
-3390 215 0
3390 -299 -215 0
-3252 -3390 0
-3252 286 0
-286 3252 3384 3385 3386 3387 3388 3389 3390 0
-3391 125 0
-3391 263 0
3391 -125 -263 0
-3253 -3391 0
-3392 280 0
-3392 312 0
3392 -280 -312 0
-3253 -3392 0
-3393 286 0
-3393 327 0
3393 -286 -327 0
-3253 -3393 0
-3394 296 0
-3394 222 0
3394 -296 -222 0
-3253 -3394 0
-3395 297 0
-3395 223 0
3395 -297 -223 0
-3253 -3395 0
-3396 298 0
-3396 224 0
3396 -298 -224 0
-3253 -3396 0
-3397 299 0
-3397 225 0
3397 -299 -225 0
-3253 -3397 0
-3253 291 0
-291 3253 3391 3392 3393 3394 3395 3396 3397 0
-3398 125 0
-3398 268 0
3398 -125 -268 0
-3254 -3398 0
-3399 280 0
-3399 317 0
3399 -280 -317 0
-3254 -3399 0
-3400 286 0
-3400 332 0
3400 -286 -332 0
-3254 -3400 0
-3401 291 0
-3401 342 0
3401 -291 -342 0
-3254 -3401 0
-3402 297 0
-3402 232 0
3402 -297 -232 0
-3254 -3402 0
-3403 298 0
-3403 233 0
3403 -298 -233 0
-3254 -3403 0
-3404 299 0
-3404 234 0
3404 -299 -234 0
-3254 -3404 0
-3254 296 0
-296 3254 3398 3399 3400 3401 3402 3403 3404 0
-3405 125 0
-3405 269 0
3405 -125 -269 0
-3255 -3405 0
-3406 280 0
-3406 318 0
3406 -280 -318 0
-3255 -3406 0
-3407 286 0
-3407 333 0
3407 -286 -333 0
-3255 -3407 0
-3408 291 0
-3408 343 0
3408 -291 -343 0
-3255 -3408 0
-3409 296 0
-3409 352 0
3409 -296 -352 0
-3255 -3409 0
-3410 298 0
-3410 235 0
3410 -298 -235 0
-3255 -3410 0
-3411 299 0
-3411 236 0
3411 -299 -236 0
-3255 -3411 0
-3255 297 0
-297 3255 3405 3406 3407 3408 3409 3410 3411 0
-3412 125 0
-3412 270 0
3412 -125 -270 0
-3256 -3412 0
-3413 280 0
-3413 319 0
3413 -280 -319 0
-3256 -3413 0
-3414 286 0
-3414 334 0
3414 -286 -334 0
-3256 -3414 0
-3415 291 0
-3415 344 0
3415 -291 -344 0
-3256 -3415 0
-3416 296 0
-3416 353 0
3416 -296 -353 0
-3256 -3416 0
-3417 297 0
-3417 355 0
3417 -297 -355 0
-3256 -3417 0
-3418 299 0
-3418 237 0
3418 -299 -237 0
-3256 -3418 0
-3256 298 0
-298 3256 3412 3413 3414 3415 3416 3417 3418 0
-3419 125 0
-3419 271 0
3419 -125 -271 0
-3257 -3419 0
-3420 280 0
-3420 320 0
3420 -280 -320 0
-3257 -3420 0
-3421 286 0
-3421 335 0
3421 -286 -335 0
-3257 -3421 0
-3422 291 0
-3422 345 0
3422 -291 -345 0
-3257 -3422 0
-3423 296 0
-3423 354 0
3423 -296 -354 0
-3257 -3423 0
-3424 297 0
-3424 356 0
3424 -297 -356 0
-3257 -3424 0
-3425 298 0
-3425 357 0
3425 -298 -357 0
-3257 -3425 0
-3257 299 0
-299 3257 3419 3420 3421 3422 3423 3424 3425 0
-3426 160 0
-3426 125 0
3426 -160 -125 0
-3258 -3426 0
-3427 307 0
-3427 138 0
3427 -307 -138 0
-3258 -3427 0
-3428 312 0
-3428 143 0
3428 -312 -143 0
-3258 -3428 0
-3429 317 0
-3429 148 0
3429 -317 -148 0
-3258 -3429 0
-3430 318 0
-3430 149 0
3430 -318 -149 0
-3258 -3430 0
-3431 319 0
-3431 150 0
3431 -319 -150 0
-3258 -3431 0
-3432 320 0
-3432 151 0
3432 -320 -151 0
-3258 -3432 0
-3258 132 0
-132 3258 3426 3427 3428 3429 3430 3431 3432 0
-3433 132 0
-3433 245 0
3433 -132 -245 0
-3259 -3433 0
-3434 307 0
-3434 166 0
3434 -307 -166 0
-3259 -3434 0
-3435 312 0
-3435 171 0
3435 -312 -171 0
-3259 -3435 0
-3436 317 0
-3436 176 0
3436 -317 -176 0
-3259 -3436 0
-3437 318 0
-3437 177 0
3437 -318 -177 0
-3259 -3437 0
-3438 319 0
-3438 178 0
3438 -319 -178 0
-3259 -3438 0
-3439 320 0
-3439 179 0
3439 -320 -179 0
-3259 -3439 0
-3259 160 0
-160 3259 3433 3434 3435 3436 3437 3438 3439 0
-3440 132 0
-3440 258 0
3440 -132 -258 0
-3260 -3440 0
-3441 160 0
-3441 286 0
3441 -160 -286 0
-3260 -3441 0
-3442 312 0
-3442 207 0
3442 -312 -207 0
-3260 -3442 0
-3443 317 0
-3443 212 0
3443 -317 -212 0
-3260 -3443 0
-3444 318 0
-3444 213 0
3444 -318 -213 0
-3260 -3444 0
-3445 319 0
-3445 214 0
3445 -319 -214 0
-3260 -3445 0
-3446 320 0
-3446 215 0
3446 -320 -215 0
-3260 -3446 0
-3260 307 0
-307 3260 3440 3441 3442 3443 3444 3445 3446 0
-3447 132 0
-3447 263 0
3447 -132 -263 0
-3261 -3447 0
-3448 160 0
-3448 291 0
3448 -160 -291 0
-3261 -3448 0
-3449 307 0
-3449 327 0
3449 -307 -327 0
-3261 -3449 0
-3450 317 0
-3450 222 0
3450 -317 -222 0
-3261 -3450 0
-3451 318 0
-3451 223 0
3451 -318 -223 0
-3261 -3451 0
-3452 319 0
-3452 224 0
3452 -319 -224 0
-3261 -3452 0
-3453 320 0
-3453 225 0
3453 -320 -225 0
-3261 -3453 0
-3261 312 0
-312 3261 3447 3448 3449 3450 3451 3452 3453 0
-3454 132 0
-3454 268 0
3454 -132 -268 0
-3262 -3454 0
-3455 160 0
-3455 296 0
3455 -160 -296 0
-3262 -3455 0
-3456 307 0
-3456 332 0
3456 -307 -332 0
-3262 -3456 0
-3457 312 0
-3457 342 0
3457 -312 -342 0
-3262 -3457 0
-3458 318 0
-3458 232 0
3458 -318 -232 0
-3262 -3458 0
-3459 319 0
-3459 233 0
3459 -319 -233 0
-3262 -3459 0
-3460 320 0
-3460 234 0
3460 -320 -234 0
-3262 -3460 0
-3262 317 0
-317 3262 3454 3455 3456 3457 3458 3459 3460 0
-3461 132 0
-3461 269 0
3461 -132 -269 0
-3263 -3461 0
-3462 160 0
-3462 297 0
3462 -160 -297 0
-3263 -3462 0
-3463 307 0
-3463 333 0
3463 -307 -333 0
-3263 -3463 0
-3464 312 0
-3464 343 0
3464 -312 -343 0
-3263 -3464 0
-3465 317 0
-3465 352 0
3465 -317 -352 0
-3263 -3465 0
-3466 319 0
-3466 235 0
3466 -319 -235 0
-3263 -3466 0
-3467 320 0
-3467 236 0
3467 -320 -236 0
-3263 -3467 0
-3263 318 0
-318 3263 3461 3462 3463 3464 3465 3466 3467 0
-3468 132 0
-3468 270 0
3468 -132 -270 0
-3264 -3468 0
-3469 160 0
-3469 298 0
3469 -160 -298 0
-3264 -3469 0
-3470 307 0
-3470 334 0
3470 -307 -334 0
-3264 -3470 0
-3471 312 0
-3471 344 0
3471 -312 -344 0
-3264 -3471 0
-3472 317 0
-3472 353 0
3472 -317 -353 0
-3264 -3472 0
-3473 318 0
-3473 355 0
3473 -318 -355 0
-3264 -3473 0
-3474 320 0
-3474 237 0
3474 -320 -237 0
-3264 -3474 0
-3264 319 0
-319 3264 3468 3469 3470 3471 3472 3473 3474 0
-3475 132 0
-3475 271 0
3475 -132 -271 0
-3265 -3475 0
-3476 160 0
-3476 299 0
3476 -160 -299 0
-3265 -3476 0
-3477 307 0
-3477 335 0
3477 -307 -335 0
-3265 -3477 0
-3478 312 0
-3478 345 0
3478 -312 -345 0
-3265 -3478 0
-3479 317 0
-3479 354 0
3479 -317 -354 0
-3265 -3479 0
-3480 318 0
-3480 356 0
3480 -318 -356 0
-3265 -3480 0
-3481 319 0
-3481 357 0
3481 -319 -357 0
-3265 -3481 0
-3265 320 0
-320 3265 3475 3476 3477 3478 3479 3480 3481 0
-3482 166 0
-3482 125 0
3482 -166 -125 0
-3266 -3482 0
-3483 187 0
-3483 132 0
3483 -187 -132 0
-3266 -3483 0
-3484 327 0
-3484 143 0
3484 -327 -143 0
-3266 -3484 0
-3485 332 0
-3485 148 0
3485 -332 -148 0
-3266 -3485 0
-3486 333 0
-3486 149 0
3486 -333 -149 0
-3266 -3486 0
-3487 334 0
-3487 150 0
3487 -334 -150 0
-3266 -3487 0
-3488 335 0
-3488 151 0
3488 -335 -151 0
-3266 -3488 0
-3266 138 0
-138 3266 3482 3483 3484 3485 3486 3487 3488 0
-3489 138 0
-3489 245 0
3489 -138 -245 0
-3267 -3489 0
-3490 187 0
-3490 160 0
3490 -187 -160 0
-3267 -3490 0
-3491 327 0
-3491 171 0
3491 -327 -171 0
-3267 -3491 0
-3492 332 0
-3492 176 0
3492 -332 -176 0
-3267 -3492 0
-3493 333 0
-3493 177 0
3493 -333 -177 0
-3267 -3493 0
-3494 334 0
-3494 178 0
3494 -334 -178 0
-3267 -3494 0
-3495 335 0
-3495 179 0
3495 -335 -179 0
-3267 -3495 0
-3267 166 0
-166 3267 3489 3490 3491 3492 3493 3494 3495 0
-3496 138 0
-3496 252 0
3496 -138 -252 0
-3268 -3496 0
-3497 166 0
-3497 280 0
3497 -166 -280 0
-3268 -3497 0
-3498 327 0
-3498 192 0
3498 -327 -192 0
-3268 -3498 0
-3499 332 0
-3499 197 0
3499 -332 -197 0
-3268 -3499 0
-3500 333 0
-3500 198 0
3500 -333 -198 0
-3268 -3500 0
-3501 334 0
-3501 199 0
3501 -334 -199 0
-3268 -3501 0
-3502 335 0
-3502 200 0
3502 -335 -200 0
-3268 -3502 0
-3268 187 0
-187 3268 3496 3497 3498 3499 3500 3501 3502 0
-3503 138 0
-3503 263 0
3503 -138 -263 0
-3269 -3503 0
-3504 166 0
-3504 291 0
3504 -166 -291 0
-3269 -3504 0
-3505 187 0
-3505 312 0
3505 -187 -312 0
-3269 -3505 0
-3506 332 0
-3506 222 0
3506 -332 -222 0
-3269 -3506 0
-3507 333 0
-3507 223 0
3507 -333 -223 0
-3269 -3507 0
-3508 334 0
-3508 224 0
3508 -334 -224 0
-3269 -3508 0
-3509 335 0
-3509 225 0
3509 -335 -225 0
-3269 -3509 0
-3269 327 0
-327 3269 3503 3504 3505 3506 3507 3508 3509 0
-3510 138 0
-3510 268 0
3510 -138 -268 0
-3270 -3510 0
-3511 166 0
-3511 296 0
3511 -166 -296 0
-3270 -3511 0
-3512 187 0
-3512 317 0
3512 -187 -317 0
-3270 -3512 0
-3513 327 0
-3513 342 0
3513 -327 -342 0
-3270 -3513 0
-3514 333 0
-3514 232 0
3514 -333 -232 0
-3270 -3514 0
-3515 334 0
-3515 233 0
3515 -334 -233 0
-3270 -3515 0
-3516 335 0
-3516 234 0
3516 -335 -234 0
-3270 -3516 0
-3270 332 0
-332 3270 3510 3511 3512 3513 3514 3515 3516 0
-3517 138 0
-3517 269 0
3517 -138 -269 0
-3271 -3517 0
-3518 166 0
-3518 297 0
3518 -166 -297 0
-3271 -3518 0
-3519 187 0
-3519 318 0
3519 -187 -318 0
-3271 -3519 0
-3520 327 0
-3520 343 0
3520 -327 -343 0
-3271 -3520 0
-3521 332 0
-3521 352 0
3521 -332 -352 0
-3271 -3521 0
-3522 334 0
-3522 235 0
3522 -334 -235 0
-3271 -3522 0
-3523 335 0
-3523 236 0
3523 -335 -236 0
-3271 -3523 0
-3271 333 0
-333 3271 3517 3518 3519 3520 3521 3522 3523 0
-3524 138 0
-3524 270 0
3524 -138 -270 0
-3272 -3524 0
-3525 166 0
-3525 298 0
3525 -166 -298 0
-3272 -3525 0
-3526 187 0
-3526 319 0
3526 -187 -319 0
-3272 -3526 0
-3527 327 0
-3527 344 0
3527 -327 -344 0
-3272 -3527 0
-3528 332 0
-3528 353 0
3528 -332 -353 0
-3272 -3528 0
-3529 333 0
-3529 355 0
3529 -333 -355 0
-3272 -3529 0
-3530 335 0
-3530 237 0
3530 -335 -237 0
-3272 -3530 0
-3272 334 0
-334 3272 3524 3525 3526 3527 3528 3529 3530 0
-3531 138 0
-3531 271 0
3531 -138 -271 0
-3273 -3531 0
-3532 166 0
-3532 299 0
3532 -166 -299 0
-3273 -3532 0
-3533 187 0
-3533 320 0
3533 -187 -320 0
-3273 -3533 0
-3534 327 0
-3534 345 0
3534 -327 -345 0
-3273 -3534 0
-3535 332 0
-3535 354 0
3535 -332 -354 0
-3273 -3535 0
-3536 333 0
-3536 356 0
3536 -333 -356 0
-3273 -3536 0
-3537 334 0
-3537 357 0
3537 -334 -357 0
-3273 -3537 0
-3273 335 0
-335 3273 3531 3532 3533 3534 3535 3536 3537 0
-3538 171 0
-3538 125 0
3538 -171 -125 0
-3274 -3538 0
-3539 192 0
-3539 132 0
3539 -192 -132 0
-3274 -3539 0
-3540 207 0
-3540 138 0
3540 -207 -138 0
-3274 -3540 0
-3541 342 0
-3541 148 0
3541 -342 -148 0
-3274 -3541 0
-3542 343 0
-3542 149 0
3542 -343 -149 0
-3274 -3542 0
-3543 344 0
-3543 150 0
3543 -344 -150 0
-3274 -3543 0
-3544 345 0
-3544 151 0
3544 -345 -151 0
-3274 -3544 0
-3274 143 0
-143 3274 3538 3539 3540 3541 3542 3543 3544 0
-3545 143 0
-3545 245 0
3545 -143 -245 0
-3275 -3545 0
-3546 192 0
-3546 160 0
3546 -192 -160 0
-3275 -3546 0
-3547 207 0
-3547 166 0
3547 -207 -166 0
-3275 -3547 0
-3548 342 0
-3548 176 0
3548 -342 -176 0
-3275 -3548 0
-3549 343 0
-3549 177 0
3549 -343 -177 0
-3275 -3549 0
-3550 344 0
-3550 178 0
3550 -344 -178 0
-3275 -3550 0
-3551 345 0
-3551 179 0
3551 -345 -179 0
-3275 -3551 0
-3275 171 0
-171 3275 3545 3546 3547 3548 3549 3550 3551 0
-3552 143 0
-3552 252 0
3552 -143 -252 0
-3276 -3552 0
-3553 171 0
-3553 280 0
3553 -171 -280 0
-3276 -3553 0
-3554 207 0
-3554 187 0
3554 -207 -187 0
-3276 -3554 0
-3555 342 0
-3555 197 0
3555 -342 -197 0
-3276 -3555 0
-3556 343 0
-3556 198 0
3556 -343 -198 0
-3276 -3556 0
-3557 344 0
-3557 199 0
3557 -344 -199 0
-3276 -3557 0
-3558 345 0
-3558 200 0
3558 -345 -200 0
-3276 -3558 0
-3276 192 0
-192 3276 3552 3553 3554 3555 3556 3557 3558 0
-3559 143 0
-3559 258 0
3559 -143 -258 0
-3277 -3559 0
-3560 171 0
-3560 286 0
3560 -171 -286 0
-3277 -3560 0
-3561 192 0
-3561 307 0
3561 -192 -307 0
-3277 -3561 0
-3562 342 0
-3562 212 0
3562 -342 -212 0
-3277 -3562 0
-3563 343 0
-3563 213 0
3563 -343 -213 0
-3277 -3563 0
-3564 344 0
-3564 214 0
3564 -344 -214 0
-3277 -3564 0
-3565 345 0
-3565 215 0
3565 -345 -215 0
-3277 -3565 0
-3277 207 0
-207 3277 3559 3560 3561 3562 3563 3564 3565 0
-3566 143 0
-3566 268 0
3566 -143 -268 0
-3278 -3566 0
-3567 171 0
-3567 296 0
3567 -171 -296 0
-3278 -3567 0
-3568 192 0
-3568 317 0
3568 -192 -317 0
-3278 -3568 0
-3569 207 0
-3569 332 0
3569 -207 -332 0
-3278 -3569 0
-3570 343 0
-3570 232 0
3570 -343 -232 0
-3278 -3570 0
-3571 344 0
-3571 233 0
3571 -344 -233 0
-3278 -3571 0
-3572 345 0
-3572 234 0
3572 -345 -234 0
-3278 -3572 0
-3278 342 0
-342 3278 3566 3567 3568 3569 3570 3571 3572 0
-3573 143 0
-3573 269 0
3573 -143 -269 0
-3279 -3573 0
-3574 171 0
-3574 297 0
3574 -171 -297 0
-3279 -3574 0
-3575 192 0
-3575 318 0
3575 -192 -318 0
-3279 -3575 0
-3576 207 0
-3576 333 0
3576 -207 -333 0
-3279 -3576 0
-3577 342 0
-3577 352 0
3577 -342 -352 0
-3279 -3577 0
-3578 344 0
-3578 235 0
3578 -344 -235 0
-3279 -3578 0
-3579 345 0
-3579 236 0
3579 -345 -236 0
-3279 -3579 0
-3279 343 0
-343 3279 3573 3574 3575 3576 3577 3578 3579 0
-3580 143 0
-3580 270 0
3580 -143 -270 0
-3280 -3580 0
-3581 171 0
-3581 298 0
3581 -171 -298 0
-3280 -3581 0
-3582 192 0
-3582 319 0
3582 -192 -319 0
-3280 -3582 0
-3583 207 0
-3583 334 0
3583 -207 -334 0
-3280 -3583 0
-3584 342 0
-3584 353 0
3584 -342 -353 0
-3280 -3584 0
-3585 343 0
-3585 355 0
3585 -343 -355 0
-3280 -3585 0
-3586 345 0
-3586 237 0
3586 -345 -237 0
-3280 -3586 0
-3280 344 0
-344 3280 3580 3581 3582 3583 3584 3585 3586 0
-3587 143 0
-3587 271 0
3587 -143 -271 0
-3281 -3587 0
-3588 171 0
-3588 299 0
3588 -171 -299 0
-3281 -3588 0
-3589 192 0
-3589 320 0
3589 -192 -320 0
-3281 -3589 0
-3590 207 0
-3590 335 0
3590 -207 -335 0
-3281 -3590 0
-3591 342 0
-3591 354 0
3591 -342 -354 0
-3281 -3591 0
-3592 343 0
-3592 356 0
3592 -343 -356 0
-3281 -3592 0
-3593 344 0
-3593 357 0
3593 -344 -357 0
-3281 -3593 0
-3281 345 0
-345 3281 3587 3588 3589 3590 3591 3592 3593 0
-3594 176 0
-3594 125 0
3594 -176 -125 0
-3282 -3594 0
-3595 197 0
-3595 132 0
3595 -197 -132 0
-3282 -3595 0
-3596 212 0
-3596 138 0
3596 -212 -138 0
-3282 -3596 0
-3597 222 0
-3597 143 0
3597 -222 -143 0
-3282 -3597 0
-3598 352 0
-3598 149 0
3598 -352 -149 0
-3282 -3598 0
-3599 353 0
-3599 150 0
3599 -353 -150 0
-3282 -3599 0
-3600 354 0
-3600 151 0
3600 -354 -151 0
-3282 -3600 0
-3282 148 0
-148 3282 3594 3595 3596 3597 3598 3599 3600 0
-3601 148 0
-3601 245 0
3601 -148 -245 0
-3283 -3601 0
-3602 197 0
-3602 160 0
3602 -197 -160 0
-3283 -3602 0
-3603 212 0
-3603 166 0
3603 -212 -166 0
-3283 -3603 0
-3604 222 0
-3604 171 0
3604 -222 -171 0
-3283 -3604 0
-3605 352 0
-3605 177 0
3605 -352 -177 0
-3283 -3605 0
-3606 353 0
-3606 178 0
3606 -353 -178 0
-3283 -3606 0
-3607 354 0
-3607 179 0
3607 -354 -179 0
-3283 -3607 0
-3283 176 0
-176 3283 3601 3602 3603 3604 3605 3606 3607 0
-3608 148 0
-3608 252 0
3608 -148 -252 0
-3284 -3608 0
-3609 176 0
-3609 280 0
3609 -176 -280 0
-3284 -3609 0
-3610 212 0
-3610 187 0
3610 -212 -187 0
-3284 -3610 0
-3611 222 0
-3611 192 0
3611 -222 -192 0
-3284 -3611 0
-3612 352 0
-3612 198 0
3612 -352 -198 0
-3284 -3612 0
-3613 353 0
-3613 199 0
3613 -353 -199 0
-3284 -3613 0
-3614 354 0
-3614 200 0
3614 -354 -200 0
-3284 -3614 0
-3284 197 0
-197 3284 3608 3609 3610 3611 3612 3613 3614 0
-3615 148 0
-3615 258 0
3615 -148 -258 0
-3285 -3615 0
-3616 176 0
-3616 286 0
3616 -176 -286 0
-3285 -3616 0
-3617 197 0
-3617 307 0
3617 -197 -307 0
-3285 -3617 0
-3618 222 0
-3618 207 0
3618 -222 -207 0
-3285 -3618 0
-3619 352 0
-3619 213 0
3619 -352 -213 0
-3285 -3619 0
-3620 353 0
-3620 214 0
3620 -353 -214 0
-3285 -3620 0
-3621 354 0
-3621 215 0
3621 -354 -215 0
-3285 -3621 0
-3285 212 0
-212 3285 3615 3616 3617 3618 3619 3620 3621 0
-3622 148 0
-3622 263 0
3622 -148 -263 0
-3286 -3622 0
-3623 176 0
-3623 291 0
3623 -176 -291 0
-3286 -3623 0
-3624 197 0
-3624 312 0
3624 -197 -312 0
-3286 -3624 0
-3625 212 0
-3625 327 0
3625 -212 -327 0
-3286 -3625 0
-3626 352 0
-3626 223 0
3626 -352 -223 0
-3286 -3626 0
-3627 353 0
-3627 224 0
3627 -353 -224 0
-3286 -3627 0
-3628 354 0
-3628 225 0
3628 -354 -225 0
-3286 -3628 0
-3286 222 0
-222 3286 3622 3623 3624 3625 3626 3627 3628 0
-3629 148 0
-3629 269 0
3629 -148 -269 0
-3287 -3629 0
-3630 176 0
-3630 297 0
3630 -176 -297 0
-3287 -3630 0
-3631 197 0
-3631 318 0
3631 -197 -318 0
-3287 -3631 0
-3632 212 0
-3632 333 0
3632 -212 -333 0
-3287 -3632 0
-3633 222 0
-3633 343 0
3633 -222 -343 0
-3287 -3633 0
-3634 353 0
-3634 235 0
3634 -353 -235 0
-3287 -3634 0
-3635 354 0
-3635 236 0
3635 -354 -236 0
-3287 -3635 0
-3287 352 0
-352 3287 3629 3630 3631 3632 3633 3634 3635 0
-3636 148 0
-3636 270 0
3636 -148 -270 0
-3288 -3636 0
-3637 176 0
-3637 298 0
3637 -176 -298 0
-3288 -3637 0
-3638 197 0
-3638 319 0
3638 -197 -319 0
-3288 -3638 0
-3639 212 0
-3639 334 0
3639 -212 -334 0
-3288 -3639 0
-3640 222 0
-3640 344 0
3640 -222 -344 0
-3288 -3640 0
-3641 352 0
-3641 355 0
3641 -352 -355 0
-3288 -3641 0
-3642 354 0
-3642 237 0
3642 -354 -237 0
-3288 -3642 0
-3288 353 0
-353 3288 3636 3637 3638 3639 3640 3641 3642 0
-3643 148 0
-3643 271 0
3643 -148 -271 0
-3289 -3643 0
-3644 176 0
-3644 299 0
3644 -176 -299 0
-3289 -3644 0
-3645 197 0
-3645 320 0
3645 -197 -320 0
-3289 -3645 0
-3646 212 0
-3646 335 0
3646 -212 -335 0
-3289 -3646 0
-3647 222 0
-3647 345 0
3647 -222 -345 0
-3289 -3647 0
-3648 352 0
-3648 356 0
3648 -352 -356 0
-3289 -3648 0
-3649 353 0
-3649 357 0
3649 -353 -357 0
-3289 -3649 0
-3289 354 0
-354 3289 3643 3644 3645 3646 3647 3648 3649 0
-3650 177 0
-3650 125 0
3650 -177 -125 0
-3290 -3650 0
-3651 198 0
-3651 132 0
3651 -198 -132 0
-3290 -3651 0
-3652 213 0
-3652 138 0
3652 -213 -138 0
-3290 -3652 0
-3653 223 0
-3653 143 0
3653 -223 -143 0
-3290 -3653 0
-3654 232 0
-3654 148 0
3654 -232 -148 0
-3290 -3654 0
-3655 355 0
-3655 150 0
3655 -355 -150 0
-3290 -3655 0
-3656 356 0
-3656 151 0
3656 -356 -151 0
-3290 -3656 0
-3290 149 0
-149 3290 3650 3651 3652 3653 3654 3655 3656 0
-3657 149 0
-3657 245 0
3657 -149 -245 0
-3291 -3657 0
-3658 198 0
-3658 160 0
3658 -198 -160 0
-3291 -3658 0
-3659 213 0
-3659 166 0
3659 -213 -166 0
-3291 -3659 0
-3660 223 0
-3660 171 0
3660 -223 -171 0
-3291 -3660 0
-3661 232 0
-3661 176 0
3661 -232 -176 0
-3291 -3661 0
-3662 355 0
-3662 178 0
3662 -355 -178 0
-3291 -3662 0
-3663 356 0
-3663 179 0
3663 -356 -179 0
-3291 -3663 0
-3291 177 0
-177 3291 3657 3658 3659 3660 3661 3662 3663 0
-3664 149 0
-3664 252 0
3664 -149 -252 0
-3292 -3664 0
-3665 177 0
-3665 280 0
3665 -177 -280 0
-3292 -3665 0
-3666 213 0
-3666 187 0
3666 -213 -187 0
-3292 -3666 0
-3667 223 0
-3667 192 0
3667 -223 -192 0
-3292 -3667 0
-3668 232 0
-3668 197 0
3668 -232 -197 0
-3292 -3668 0
-3669 355 0
-3669 199 0
3669 -355 -199 0
-3292 -3669 0
-3670 356 0
-3670 200 0
3670 -356 -200 0
-3292 -3670 0
-3292 198 0
-198 3292 3664 3665 3666 3667 3668 3669 3670 0
-3671 149 0
-3671 258 0
3671 -149 -258 0
-3293 -3671 0
-3672 177 0
-3672 286 0
3672 -177 -286 0
-3293 -3672 0
-3673 198 0
-3673 307 0
3673 -198 -307 0
-3293 -3673 0
-3674 223 0
-3674 207 0
3674 -223 -207 0
-3293 -3674 0
-3675 232 0
-3675 212 0
3675 -232 -212 0
-3293 -3675 0
-3676 355 0
-3676 214 0
3676 -355 -214 0
-3293 -3676 0
-3677 356 0
-3677 215 0
3677 -356 -215 0
-3293 -3677 0
-3293 213 0
-213 3293 3671 3672 3673 3674 3675 3676 3677 0
-3678 149 0
-3678 263 0
3678 -149 -263 0
-3294 -3678 0
-3679 177 0
-3679 291 0
3679 -177 -291 0
-3294 -3679 0
-3680 198 0
-3680 312 0
3680 -198 -312 0
-3294 -3680 0
-3681 213 0
-3681 327 0
3681 -213 -327 0
-3294 -3681 0
-3682 232 0
-3682 222 0
3682 -232 -222 0
-3294 -3682 0
-3683 355 0
-3683 224 0
3683 -355 -224 0
-3294 -3683 0
-3684 356 0
-3684 225 0
3684 -356 -225 0
-3294 -3684 0
-3294 223 0
-223 3294 3678 3679 3680 3681 3682 3683 3684 0
-3685 149 0
-3685 268 0
3685 -149 -268 0
-3295 -3685 0
-3686 177 0
-3686 296 0
3686 -177 -296 0
-3295 -3686 0
-3687 198 0
-3687 317 0
3687 -198 -317 0
-3295 -3687 0
-3688 213 0
-3688 332 0
3688 -213 -332 0
-3295 -3688 0
-3689 223 0
-3689 342 0
3689 -223 -342 0
-3295 -3689 0
-3690 355 0
-3690 233 0
3690 -355 -233 0
-3295 -3690 0
-3691 356 0
-3691 234 0
3691 -356 -234 0
-3295 -3691 0
-3295 232 0
-232 3295 3685 3686 3687 3688 3689 3690 3691 0
-3692 149 0
-3692 270 0
3692 -149 -270 0
-3296 -3692 0
-3693 177 0
-3693 298 0
3693 -177 -298 0
-3296 -3693 0
-3694 198 0
-3694 319 0
3694 -198 -319 0
-3296 -3694 0
-3695 213 0
-3695 334 0
3695 -213 -334 0
-3296 -3695 0
-3696 223 0
-3696 344 0
3696 -223 -344 0
-3296 -3696 0
-3697 232 0
-3697 353 0
3697 -232 -353 0
-3296 -3697 0
-3698 356 0
-3698 237 0
3698 -356 -237 0
-3296 -3698 0
-3296 355 0
-355 3296 3692 3693 3694 3695 3696 3697 3698 0
-3699 149 0
-3699 271 0
3699 -149 -271 0
-3297 -3699 0
-3700 177 0
-3700 299 0
3700 -177 -299 0
-3297 -3700 0
-3701 198 0
-3701 320 0
3701 -198 -320 0
-3297 -3701 0
-3702 213 0
-3702 335 0
3702 -213 -335 0
-3297 -3702 0
-3703 223 0
-3703 345 0
3703 -223 -345 0
-3297 -3703 0
-3704 232 0
-3704 354 0
3704 -232 -354 0
-3297 -3704 0
-3705 355 0
-3705 357 0
3705 -355 -357 0
-3297 -3705 0
-3297 356 0
-356 3297 3699 3700 3701 3702 3703 3704 3705 0
-3706 178 0
-3706 125 0
3706 -178 -125 0
-3298 -3706 0
-3707 199 0
-3707 132 0
3707 -199 -132 0
-3298 -3707 0
-3708 214 0
-3708 138 0
3708 -214 -138 0
-3298 -3708 0
-3709 224 0
-3709 143 0
3709 -224 -143 0
-3298 -3709 0
-3710 233 0
-3710 148 0
3710 -233 -148 0
-3298 -3710 0
-3711 235 0
-3711 149 0
3711 -235 -149 0
-3298 -3711 0
-3712 357 0
-3712 151 0
3712 -357 -151 0
-3298 -3712 0
-3298 150 0
-150 3298 3706 3707 3708 3709 3710 3711 3712 0
-3713 150 0
-3713 245 0
3713 -150 -245 0
-3299 -3713 0
-3714 199 0
-3714 160 0
3714 -199 -160 0
-3299 -3714 0
-3715 214 0
-3715 166 0
3715 -214 -166 0
-3299 -3715 0
-3716 224 0
-3716 171 0
3716 -224 -171 0
-3299 -3716 0
-3717 233 0
-3717 176 0
3717 -233 -176 0
-3299 -3717 0
-3718 235 0
-3718 177 0
3718 -235 -177 0
-3299 -3718 0
-3719 357 0
-3719 179 0
3719 -357 -179 0
-3299 -3719 0
-3299 178 0
-178 3299 3713 3714 3715 3716 3717 3718 3719 0
-3720 150 0
-3720 252 0
3720 -150 -252 0
-3300 -3720 0
-3721 178 0
-3721 280 0
3721 -178 -280 0
-3300 -3721 0
-3722 214 0
-3722 187 0
3722 -214 -187 0
-3300 -3722 0
-3723 224 0
-3723 192 0
3723 -224 -192 0
-3300 -3723 0
-3724 233 0
-3724 197 0
3724 -233 -197 0
-3300 -3724 0
-3725 235 0
-3725 198 0
3725 -235 -198 0
-3300 -3725 0
-3726 357 0
-3726 200 0
3726 -357 -200 0
-3300 -3726 0
-3300 199 0
-199 3300 3720 3721 3722 3723 3724 3725 3726 0
-3727 150 0
-3727 258 0
3727 -150 -258 0
-3301 -3727 0
-3728 178 0
-3728 286 0
3728 -178 -286 0
-3301 -3728 0
-3729 199 0
-3729 307 0
3729 -199 -307 0
-3301 -3729 0
-3730 224 0
-3730 207 0
3730 -224 -207 0
-3301 -3730 0
-3731 233 0
-3731 212 0
3731 -233 -212 0
-3301 -3731 0
-3732 235 0
-3732 213 0
3732 -235 -213 0
-3301 -3732 0
-3733 357 0
-3733 215 0
3733 -357 -215 0
-3301 -3733 0
-3301 214 0
-214 3301 3727 3728 3729 3730 3731 3732 3733 0
-3734 150 0
-3734 263 0
3734 -150 -263 0
-3302 -3734 0
-3735 178 0
-3735 291 0
3735 -178 -291 0
-3302 -3735 0
-3736 199 0
-3736 312 0
3736 -199 -312 0
-3302 -3736 0
-3737 214 0
-3737 327 0
3737 -214 -327 0
-3302 -3737 0
-3738 233 0
-3738 222 0
3738 -233 -222 0
-3302 -3738 0
-3739 235 0
-3739 223 0
3739 -235 -223 0
-3302 -3739 0
-3740 357 0
-3740 225 0
3740 -357 -225 0
-3302 -3740 0
-3302 224 0
-224 3302 3734 3735 3736 3737 3738 3739 3740 0
-3741 150 0
-3741 268 0
3741 -150 -268 0
-3303 -3741 0
-3742 178 0
-3742 296 0
3742 -178 -296 0
-3303 -3742 0
-3743 199 0
-3743 317 0
3743 -199 -317 0
-3303 -3743 0
-3744 214 0
-3744 332 0
3744 -214 -332 0
-3303 -3744 0
-3745 224 0
-3745 342 0
3745 -224 -342 0
-3303 -3745 0
-3746 235 0
-3746 232 0
3746 -235 -232 0
-3303 -3746 0
-3747 357 0
-3747 234 0
3747 -357 -234 0
-3303 -3747 0
-3303 233 0
-233 3303 3741 3742 3743 3744 3745 3746 3747 0
-3748 150 0
-3748 269 0
3748 -150 -269 0
-3304 -3748 0
-3749 178 0
-3749 297 0
3749 -178 -297 0
-3304 -3749 0
-3750 199 0
-3750 318 0
3750 -199 -318 0
-3304 -3750 0
-3751 214 0
-3751 333 0
3751 -214 -333 0
-3304 -3751 0
-3752 224 0
-3752 343 0
3752 -224 -343 0
-3304 -3752 0
-3753 233 0
-3753 352 0
3753 -233 -352 0
-3304 -3753 0
-3754 357 0
-3754 236 0
3754 -357 -236 0
-3304 -3754 0
-3304 235 0
-235 3304 3748 3749 3750 3751 3752 3753 3754 0
-3755 150 0
-3755 271 0
3755 -150 -271 0
-3305 -3755 0
-3756 178 0
-3756 299 0
3756 -178 -299 0
-3305 -3756 0
-3757 199 0
-3757 320 0
3757 -199 -320 0
-3305 -3757 0
-3758 214 0
-3758 335 0
3758 -214 -335 0
-3305 -3758 0
-3759 224 0
-3759 345 0
3759 -224 -345 0
-3305 -3759 0
-3760 233 0
-3760 354 0
3760 -233 -354 0
-3305 -3760 0
-3761 235 0
-3761 356 0
3761 -235 -356 0
-3305 -3761 0
-3305 357 0
-357 3305 3755 3756 3757 3758 3759 3760 3761 0
-3762 179 0
-3762 125 0
3762 -179 -125 0
-3306 -3762 0
-3763 200 0
-3763 132 0
3763 -200 -132 0
-3306 -3763 0
-3764 215 0
-3764 138 0
3764 -215 -138 0
-3306 -3764 0
-3765 225 0
-3765 143 0
3765 -225 -143 0
-3306 -3765 0
-3766 234 0
-3766 148 0
3766 -234 -148 0
-3306 -3766 0
-3767 236 0
-3767 149 0
3767 -236 -149 0
-3306 -3767 0
-3768 237 0
-3768 150 0
3768 -237 -150 0
-3306 -3768 0
-3306 151 0
-151 3306 3762 3763 3764 3765 3766 3767 3768 0
-3769 151 0
-3769 245 0
3769 -151 -245 0
-3307 -3769 0
-3770 200 0
-3770 160 0
3770 -200 -160 0
-3307 -3770 0
-3771 215 0
-3771 166 0
3771 -215 -166 0
-3307 -3771 0
-3772 225 0
-3772 171 0
3772 -225 -171 0
-3307 -3772 0
-3773 234 0
-3773 176 0
3773 -234 -176 0
-3307 -3773 0
-3774 236 0
-3774 177 0
3774 -236 -177 0
-3307 -3774 0
-3775 237 0
-3775 178 0
3775 -237 -178 0
-3307 -3775 0
-3307 179 0
-179 3307 3769 3770 3771 3772 3773 3774 3775 0
-3776 151 0
-3776 252 0
3776 -151 -252 0
-3308 -3776 0
-3777 179 0
-3777 280 0
3777 -179 -280 0
-3308 -3777 0
-3778 215 0
-3778 187 0
3778 -215 -187 0
-3308 -3778 0
-3779 225 0
-3779 192 0
3779 -225 -192 0
-3308 -3779 0
-3780 234 0
-3780 197 0
3780 -234 -197 0
-3308 -3780 0
-3781 236 0
-3781 198 0
3781 -236 -198 0
-3308 -3781 0
-3782 237 0
-3782 199 0
3782 -237 -199 0
-3308 -3782 0
-3308 200 0
-200 3308 3776 3777 3778 3779 3780 3781 3782 0
-3783 151 0
-3783 258 0
3783 -151 -258 0
-3309 -3783 0
-3784 179 0
-3784 286 0
3784 -179 -286 0
-3309 -3784 0
-3785 200 0
-3785 307 0
3785 -200 -307 0
-3309 -3785 0
-3786 225 0
-3786 207 0
3786 -225 -207 0
-3309 -3786 0
-3787 234 0
-3787 212 0
3787 -234 -212 0
-3309 -3787 0
-3788 236 0
-3788 213 0
3788 -236 -213 0
-3309 -3788 0
-3789 237 0
-3789 214 0
3789 -237 -214 0
-3309 -3789 0
-3309 215 0
-215 3309 3783 3784 3785 3786 3787 3788 3789 0
-3790 151 0
-3790 263 0
3790 -151 -263 0
-3310 -3790 0
-3791 179 0
-3791 291 0
3791 -179 -291 0
-3310 -3791 0
-3792 200 0
-3792 312 0
3792 -200 -312 0
-3310 -3792 0
-3793 215 0
-3793 327 0
3793 -215 -327 0
-3310 -3793 0
-3794 234 0
-3794 222 0
3794 -234 -222 0
-3310 -3794 0
-3795 236 0
-3795 223 0
3795 -236 -223 0
-3310 -3795 0
-3796 237 0
-3796 224 0
3796 -237 -224 0
-3310 -3796 0
-3310 225 0
-225 3310 3790 3791 3792 3793 3794 3795 3796 0
-3797 151 0
-3797 268 0
3797 -151 -268 0
-3311 -3797 0
-3798 179 0
-3798 296 0
3798 -179 -296 0
-3311 -3798 0
-3799 200 0
-3799 317 0
3799 -200 -317 0
-3311 -3799 0
-3800 215 0
-3800 332 0
3800 -215 -332 0
-3311 -3800 0
-3801 225 0
-3801 342 0
3801 -225 -342 0
-3311 -3801 0
-3802 236 0
-3802 232 0
3802 -236 -232 0
-3311 -3802 0
-3803 237 0
-3803 233 0
3803 -237 -233 0
-3311 -3803 0
-3311 234 0
-234 3311 3797 3798 3799 3800 3801 3802 3803 0
-3804 151 0
-3804 269 0
3804 -151 -269 0
-3312 -3804 0
-3805 179 0
-3805 297 0
3805 -179 -297 0
-3312 -3805 0
-3806 200 0
-3806 318 0
3806 -200 -318 0
-3312 -3806 0
-3807 215 0
-3807 333 0
3807 -215 -333 0
-3312 -3807 0
-3808 225 0
-3808 343 0
3808 -225 -343 0
-3312 -3808 0
-3809 234 0
-3809 352 0
3809 -234 -352 0
-3312 -3809 0
-3810 237 0
-3810 235 0
3810 -237 -235 0
-3312 -3810 0
-3312 236 0
-236 3312 3804 3805 3806 3807 3808 3809 3810 0
-3811 151 0
-3811 270 0
3811 -151 -270 0
-3313 -3811 0
-3812 179 0
-3812 298 0
3812 -179 -298 0
-3313 -3812 0
-3813 200 0
-3813 319 0
3813 -200 -319 0
-3313 -3813 0
-3814 215 0
-3814 334 0
3814 -215 -334 0
-3313 -3814 0
-3815 225 0
-3815 344 0
3815 -225 -344 0
-3313 -3815 0
-3816 234 0
-3816 353 0
3816 -234 -353 0
-3313 -3816 0
-3817 236 0
-3817 355 0
3817 -236 -355 0
-3313 -3817 0
-3313 237 0
-237 3313 3811 3812 3813 3814 3815 3816 3817 0
-3890 253 0
-3890 161 0
3890 -253 -161 0
-3818 -3890 0
-3891 259 0
-3891 167 0
3891 -259 -167 0
-3818 -3891 0
-3892 264 0
-3892 172 0
3892 -264 -172 0
-3818 -3892 0
-3893 268 0
-3893 176 0
3893 -268 -176 0
-3818 -3893 0
-3894 272 0
-3894 180 0
3894 -272 -180 0
-3818 -3894 0
-3895 273 0
-3895 181 0
3895 -273 -181 0
-3818 -3895 0
-3896 274 0
-3896 182 0
3896 -274 -182 0
-3818 -3896 0
-3818 246 0
-246 3818 3890 3891 3892 3893 3894 3895 3896 0
-3897 246 0
-3897 281 0
3897 -246 -281 0
-3819 -3897 0
-3898 259 0
-3898 188 0
3898 -259 -188 0
-3819 -3898 0
-3899 264 0
-3899 193 0
3899 -264 -193 0
-3819 -3899 0
-3900 268 0
-3900 197 0
3900 -268 -197 0
-3819 -3900 0
-3901 272 0
-3901 201 0
3901 -272 -201 0
-3819 -3901 0
-3902 273 0
-3902 202 0
3902 -273 -202 0
-3819 -3902 0
-3903 274 0
-3903 203 0
3903 -274 -203 0
-3819 -3903 0
-3819 253 0
-253 3819 3897 3898 3899 3900 3901 3902 3903 0
-3904 246 0
-3904 287 0
3904 -246 -287 0
-3820 -3904 0
-3905 253 0
-3905 308 0
3905 -253 -308 0
-3820 -3905 0
-3906 264 0
-3906 208 0
3906 -264 -208 0
-3820 -3906 0
-3907 268 0
-3907 212 0
3907 -268 -212 0
-3820 -3907 0
-3908 272 0
-3908 216 0
3908 -272 -216 0
-3820 -3908 0
-3909 273 0
-3909 217 0
3909 -273 -217 0
-3820 -3909 0
-3910 274 0
-3910 218 0
3910 -274 -218 0
-3820 -3910 0
-3820 259 0
-259 3820 3904 3905 3906 3907 3908 3909 3910 0
-3911 246 0
-3911 292 0
3911 -246 -292 0
-3821 -3911 0
-3912 253 0
-3912 313 0
3912 -253 -313 0
-3821 -3912 0
-3913 259 0
-3913 328 0
3913 -259 -328 0
-3821 -3913 0
-3914 268 0
-3914 222 0
3914 -268 -222 0
-3821 -3914 0
-3915 272 0
-3915 226 0
3915 -272 -226 0
-3821 -3915 0
-3916 273 0
-3916 227 0
3916 -273 -227 0
-3821 -3916 0
-3917 274 0
-3917 228 0
3917 -274 -228 0
-3821 -3917 0
-3821 264 0
-264 3821 3911 3912 3913 3914 3915 3916 3917 0
-3918 246 0
-3918 296 0
3918 -246 -296 0
-3822 -3918 0
-3919 253 0
-3919 317 0
3919 -253 -317 0
-3822 -3919 0
-3920 259 0
-3920 332 0
3920 -259 -332 0
-3822 -3920 0
-3921 264 0
-3921 342 0
3921 -264 -342 0
-3822 -3921 0
-3922 272 0
-3922 232 0
3922 -272 -232 0
-3822 -3922 0
-3923 273 0
-3923 233 0
3923 -273 -233 0
-3822 -3923 0
-3924 274 0
-3924 234 0
3924 -274 -234 0
-3822 -3924 0
-3822 268 0
-268 3822 3918 3919 3920 3921 3922 3923 3924 0
-3925 246 0
-3925 300 0
3925 -246 -300 0
-3823 -3925 0
-3926 253 0
-3926 321 0
3926 -253 -321 0
-3823 -3926 0
-3927 259 0
-3927 336 0
3927 -259 -336 0
-3823 -3927 0
-3928 264 0
-3928 346 0
3928 -264 -346 0
-3823 -3928 0
-3929 268 0
-3929 352 0
3929 -268 -352 0
-3823 -3929 0
-3930 273 0
-3930 238 0
3930 -273 -238 0
-3823 -3930 0
-3931 274 0
-3931 239 0
3931 -274 -239 0
-3823 -3931 0
-3823 272 0
-272 3823 3925 3926 3927 3928 3929 3930 3931 0
-3932 246 0
-3932 301 0
3932 -246 -301 0
-3824 -3932 0
-3933 253 0
-3933 322 0
3933 -253 -322 0
-3824 -3933 0
-3934 259 0
-3934 337 0
3934 -259 -337 0
-3824 -3934 0
-3935 264 0
-3935 347 0
3935 -264 -347 0
-3824 -3935 0
-3936 268 0
-3936 353 0
3936 -268 -353 0
-3824 -3936 0
-3937 272 0
-3937 358 0
3937 -272 -358 0
-3824 -3937 0
-3938 274 0
-3938 240 0
3938 -274 -240 0
-3824 -3938 0
-3824 273 0
-273 3824 3932 3933 3934 3935 3936 3937 3938 0
-3939 246 0
-3939 302 0
3939 -246 -302 0
-3825 -3939 0
-3940 253 0
-3940 323 0
3940 -253 -323 0
-3825 -3940 0
-3941 259 0
-3941 338 0
3941 -259 -338 0
-3825 -3941 0
-3942 264 0
-3942 348 0
3942 -264 -348 0
-3825 -3942 0
-3943 268 0
-3943 354 0
3943 -268 -354 0
-3825 -3943 0
-3944 272 0
-3944 359 0
3944 -272 -359 0
-3825 -3944 0
-3945 273 0
-3945 360 0
3945 -273 -360 0
-3825 -3945 0
-3825 274 0
-274 3825 3939 3940 3941 3942 3943 3944 3945 0
-3946 281 0
-3946 133 0
3946 -281 -133 0
-3826 -3946 0
-3947 287 0
-3947 139 0
3947 -287 -139 0
-3826 -3947 0
-3948 292 0
-3948 144 0
3948 -292 -144 0
-3826 -3948 0
-3949 296 0
-3949 148 0
3949 -296 -148 0
-3826 -3949 0
-3950 300 0
-3950 152 0
3950 -300 -152 0
-3826 -3950 0
-3951 301 0
-3951 153 0
3951 -301 -153 0
-3826 -3951 0
-3952 302 0
-3952 154 0
3952 -302 -154 0
-3826 -3952 0
-3826 126 0
-126 3826 3946 3947 3948 3949 3950 3951 3952 0
-3953 126 0
-3953 253 0
3953 -126 -253 0
-3827 -3953 0
-3954 287 0
-3954 188 0
3954 -287 -188 0
-3827 -3954 0
-3955 292 0
-3955 193 0
3955 -292 -193 0
-3827 -3955 0
-3956 296 0
-3956 197 0
3956 -296 -197 0
-3827 -3956 0
-3957 300 0
-3957 201 0
3957 -300 -201 0
-3827 -3957 0
-3958 301 0
-3958 202 0
3958 -301 -202 0
-3827 -3958 0
-3959 302 0
-3959 203 0
3959 -302 -203 0
-3827 -3959 0
-3827 281 0
-281 3827 3953 3954 3955 3956 3957 3958 3959 0
-3960 126 0
-3960 259 0
3960 -126 -259 0
-3828 -3960 0
-3961 281 0
-3961 308 0
3961 -281 -308 0
-3828 -3961 0
-3962 292 0
-3962 208 0
3962 -292 -208 0
-3828 -3962 0
-3963 296 0
-3963 212 0
3963 -296 -212 0
-3828 -3963 0
-3964 300 0
-3964 216 0
3964 -300 -216 0
-3828 -3964 0
-3965 301 0
-3965 217 0
3965 -301 -217 0
-3828 -3965 0
-3966 302 0
-3966 218 0
3966 -302 -218 0
-3828 -3966 0
-3828 287 0
-287 3828 3960 3961 3962 3963 3964 3965 3966 0
-3967 126 0
-3967 264 0
3967 -126 -264 0
-3829 -3967 0
-3968 281 0
-3968 313 0
3968 -281 -313 0
-3829 -3968 0
-3969 287 0
-3969 328 0
3969 -287 -328 0
-3829 -3969 0
-3970 296 0
-3970 222 0
3970 -296 -222 0
-3829 -3970 0
-3971 300 0
-3971 226 0
3971 -300 -226 0
-3829 -3971 0
-3972 301 0
-3972 227 0
3972 -301 -227 0
-3829 -3972 0
-3973 302 0
-3973 228 0
3973 -302 -228 0
-3829 -3973 0
-3829 292 0
-292 3829 3967 3968 3969 3970 3971 3972 3973 0
-3974 126 0
-3974 268 0
3974 -126 -268 0
-3830 -3974 0
-3975 281 0
-3975 317 0
3975 -281 -317 0
-3830 -3975 0
-3976 287 0
-3976 332 0
3976 -287 -332 0
-3830 -3976 0
-3977 292 0
-3977 342 0
3977 -292 -342 0
-3830 -3977 0
-3978 300 0
-3978 232 0
3978 -300 -232 0
-3830 -3978 0
-3979 301 0
-3979 233 0
3979 -301 -233 0
-3830 -3979 0
-3980 302 0
-3980 234 0
3980 -302 -234 0
-3830 -3980 0
-3830 296 0
-296 3830 3974 3975 3976 3977 3978 3979 3980 0
-3981 126 0
-3981 272 0
3981 -126 -272 0
-3831 -3981 0
-3982 281 0
-3982 321 0
3982 -281 -321 0
-3831 -3982 0
-3983 287 0
-3983 336 0
3983 -287 -336 0
-3831 -3983 0
-3984 292 0
-3984 346 0
3984 -292 -346 0
-3831 -3984 0
-3985 296 0
-3985 352 0
3985 -296 -352 0
-3831 -3985 0
-3986 301 0
-3986 238 0
3986 -301 -238 0
-3831 -3986 0
-3987 302 0
-3987 239 0
3987 -302 -239 0
-3831 -3987 0
-3831 300 0
-300 3831 3981 3982 3983 3984 3985 3986 3987 0
-3988 126 0
-3988 273 0
3988 -126 -273 0
-3832 -3988 0
-3989 281 0
-3989 322 0
3989 -281 -322 0
-3832 -3989 0
-3990 287 0
-3990 337 0
3990 -287 -337 0
-3832 -3990 0
-3991 292 0
-3991 347 0
3991 -292 -347 0
-3832 -3991 0
-3992 296 0
-3992 353 0
3992 -296 -353 0
-3832 -3992 0
-3993 300 0
-3993 358 0
3993 -300 -358 0
-3832 -3993 0
-3994 302 0
-3994 240 0
3994 -302 -240 0
-3832 -3994 0
-3832 301 0
-301 3832 3988 3989 3990 3991 3992 3993 3994 0
-3995 126 0
-3995 274 0
3995 -126 -274 0
-3833 -3995 0
-3996 281 0
-3996 323 0
3996 -281 -323 0
-3833 -3996 0
-3997 287 0
-3997 338 0
3997 -287 -338 0
-3833 -3997 0
-3998 292 0
-3998 348 0
3998 -292 -348 0
-3833 -3998 0
-3999 296 0
-3999 354 0
3999 -296 -354 0
-3833 -3999 0
-4000 300 0
-4000 359 0
4000 -300 -359 0
-3833 -4000 0
-4001 301 0
-4001 360 0
4001 -301 -360 0
-3833 -4001 0
-3833 302 0
-302 3833 3995 3996 3997 3998 3999 4000 4001 0
-4002 161 0
-4002 126 0
4002 -161 -126 0
-3834 -4002 0
-4003 308 0
-4003 139 0
4003 -308 -139 0
-3834 -4003 0
-4004 313 0
-4004 144 0
4004 -313 -144 0
-3834 -4004 0
-4005 317 0
-4005 148 0
4005 -317 -148 0
-3834 -4005 0
-4006 321 0
-4006 152 0
4006 -321 -152 0
-3834 -4006 0
-4007 322 0
-4007 153 0
4007 -322 -153 0
-3834 -4007 0
-4008 323 0
-4008 154 0
4008 -323 -154 0
-3834 -4008 0
-3834 133 0
-133 3834 4002 4003 4004 4005 4006 4007 4008 0
-4009 133 0
-4009 246 0
4009 -133 -246 0
-3835 -4009 0
-4010 308 0
-4010 167 0
4010 -308 -167 0
-3835 -4010 0
-4011 313 0
-4011 172 0
4011 -313 -172 0
-3835 -4011 0
-4012 317 0
-4012 176 0
4012 -317 -176 0
-3835 -4012 0
-4013 321 0
-4013 180 0
4013 -321 -180 0
-3835 -4013 0
-4014 322 0
-4014 181 0
4014 -322 -181 0
-3835 -4014 0
-4015 323 0
-4015 182 0
4015 -323 -182 0
-3835 -4015 0
-3835 161 0
-161 3835 4009 4010 4011 4012 4013 4014 4015 0
-4016 133 0
-4016 259 0
4016 -133 -259 0
-3836 -4016 0
-4017 161 0
-4017 287 0
4017 -161 -287 0
-3836 -4017 0
-4018 313 0
-4018 208 0
4018 -313 -208 0
-3836 -4018 0
-4019 317 0
-4019 212 0
4019 -317 -212 0
-3836 -4019 0
-4020 321 0
-4020 216 0
4020 -321 -216 0
-3836 -4020 0
-4021 322 0
-4021 217 0
4021 -322 -217 0
-3836 -4021 0
-4022 323 0
-4022 218 0
4022 -323 -218 0
-3836 -4022 0
-3836 308 0
-308 3836 4016 4017 4018 4019 4020 4021 4022 0
-4023 133 0
-4023 264 0
4023 -133 -264 0
-3837 -4023 0
-4024 161 0
-4024 292 0
4024 -161 -292 0
-3837 -4024 0
-4025 308 0
-4025 328 0
4025 -308 -328 0
-3837 -4025 0
-4026 317 0
-4026 222 0
4026 -317 -222 0
-3837 -4026 0
-4027 321 0
-4027 226 0
4027 -321 -226 0
-3837 -4027 0
-4028 322 0
-4028 227 0
4028 -322 -227 0
-3837 -4028 0
-4029 323 0
-4029 228 0
4029 -323 -228 0
-3837 -4029 0
-3837 313 0
-313 3837 4023 4024 4025 4026 4027 4028 4029 0
-4030 133 0
-4030 268 0
4030 -133 -268 0
-3838 -4030 0
-4031 161 0
-4031 296 0
4031 -161 -296 0
-3838 -4031 0
-4032 308 0
-4032 332 0
4032 -308 -332 0
-3838 -4032 0
-4033 313 0
-4033 342 0
4033 -313 -342 0
-3838 -4033 0
-4034 321 0
-4034 232 0
4034 -321 -232 0
-3838 -4034 0
-4035 322 0
-4035 233 0
4035 -322 -233 0
-3838 -4035 0
-4036 323 0
-4036 234 0
4036 -323 -234 0
-3838 -4036 0
-3838 317 0
-317 3838 4030 4031 4032 4033 4034 4035 4036 0
-4037 133 0
-4037 272 0
4037 -133 -272 0
-3839 -4037 0
-4038 161 0
-4038 300 0
4038 -161 -300 0
-3839 -4038 0
-4039 308 0
-4039 336 0
4039 -308 -336 0
-3839 -4039 0
-4040 313 0
-4040 346 0
4040 -313 -346 0
-3839 -4040 0
-4041 317 0
-4041 352 0
4041 -317 -352 0
-3839 -4041 0
-4042 322 0
-4042 238 0
4042 -322 -238 0
-3839 -4042 0
-4043 323 0
-4043 239 0
4043 -323 -239 0
-3839 -4043 0
-3839 321 0
-321 3839 4037 4038 4039 4040 4041 4042 4043 0
-4044 133 0
-4044 273 0
4044 -133 -273 0
-3840 -4044 0
-4045 161 0
-4045 301 0
4045 -161 -301 0
-3840 -4045 0
-4046 308 0
-4046 337 0
4046 -308 -337 0
-3840 -4046 0
-4047 313 0
-4047 347 0
4047 -313 -347 0
-3840 -4047 0
-4048 317 0
-4048 353 0
4048 -317 -353 0
-3840 -4048 0
-4049 321 0
-4049 358 0
4049 -321 -358 0
-3840 -4049 0
-4050 323 0
-4050 240 0
4050 -323 -240 0
-3840 -4050 0
-3840 322 0
-322 3840 4044 4045 4046 4047 4048 4049 4050 0
-4051 133 0
-4051 274 0
4051 -133 -274 0
-3841 -4051 0
-4052 161 0
-4052 302 0
4052 -161 -302 0
-3841 -4052 0
-4053 308 0
-4053 338 0
4053 -308 -338 0
-3841 -4053 0
-4054 313 0
-4054 348 0
4054 -313 -348 0
-3841 -4054 0
-4055 317 0
-4055 354 0
4055 -317 -354 0
-3841 -4055 0
-4056 321 0
-4056 359 0
4056 -321 -359 0
-3841 -4056 0
-4057 322 0
-4057 360 0
4057 -322 -360 0
-3841 -4057 0
-3841 323 0
-323 3841 4051 4052 4053 4054 4055 4056 4057 0
-4058 167 0
-4058 126 0
4058 -167 -126 0
-3842 -4058 0
-4059 188 0
-4059 133 0
4059 -188 -133 0
-3842 -4059 0
-4060 328 0
-4060 144 0
4060 -328 -144 0
-3842 -4060 0
-4061 332 0
-4061 148 0
4061 -332 -148 0
-3842 -4061 0
-4062 336 0
-4062 152 0
4062 -336 -152 0
-3842 -4062 0
-4063 337 0
-4063 153 0
4063 -337 -153 0
-3842 -4063 0
-4064 338 0
-4064 154 0
4064 -338 -154 0
-3842 -4064 0
-3842 139 0
-139 3842 4058 4059 4060 4061 4062 4063 4064 0
-4065 139 0
-4065 246 0
4065 -139 -246 0
-3843 -4065 0
-4066 188 0
-4066 161 0
4066 -188 -161 0
-3843 -4066 0
-4067 328 0
-4067 172 0
4067 -328 -172 0
-3843 -4067 0
-4068 332 0
-4068 176 0
4068 -332 -176 0
-3843 -4068 0
-4069 336 0
-4069 180 0
4069 -336 -180 0
-3843 -4069 0
-4070 337 0
-4070 181 0
4070 -337 -181 0
-3843 -4070 0
-4071 338 0
-4071 182 0
4071 -338 -182 0
-3843 -4071 0
-3843 167 0
-167 3843 4065 4066 4067 4068 4069 4070 4071 0
-4072 139 0
-4072 253 0
4072 -139 -253 0
-3844 -4072 0
-4073 167 0
-4073 281 0
4073 -167 -281 0
-3844 -4073 0
-4074 328 0
-4074 193 0
4074 -328 -193 0
-3844 -4074 0
-4075 332 0
-4075 197 0
4075 -332 -197 0
-3844 -4075 0
-4076 336 0
-4076 201 0
4076 -336 -201 0
-3844 -4076 0
-4077 337 0
-4077 202 0
4077 -337 -202 0
-3844 -4077 0
-4078 338 0
-4078 203 0
4078 -338 -203 0
-3844 -4078 0
-3844 188 0
-188 3844 4072 4073 4074 4075 4076 4077 4078 0
-4079 139 0
-4079 264 0
4079 -139 -264 0
-3845 -4079 0
-4080 167 0
-4080 292 0
4080 -167 -292 0
-3845 -4080 0
-4081 188 0
-4081 313 0
4081 -188 -313 0
-3845 -4081 0
-4082 332 0
-4082 222 0
4082 -332 -222 0
-3845 -4082 0
-4083 336 0
-4083 226 0
4083 -336 -226 0
-3845 -4083 0
-4084 337 0
-4084 227 0
4084 -337 -227 0
-3845 -4084 0
-4085 338 0
-4085 228 0
4085 -338 -228 0
-3845 -4085 0
-3845 328 0
-328 3845 4079 4080 4081 4082 4083 4084 4085 0
-4086 139 0
-4086 268 0
4086 -139 -268 0
-3846 -4086 0
-4087 167 0
-4087 296 0
4087 -167 -296 0
-3846 -4087 0
-4088 188 0
-4088 317 0
4088 -188 -317 0
-3846 -4088 0
-4089 328 0
-4089 342 0
4089 -328 -342 0
-3846 -4089 0
-4090 336 0
-4090 232 0
4090 -336 -232 0
-3846 -4090 0
-4091 337 0
-4091 233 0
4091 -337 -233 0
-3846 -4091 0
-4092 338 0
-4092 234 0
4092 -338 -234 0
-3846 -4092 0
-3846 332 0
-332 3846 4086 4087 4088 4089 4090 4091 4092 0
-4093 139 0
-4093 272 0
4093 -139 -272 0
-3847 -4093 0
-4094 167 0
-4094 300 0
4094 -167 -300 0
-3847 -4094 0
-4095 188 0
-4095 321 0
4095 -188 -321 0
-3847 -4095 0
-4096 328 0
-4096 346 0
4096 -328 -346 0
-3847 -4096 0
-4097 332 0
-4097 352 0
4097 -332 -352 0
-3847 -4097 0
-4098 337 0
-4098 238 0
4098 -337 -238 0
-3847 -4098 0
-4099 338 0
-4099 239 0
4099 -338 -239 0
-3847 -4099 0
-3847 336 0
-336 3847 4093 4094 4095 4096 4097 4098 4099 0
-4100 139 0
-4100 273 0
4100 -139 -273 0
-3848 -4100 0
-4101 167 0
-4101 301 0
4101 -167 -301 0
-3848 -4101 0
-4102 188 0
-4102 322 0
4102 -188 -322 0
-3848 -4102 0
-4103 328 0
-4103 347 0
4103 -328 -347 0
-3848 -4103 0
-4104 332 0
-4104 353 0
4104 -332 -353 0
-3848 -4104 0
-4105 336 0
-4105 358 0
4105 -336 -358 0
-3848 -4105 0
-4106 338 0
-4106 240 0
4106 -338 -240 0
-3848 -4106 0
-3848 337 0
-337 3848 4100 4101 4102 4103 4104 4105 4106 0
-4107 139 0
-4107 274 0
4107 -139 -274 0
-3849 -4107 0
-4108 167 0
-4108 302 0
4108 -167 -302 0
-3849 -4108 0
-4109 188 0
-4109 323 0
4109 -188 -323 0
-3849 -4109 0
-4110 328 0
-4110 348 0
4110 -328 -348 0
-3849 -4110 0
-4111 332 0
-4111 354 0
4111 -332 -354 0
-3849 -4111 0
-4112 336 0
-4112 359 0
4112 -336 -359 0
-3849 -4112 0
-4113 337 0
-4113 360 0
4113 -337 -360 0
-3849 -4113 0
-3849 338 0
-338 3849 4107 4108 4109 4110 4111 4112 4113 0
-4114 172 0
-4114 126 0
4114 -172 -126 0
-3850 -4114 0
-4115 193 0
-4115 133 0
4115 -193 -133 0
-3850 -4115 0
-4116 208 0
-4116 139 0
4116 -208 -139 0
-3850 -4116 0
-4117 342 0
-4117 148 0
4117 -342 -148 0
-3850 -4117 0
-4118 346 0
-4118 152 0
4118 -346 -152 0
-3850 -4118 0
-4119 347 0
-4119 153 0
4119 -347 -153 0
-3850 -4119 0
-4120 348 0
-4120 154 0
4120 -348 -154 0
-3850 -4120 0
-3850 144 0
-144 3850 4114 4115 4116 4117 4118 4119 4120 0
-4121 144 0
-4121 246 0
4121 -144 -246 0
-3851 -4121 0
-4122 193 0
-4122 161 0
4122 -193 -161 0
-3851 -4122 0
-4123 208 0
-4123 167 0
4123 -208 -167 0
-3851 -4123 0
-4124 342 0
-4124 176 0
4124 -342 -176 0
-3851 -4124 0
-4125 346 0
-4125 180 0
4125 -346 -180 0
-3851 -4125 0
-4126 347 0
-4126 181 0
4126 -347 -181 0
-3851 -4126 0
-4127 348 0
-4127 182 0
4127 -348 -182 0
-3851 -4127 0
-3851 172 0
-172 3851 4121 4122 4123 4124 4125 4126 4127 0
-4128 144 0
-4128 253 0
4128 -144 -253 0
-3852 -4128 0
-4129 172 0
-4129 281 0
4129 -172 -281 0
-3852 -4129 0
-4130 208 0
-4130 188 0
4130 -208 -188 0
-3852 -4130 0
-4131 342 0
-4131 197 0
4131 -342 -197 0
-3852 -4131 0
-4132 346 0
-4132 201 0
4132 -346 -201 0
-3852 -4132 0
-4133 347 0
-4133 202 0
4133 -347 -202 0
-3852 -4133 0
-4134 348 0
-4134 203 0
4134 -348 -203 0
-3852 -4134 0
-3852 193 0
-193 3852 4128 4129 4130 4131 4132 4133 4134 0
-4135 144 0
-4135 259 0
4135 -144 -259 0
-3853 -4135 0
-4136 172 0
-4136 287 0
4136 -172 -287 0
-3853 -4136 0
-4137 193 0
-4137 308 0
4137 -193 -308 0
-3853 -4137 0
-4138 342 0
-4138 212 0
4138 -342 -212 0
-3853 -4138 0
-4139 346 0
-4139 216 0
4139 -346 -216 0
-3853 -4139 0
-4140 347 0
-4140 217 0
4140 -347 -217 0
-3853 -4140 0
-4141 348 0
-4141 218 0
4141 -348 -218 0
-3853 -4141 0
-3853 208 0
-208 3853 4135 4136 4137 4138 4139 4140 4141 0
-4142 144 0
-4142 268 0
4142 -144 -268 0
-3854 -4142 0
-4143 172 0
-4143 296 0
4143 -172 -296 0
-3854 -4143 0
-4144 193 0
-4144 317 0
4144 -193 -317 0
-3854 -4144 0
-4145 208 0
-4145 332 0
4145 -208 -332 0
-3854 -4145 0
-4146 346 0
-4146 232 0
4146 -346 -232 0
-3854 -4146 0
-4147 347 0
-4147 233 0
4147 -347 -233 0
-3854 -4147 0
-4148 348 0
-4148 234 0
4148 -348 -234 0
-3854 -4148 0
-3854 342 0
-342 3854 4142 4143 4144 4145 4146 4147 4148 0
-4149 144 0
-4149 272 0
4149 -144 -272 0
-3855 -4149 0
-4150 172 0
-4150 300 0
4150 -172 -300 0
-3855 -4150 0
-4151 193 0
-4151 321 0
4151 -193 -321 0
-3855 -4151 0
-4152 208 0
-4152 336 0
4152 -208 -336 0
-3855 -4152 0
-4153 342 0
-4153 352 0
4153 -342 -352 0
-3855 -4153 0
-4154 347 0
-4154 238 0
4154 -347 -238 0
-3855 -4154 0
-4155 348 0
-4155 239 0
4155 -348 -239 0
-3855 -4155 0
-3855 346 0
-346 3855 4149 4150 4151 4152 4153 4154 4155 0
-4156 144 0
-4156 273 0
4156 -144 -273 0
-3856 -4156 0
-4157 172 0
-4157 301 0
4157 -172 -301 0
-3856 -4157 0
-4158 193 0
-4158 322 0
4158 -193 -322 0
-3856 -4158 0
-4159 208 0
-4159 337 0
4159 -208 -337 0
-3856 -4159 0
-4160 342 0
-4160 353 0
4160 -342 -353 0
-3856 -4160 0
-4161 346 0
-4161 358 0
4161 -346 -358 0
-3856 -4161 0
-4162 348 0
-4162 240 0
4162 -348 -240 0
-3856 -4162 0
-3856 347 0
-347 3856 4156 4157 4158 4159 4160 4161 4162 0
-4163 144 0
-4163 274 0
4163 -144 -274 0
-3857 -4163 0
-4164 172 0
-4164 302 0
4164 -172 -302 0
-3857 -4164 0
-4165 193 0
-4165 323 0
4165 -193 -323 0
-3857 -4165 0
-4166 208 0
-4166 338 0
4166 -208 -338 0
-3857 -4166 0
-4167 342 0
-4167 354 0
4167 -342 -354 0
-3857 -4167 0
-4168 346 0
-4168 359 0
4168 -346 -359 0
-3857 -4168 0
-4169 347 0
-4169 360 0
4169 -347 -360 0
-3857 -4169 0
-3857 348 0
-348 3857 4163 4164 4165 4166 4167 4168 4169 0
-4170 176 0
-4170 126 0
4170 -176 -126 0
-3858 -4170 0
-4171 197 0
-4171 133 0
4171 -197 -133 0
-3858 -4171 0
-4172 212 0
-4172 139 0
4172 -212 -139 0
-3858 -4172 0
-4173 222 0
-4173 144 0
4173 -222 -144 0
-3858 -4173 0
-4174 352 0
-4174 152 0
4174 -352 -152 0
-3858 -4174 0
-4175 353 0
-4175 153 0
4175 -353 -153 0
-3858 -4175 0
-4176 354 0
-4176 154 0
4176 -354 -154 0
-3858 -4176 0
-3858 148 0
-148 3858 4170 4171 4172 4173 4174 4175 4176 0
-4177 148 0
-4177 246 0
4177 -148 -246 0
-3859 -4177 0
-4178 197 0
-4178 161 0
4178 -197 -161 0
-3859 -4178 0
-4179 212 0
-4179 167 0
4179 -212 -167 0
-3859 -4179 0
-4180 222 0
-4180 172 0
4180 -222 -172 0
-3859 -4180 0
-4181 352 0
-4181 180 0
4181 -352 -180 0
-3859 -4181 0
-4182 353 0
-4182 181 0
4182 -353 -181 0
-3859 -4182 0
-4183 354 0
-4183 182 0
4183 -354 -182 0
-3859 -4183 0
-3859 176 0
-176 3859 4177 4178 4179 4180 4181 4182 4183 0
-4184 148 0
-4184 253 0
4184 -148 -253 0
-3860 -4184 0
-4185 176 0
-4185 281 0
4185 -176 -281 0
-3860 -4185 0
-4186 212 0
-4186 188 0
4186 -212 -188 0
-3860 -4186 0
-4187 222 0
-4187 193 0
4187 -222 -193 0
-3860 -4187 0
-4188 352 0
-4188 201 0
4188 -352 -201 0
-3860 -4188 0
-4189 353 0
-4189 202 0
4189 -353 -202 0
-3860 -4189 0
-4190 354 0
-4190 203 0
4190 -354 -203 0
-3860 -4190 0
-3860 197 0
-197 3860 4184 4185 4186 4187 4188 4189 4190 0
-4191 148 0
-4191 259 0
4191 -148 -259 0
-3861 -4191 0
-4192 176 0
-4192 287 0
4192 -176 -287 0
-3861 -4192 0
-4193 197 0
-4193 308 0
4193 -197 -308 0
-3861 -4193 0
-4194 222 0
-4194 208 0
4194 -222 -208 0
-3861 -4194 0
-4195 352 0
-4195 216 0
4195 -352 -216 0
-3861 -4195 0
-4196 353 0
-4196 217 0
4196 -353 -217 0
-3861 -4196 0
-4197 354 0
-4197 218 0
4197 -354 -218 0
-3861 -4197 0
-3861 212 0
-212 3861 4191 4192 4193 4194 4195 4196 4197 0
-4198 148 0
-4198 264 0
4198 -148 -264 0
-3862 -4198 0
-4199 176 0
-4199 292 0
4199 -176 -292 0
-3862 -4199 0
-4200 197 0
-4200 313 0
4200 -197 -313 0
-3862 -4200 0
-4201 212 0
-4201 328 0
4201 -212 -328 0
-3862 -4201 0
-4202 352 0
-4202 226 0
4202 -352 -226 0
-3862 -4202 0
-4203 353 0
-4203 227 0
4203 -353 -227 0
-3862 -4203 0
-4204 354 0
-4204 228 0
4204 -354 -228 0
-3862 -4204 0
-3862 222 0
-222 3862 4198 4199 4200 4201 4202 4203 4204 0
-4205 148 0
-4205 272 0
4205 -148 -272 0
-3863 -4205 0
-4206 176 0
-4206 300 0
4206 -176 -300 0
-3863 -4206 0
-4207 197 0
-4207 321 0
4207 -197 -321 0
-3863 -4207 0
-4208 212 0
-4208 336 0
4208 -212 -336 0
-3863 -4208 0
-4209 222 0
-4209 346 0
4209 -222 -346 0
-3863 -4209 0
-4210 353 0
-4210 238 0
4210 -353 -238 0
-3863 -4210 0
-4211 354 0
-4211 239 0
4211 -354 -239 0
-3863 -4211 0
-3863 352 0
-352 3863 4205 4206 4207 4208 4209 4210 4211 0
-4212 148 0
-4212 273 0
4212 -148 -273 0
-3864 -4212 0
-4213 176 0
-4213 301 0
4213 -176 -301 0
-3864 -4213 0
-4214 197 0
-4214 322 0
4214 -197 -322 0
-3864 -4214 0
-4215 212 0
-4215 337 0
4215 -212 -337 0
-3864 -4215 0
-4216 222 0
-4216 347 0
4216 -222 -347 0
-3864 -4216 0
-4217 352 0
-4217 358 0
4217 -352 -358 0
-3864 -4217 0
-4218 354 0
-4218 240 0
4218 -354 -240 0
-3864 -4218 0
-3864 353 0
-353 3864 4212 4213 4214 4215 4216 4217 4218 0
-4219 148 0
-4219 274 0
4219 -148 -274 0
-3865 -4219 0
-4220 176 0
-4220 302 0
4220 -176 -302 0
-3865 -4220 0
-4221 197 0
-4221 323 0
4221 -197 -323 0
-3865 -4221 0
-4222 212 0
-4222 338 0
4222 -212 -338 0
-3865 -4222 0
-4223 222 0
-4223 348 0
4223 -222 -348 0
-3865 -4223 0
-4224 352 0
-4224 359 0
4224 -352 -359 0
-3865 -4224 0
-4225 353 0
-4225 360 0
4225 -353 -360 0
-3865 -4225 0
-3865 354 0
-354 3865 4219 4220 4221 4222 4223 4224 4225 0
-4226 180 0
-4226 126 0
4226 -180 -126 0
-3866 -4226 0
-4227 201 0
-4227 133 0
4227 -201 -133 0
-3866 -4227 0
-4228 216 0
-4228 139 0
4228 -216 -139 0
-3866 -4228 0
-4229 226 0
-4229 144 0
4229 -226 -144 0
-3866 -4229 0
-4230 232 0
-4230 148 0
4230 -232 -148 0
-3866 -4230 0
-4231 358 0
-4231 153 0
4231 -358 -153 0
-3866 -4231 0
-4232 359 0
-4232 154 0
4232 -359 -154 0
-3866 -4232 0
-3866 152 0
-152 3866 4226 4227 4228 4229 4230 4231 4232 0
-4233 152 0
-4233 246 0
4233 -152 -246 0
-3867 -4233 0
-4234 201 0
-4234 161 0
4234 -201 -161 0
-3867 -4234 0
-4235 216 0
-4235 167 0
4235 -216 -167 0
-3867 -4235 0
-4236 226 0
-4236 172 0
4236 -226 -172 0
-3867 -4236 0
-4237 232 0
-4237 176 0
4237 -232 -176 0
-3867 -4237 0
-4238 358 0
-4238 181 0
4238 -358 -181 0
-3867 -4238 0
-4239 359 0
-4239 182 0
4239 -359 -182 0
-3867 -4239 0
-3867 180 0
-180 3867 4233 4234 4235 4236 4237 4238 4239 0
-4240 152 0
-4240 253 0
4240 -152 -253 0
-3868 -4240 0
-4241 180 0
-4241 281 0
4241 -180 -281 0
-3868 -4241 0
-4242 216 0
-4242 188 0
4242 -216 -188 0
-3868 -4242 0
-4243 226 0
-4243 193 0
4243 -226 -193 0
-3868 -4243 0
-4244 232 0
-4244 197 0
4244 -232 -197 0
-3868 -4244 0
-4245 358 0
-4245 202 0
4245 -358 -202 0
-3868 -4245 0
-4246 359 0
-4246 203 0
4246 -359 -203 0
-3868 -4246 0
-3868 201 0
-201 3868 4240 4241 4242 4243 4244 4245 4246 0
-4247 152 0
-4247 259 0
4247 -152 -259 0
-3869 -4247 0
-4248 180 0
-4248 287 0
4248 -180 -287 0
-3869 -4248 0
-4249 201 0
-4249 308 0
4249 -201 -308 0
-3869 -4249 0
-4250 226 0
-4250 208 0
4250 -226 -208 0
-3869 -4250 0
-4251 232 0
-4251 212 0
4251 -232 -212 0
-3869 -4251 0
-4252 358 0
-4252 217 0
4252 -358 -217 0
-3869 -4252 0
-4253 359 0
-4253 218 0
4253 -359 -218 0
-3869 -4253 0
-3869 216 0
-216 3869 4247 4248 4249 4250 4251 4252 4253 0
-4254 152 0
-4254 264 0
4254 -152 -264 0
-3870 -4254 0
-4255 180 0
-4255 292 0
4255 -180 -292 0
-3870 -4255 0
-4256 201 0
-4256 313 0
4256 -201 -313 0
-3870 -4256 0
-4257 216 0
-4257 328 0
4257 -216 -328 0
-3870 -4257 0
-4258 232 0
-4258 222 0
4258 -232 -222 0
-3870 -4258 0
-4259 358 0
-4259 227 0
4259 -358 -227 0
-3870 -4259 0
-4260 359 0
-4260 228 0
4260 -359 -228 0
-3870 -4260 0
-3870 226 0
-226 3870 4254 4255 4256 4257 4258 4259 4260 0
-4261 152 0
-4261 268 0
4261 -152 -268 0
-3871 -4261 0
-4262 180 0
-4262 296 0
4262 -180 -296 0
-3871 -4262 0
-4263 201 0
-4263 317 0
4263 -201 -317 0
-3871 -4263 0
-4264 216 0
-4264 332 0
4264 -216 -332 0
-3871 -4264 0
-4265 226 0
-4265 342 0
4265 -226 -342 0
-3871 -4265 0
-4266 358 0
-4266 233 0
4266 -358 -233 0
-3871 -4266 0
-4267 359 0
-4267 234 0
4267 -359 -234 0
-3871 -4267 0
-3871 232 0
-232 3871 4261 4262 4263 4264 4265 4266 4267 0
-4268 152 0
-4268 273 0
4268 -152 -273 0
-3872 -4268 0
-4269 180 0
-4269 301 0
4269 -180 -301 0
-3872 -4269 0
-4270 201 0
-4270 322 0
4270 -201 -322 0
-3872 -4270 0
-4271 216 0
-4271 337 0
4271 -216 -337 0
-3872 -4271 0
-4272 226 0
-4272 347 0
4272 -226 -347 0
-3872 -4272 0
-4273 232 0
-4273 353 0
4273 -232 -353 0
-3872 -4273 0
-4274 359 0
-4274 240 0
4274 -359 -240 0
-3872 -4274 0
-3872 358 0
-358 3872 4268 4269 4270 4271 4272 4273 4274 0
-4275 152 0
-4275 274 0
4275 -152 -274 0
-3873 -4275 0
-4276 180 0
-4276 302 0
4276 -180 -302 0
-3873 -4276 0
-4277 201 0
-4277 323 0
4277 -201 -323 0
-3873 -4277 0
-4278 216 0
-4278 338 0
4278 -216 -338 0
-3873 -4278 0
-4279 226 0
-4279 348 0
4279 -226 -348 0
-3873 -4279 0
-4280 232 0
-4280 354 0
4280 -232 -354 0
-3873 -4280 0
-4281 358 0
-4281 360 0
4281 -358 -360 0
-3873 -4281 0
-3873 359 0
-359 3873 4275 4276 4277 4278 4279 4280 4281 0
-4282 181 0
-4282 126 0
4282 -181 -126 0
-3874 -4282 0
-4283 202 0
-4283 133 0
4283 -202 -133 0
-3874 -4283 0
-4284 217 0
-4284 139 0
4284 -217 -139 0
-3874 -4284 0
-4285 227 0
-4285 144 0
4285 -227 -144 0
-3874 -4285 0
-4286 233 0
-4286 148 0
4286 -233 -148 0
-3874 -4286 0
-4287 238 0
-4287 152 0
4287 -238 -152 0
-3874 -4287 0
-4288 360 0
-4288 154 0
4288 -360 -154 0
-3874 -4288 0
-3874 153 0
-153 3874 4282 4283 4284 4285 4286 4287 4288 0
-4289 153 0
-4289 246 0
4289 -153 -246 0
-3875 -4289 0
-4290 202 0
-4290 161 0
4290 -202 -161 0
-3875 -4290 0
-4291 217 0
-4291 167 0
4291 -217 -167 0
-3875 -4291 0
-4292 227 0
-4292 172 0
4292 -227 -172 0
-3875 -4292 0
-4293 233 0
-4293 176 0
4293 -233 -176 0
-3875 -4293 0
-4294 238 0
-4294 180 0
4294 -238 -180 0
-3875 -4294 0
-4295 360 0
-4295 182 0
4295 -360 -182 0
-3875 -4295 0
-3875 181 0
-181 3875 4289 4290 4291 4292 4293 4294 4295 0
-4296 153 0
-4296 253 0
4296 -153 -253 0
-3876 -4296 0
-4297 181 0
-4297 281 0
4297 -181 -281 0
-3876 -4297 0
-4298 217 0
-4298 188 0
4298 -217 -188 0
-3876 -4298 0
-4299 227 0
-4299 193 0
4299 -227 -193 0
-3876 -4299 0
-4300 233 0
-4300 197 0
4300 -233 -197 0
-3876 -4300 0
-4301 238 0
-4301 201 0
4301 -238 -201 0
-3876 -4301 0
-4302 360 0
-4302 203 0
4302 -360 -203 0
-3876 -4302 0
-3876 202 0
-202 3876 4296 4297 4298 4299 4300 4301 4302 0
-4303 153 0
-4303 259 0
4303 -153 -259 0
-3877 -4303 0
-4304 181 0
-4304 287 0
4304 -181 -287 0
-3877 -4304 0
-4305 202 0
-4305 308 0
4305 -202 -308 0
-3877 -4305 0
-4306 227 0
-4306 208 0
4306 -227 -208 0
-3877 -4306 0
-4307 233 0
-4307 212 0
4307 -233 -212 0
-3877 -4307 0
-4308 238 0
-4308 216 0
4308 -238 -216 0
-3877 -4308 0
-4309 360 0
-4309 218 0
4309 -360 -218 0
-3877 -4309 0
-3877 217 0
-217 3877 4303 4304 4305 4306 4307 4308 4309 0
-4310 153 0
-4310 264 0
4310 -153 -264 0
-3878 -4310 0
-4311 181 0
-4311 292 0
4311 -181 -292 0
-3878 -4311 0
-4312 202 0
-4312 313 0
4312 -202 -313 0
-3878 -4312 0
-4313 217 0
-4313 328 0
4313 -217 -328 0
-3878 -4313 0
-4314 233 0
-4314 222 0
4314 -233 -222 0
-3878 -4314 0
-4315 238 0
-4315 226 0
4315 -238 -226 0
-3878 -4315 0
-4316 360 0
-4316 228 0
4316 -360 -228 0
-3878 -4316 0
-3878 227 0
-227 3878 4310 4311 4312 4313 4314 4315 4316 0
-4317 153 0
-4317 268 0
4317 -153 -268 0
-3879 -4317 0
-4318 181 0
-4318 296 0
4318 -181 -296 0
-3879 -4318 0
-4319 202 0
-4319 317 0
4319 -202 -317 0
-3879 -4319 0
-4320 217 0
-4320 332 0
4320 -217 -332 0
-3879 -4320 0
-4321 227 0
-4321 342 0
4321 -227 -342 0
-3879 -4321 0
-4322 238 0
-4322 232 0
4322 -238 -232 0
-3879 -4322 0
-4323 360 0
-4323 234 0
4323 -360 -234 0
-3879 -4323 0
-3879 233 0
-233 3879 4317 4318 4319 4320 4321 4322 4323 0
-4324 153 0
-4324 272 0
4324 -153 -272 0
-3880 -4324 0
-4325 181 0
-4325 300 0
4325 -181 -300 0
-3880 -4325 0
-4326 202 0
-4326 321 0
4326 -202 -321 0
-3880 -4326 0
-4327 217 0
-4327 336 0
4327 -217 -336 0
-3880 -4327 0
-4328 227 0
-4328 346 0
4328 -227 -346 0
-3880 -4328 0
-4329 233 0
-4329 352 0
4329 -233 -352 0
-3880 -4329 0
-4330 360 0
-4330 239 0
4330 -360 -239 0
-3880 -4330 0
-3880 238 0
-238 3880 4324 4325 4326 4327 4328 4329 4330 0
-4331 153 0
-4331 274 0
4331 -153 -274 0
-3881 -4331 0
-4332 181 0
-4332 302 0
4332 -181 -302 0
-3881 -4332 0
-4333 202 0
-4333 323 0
4333 -202 -323 0
-3881 -4333 0
-4334 217 0
-4334 338 0
4334 -217 -338 0
-3881 -4334 0
-4335 227 0
-4335 348 0
4335 -227 -348 0
-3881 -4335 0
-4336 233 0
-4336 354 0
4336 -233 -354 0
-3881 -4336 0
-4337 238 0
-4337 359 0
4337 -238 -359 0
-3881 -4337 0
-3881 360 0
-360 3881 4331 4332 4333 4334 4335 4336 4337 0
-4338 182 0
-4338 126 0
4338 -182 -126 0
-3882 -4338 0
-4339 203 0
-4339 133 0
4339 -203 -133 0
-3882 -4339 0
-4340 218 0
-4340 139 0
4340 -218 -139 0
-3882 -4340 0
-4341 228 0
-4341 144 0
4341 -228 -144 0
-3882 -4341 0
-4342 234 0
-4342 148 0
4342 -234 -148 0
-3882 -4342 0
-4343 239 0
-4343 152 0
4343 -239 -152 0
-3882 -4343 0
-4344 240 0
-4344 153 0
4344 -240 -153 0
-3882 -4344 0
-3882 154 0
-154 3882 4338 4339 4340 4341 4342 4343 4344 0
-4345 154 0
-4345 246 0
4345 -154 -246 0
-3883 -4345 0
-4346 203 0
-4346 161 0
4346 -203 -161 0
-3883 -4346 0
-4347 218 0
-4347 167 0
4347 -218 -167 0
-3883 -4347 0
-4348 228 0
-4348 172 0
4348 -228 -172 0
-3883 -4348 0
-4349 234 0
-4349 176 0
4349 -234 -176 0
-3883 -4349 0
-4350 239 0
-4350 180 0
4350 -239 -180 0
-3883 -4350 0
-4351 240 0
-4351 181 0
4351 -240 -181 0
-3883 -4351 0
-3883 182 0
-182 3883 4345 4346 4347 4348 4349 4350 4351 0
-4352 154 0
-4352 253 0
4352 -154 -253 0
-3884 -4352 0
-4353 182 0
-4353 281 0
4353 -182 -281 0
-3884 -4353 0
-4354 218 0
-4354 188 0
4354 -218 -188 0
-3884 -4354 0
-4355 228 0
-4355 193 0
4355 -228 -193 0
-3884 -4355 0
-4356 234 0
-4356 197 0
4356 -234 -197 0
-3884 -4356 0
-4357 239 0
-4357 201 0
4357 -239 -201 0
-3884 -4357 0
-4358 240 0
-4358 202 0
4358 -240 -202 0
-3884 -4358 0
-3884 203 0
-203 3884 4352 4353 4354 4355 4356 4357 4358 0
-4359 154 0
-4359 259 0
4359 -154 -259 0
-3885 -4359 0
-4360 182 0
-4360 287 0
4360 -182 -287 0
-3885 -4360 0
-4361 203 0
-4361 308 0
4361 -203 -308 0
-3885 -4361 0
-4362 228 0
-4362 208 0
4362 -228 -208 0
-3885 -4362 0
-4363 234 0
-4363 212 0
4363 -234 -212 0
-3885 -4363 0
-4364 239 0
-4364 216 0
4364 -239 -216 0
-3885 -4364 0
-4365 240 0
-4365 217 0
4365 -240 -217 0
-3885 -4365 0
-3885 218 0
-218 3885 4359 4360 4361 4362 4363 4364 4365 0
-4366 154 0
-4366 264 0
4366 -154 -264 0
-3886 -4366 0
-4367 182 0
-4367 292 0
4367 -182 -292 0
-3886 -4367 0
-4368 203 0
-4368 313 0
4368 -203 -313 0
-3886 -4368 0
-4369 218 0
-4369 328 0
4369 -218 -328 0
-3886 -4369 0
-4370 234 0
-4370 222 0
4370 -234 -222 0
-3886 -4370 0
-4371 239 0
-4371 226 0
4371 -239 -226 0
-3886 -4371 0
-4372 240 0
-4372 227 0
4372 -240 -227 0
-3886 -4372 0
-3886 228 0
-228 3886 4366 4367 4368 4369 4370 4371 4372 0
-4373 154 0
-4373 268 0
4373 -154 -268 0
-3887 -4373 0
-4374 182 0
-4374 296 0
4374 -182 -296 0
-3887 -4374 0
-4375 203 0
-4375 317 0
4375 -203 -317 0
-3887 -4375 0
-4376 218 0
-4376 332 0
4376 -218 -332 0
-3887 -4376 0
-4377 228 0
-4377 342 0
4377 -228 -342 0
-3887 -4377 0
-4378 239 0
-4378 232 0
4378 -239 -232 0
-3887 -4378 0
-4379 240 0
-4379 233 0
4379 -240 -233 0
-3887 -4379 0
-3887 234 0
-234 3887 4373 4374 4375 4376 4377 4378 4379 0
-4380 154 0
-4380 272 0
4380 -154 -272 0
-3888 -4380 0
-4381 182 0
-4381 300 0
4381 -182 -300 0
-3888 -4381 0
-4382 203 0
-4382 321 0
4382 -203 -321 0
-3888 -4382 0
-4383 218 0
-4383 336 0
4383 -218 -336 0
-3888 -4383 0
-4384 228 0
-4384 346 0
4384 -228 -346 0
-3888 -4384 0
-4385 234 0
-4385 352 0
4385 -234 -352 0
-3888 -4385 0
-4386 240 0
-4386 238 0
4386 -240 -238 0
-3888 -4386 0
-3888 239 0
-239 3888 4380 4381 4382 4383 4384 4385 4386 0
-4387 154 0
-4387 273 0
4387 -154 -273 0
-3889 -4387 0
-4388 182 0
-4388 301 0
4388 -182 -301 0
-3889 -4388 0
-4389 203 0
-4389 322 0
4389 -203 -322 0
-3889 -4389 0
-4390 218 0
-4390 337 0
4390 -218 -337 0
-3889 -4390 0
-4391 228 0
-4391 347 0
4391 -228 -347 0
-3889 -4391 0
-4392 234 0
-4392 353 0
4392 -234 -353 0
-3889 -4392 0
-4393 239 0
-4393 358 0
4393 -239 -358 0
-3889 -4393 0
-3889 240 0
-240 3889 4387 4388 4389 4390 4391 4392 4393 0
-4466 254 0
-4466 162 0
4466 -254 -162 0
-4394 -4466 0
-4467 260 0
-4467 168 0
4467 -260 -168 0
-4394 -4467 0
-4468 265 0
-4468 173 0
4468 -265 -173 0
-4394 -4468 0
-4469 269 0
-4469 177 0
4469 -269 -177 0
-4394 -4469 0
-4470 272 0
-4470 180 0
4470 -272 -180 0
-4394 -4470 0
-4471 275 0
-4471 183 0
4471 -275 -183 0
-4394 -4471 0
-4472 276 0
-4472 184 0
4472 -276 -184 0
-4394 -4472 0
-4394 247 0
-247 4394 4466 4467 4468 4469 4470 4471 4472 0
-4473 247 0
-4473 282 0
4473 -247 -282 0
-4395 -4473 0
-4474 260 0
-4474 189 0
4474 -260 -189 0
-4395 -4474 0
-4475 265 0
-4475 194 0
4475 -265 -194 0
-4395 -4475 0
-4476 269 0
-4476 198 0
4476 -269 -198 0
-4395 -4476 0
-4477 272 0
-4477 201 0
4477 -272 -201 0
-4395 -4477 0
-4478 275 0
-4478 204 0
4478 -275 -204 0
-4395 -4478 0
-4479 276 0
-4479 205 0
4479 -276 -205 0
-4395 -4479 0
-4395 254 0
-254 4395 4473 4474 4475 4476 4477 4478 4479 0
-4480 247 0
-4480 288 0
4480 -247 -288 0
-4396 -4480 0
-4481 254 0
-4481 309 0
4481 -254 -309 0
-4396 -4481 0
-4482 265 0
-4482 209 0
4482 -265 -209 0
-4396 -4482 0
-4483 269 0
-4483 213 0
4483 -269 -213 0
-4396 -4483 0
-4484 272 0
-4484 216 0
4484 -272 -216 0
-4396 -4484 0
-4485 275 0
-4485 219 0
4485 -275 -219 0
-4396 -4485 0
-4486 276 0
-4486 220 0
4486 -276 -220 0
-4396 -4486 0
-4396 260 0
-260 4396 4480 4481 4482 4483 4484 4485 4486 0
-4487 247 0
-4487 293 0
4487 -247 -293 0
-4397 -4487 0
-4488 254 0
-4488 314 0
4488 -254 -314 0
-4397 -4488 0
-4489 260 0
-4489 329 0
4489 -260 -329 0
-4397 -4489 0
-4490 269 0
-4490 223 0
4490 -269 -223 0
-4397 -4490 0
-4491 272 0
-4491 226 0
4491 -272 -226 0
-4397 -4491 0
-4492 275 0
-4492 229 0
4492 -275 -229 0
-4397 -4492 0
-4493 276 0
-4493 230 0
4493 -276 -230 0
-4397 -4493 0
-4397 265 0
-265 4397 4487 4488 4489 4490 4491 4492 4493 0
-4494 247 0
-4494 297 0
4494 -247 -297 0
-4398 -4494 0
-4495 254 0
-4495 318 0
4495 -254 -318 0
-4398 -4495 0
-4496 260 0
-4496 333 0
4496 -260 -333 0
-4398 -4496 0
-4497 265 0
-4497 343 0
4497 -265 -343 0
-4398 -4497 0
-4498 272 0
-4498 232 0
4498 -272 -232 0
-4398 -4498 0
-4499 275 0
-4499 235 0
4499 -275 -235 0
-4398 -4499 0
-4500 276 0
-4500 236 0
4500 -276 -236 0
-4398 -4500 0
-4398 269 0
-269 4398 4494 4495 4496 4497 4498 4499 4500 0
-4501 247 0
-4501 300 0
4501 -247 -300 0
-4399 -4501 0
-4502 254 0
-4502 321 0
4502 -254 -321 0
-4399 -4502 0
-4503 260 0
-4503 336 0
4503 -260 -336 0
-4399 -4503 0
-4504 265 0
-4504 346 0
4504 -265 -346 0
-4399 -4504 0
-4505 269 0
-4505 352 0
4505 -269 -352 0
-4399 -4505 0
-4506 275 0
-4506 238 0
4506 -275 -238 0
-4399 -4506 0
-4507 276 0
-4507 239 0
4507 -276 -239 0
-4399 -4507 0
-4399 272 0
-272 4399 4501 4502 4503 4504 4505 4506 4507 0
-4508 247 0
-4508 303 0
4508 -247 -303 0
-4400 -4508 0
-4509 254 0
-4509 324 0
4509 -254 -324 0
-4400 -4509 0
-4510 260 0
-4510 339 0
4510 -260 -339 0
-4400 -4510 0
-4511 265 0
-4511 349 0
4511 -265 -349 0
-4400 -4511 0
-4512 269 0
-4512 355 0
4512 -269 -355 0
-4400 -4512 0
-4513 272 0
-4513 358 0
4513 -272 -358 0
-4400 -4513 0
-4514 276 0
-4514 241 0
4514 -276 -241 0
-4400 -4514 0
-4400 275 0
-275 4400 4508 4509 4510 4511 4512 4513 4514 0
-4515 247 0
-4515 304 0
4515 -247 -304 0
-4401 -4515 0
-4516 254 0
-4516 325 0
4516 -254 -325 0
-4401 -4516 0
-4517 260 0
-4517 340 0
4517 -260 -340 0
-4401 -4517 0
-4518 265 0
-4518 350 0
4518 -265 -350 0
-4401 -4518 0
-4519 269 0
-4519 356 0
4519 -269 -356 0
-4401 -4519 0
-4520 272 0
-4520 359 0
4520 -272 -359 0
-4401 -4520 0
-4521 275 0
-4521 361 0
4521 -275 -361 0
-4401 -4521 0
-4401 276 0
-276 4401 4515 4516 4517 4518 4519 4520 4521 0
-4522 282 0
-4522 134 0
4522 -282 -134 0
-4402 -4522 0
-4523 288 0
-4523 140 0
4523 -288 -140 0
-4402 -4523 0
-4524 293 0
-4524 145 0
4524 -293 -145 0
-4402 -4524 0
-4525 297 0
-4525 149 0
4525 -297 -149 0
-4402 -4525 0
-4526 300 0
-4526 152 0
4526 -300 -152 0
-4402 -4526 0
-4527 303 0
-4527 155 0
4527 -303 -155 0
-4402 -4527 0
-4528 304 0
-4528 156 0
4528 -304 -156 0
-4402 -4528 0
-4402 127 0
-127 4402 4522 4523 4524 4525 4526 4527 4528 0
-4529 127 0
-4529 254 0
4529 -127 -254 0
-4403 -4529 0
-4530 288 0
-4530 189 0
4530 -288 -189 0
-4403 -4530 0
-4531 293 0
-4531 194 0
4531 -293 -194 0
-4403 -4531 0
-4532 297 0
-4532 198 0
4532 -297 -198 0
-4403 -4532 0
-4533 300 0
-4533 201 0
4533 -300 -201 0
-4403 -4533 0
-4534 303 0
-4534 204 0
4534 -303 -204 0
-4403 -4534 0
-4535 304 0
-4535 205 0
4535 -304 -205 0
-4403 -4535 0
-4403 282 0
-282 4403 4529 4530 4531 4532 4533 4534 4535 0
-4536 127 0
-4536 260 0
4536 -127 -260 0
-4404 -4536 0
-4537 282 0
-4537 309 0
4537 -282 -309 0
-4404 -4537 0
-4538 293 0
-4538 209 0
4538 -293 -209 0
-4404 -4538 0
-4539 297 0
-4539 213 0
4539 -297 -213 0
-4404 -4539 0
-4540 300 0
-4540 216 0
4540 -300 -216 0
-4404 -4540 0
-4541 303 0
-4541 219 0
4541 -303 -219 0
-4404 -4541 0
-4542 304 0
-4542 220 0
4542 -304 -220 0
-4404 -4542 0
-4404 288 0
-288 4404 4536 4537 4538 4539 4540 4541 4542 0
-4543 127 0
-4543 265 0
4543 -127 -265 0
-4405 -4543 0
-4544 282 0
-4544 314 0
4544 -282 -314 0
-4405 -4544 0
-4545 288 0
-4545 329 0
4545 -288 -329 0
-4405 -4545 0
-4546 297 0
-4546 223 0
4546 -297 -223 0
-4405 -4546 0
-4547 300 0
-4547 226 0
4547 -300 -226 0
-4405 -4547 0
-4548 303 0
-4548 229 0
4548 -303 -229 0
-4405 -4548 0
-4549 304 0
-4549 230 0
4549 -304 -230 0
-4405 -4549 0
-4405 293 0
-293 4405 4543 4544 4545 4546 4547 4548 4549 0
-4550 127 0
-4550 269 0
4550 -127 -269 0
-4406 -4550 0
-4551 282 0
-4551 318 0
4551 -282 -318 0
-4406 -4551 0
-4552 288 0
-4552 333 0
4552 -288 -333 0
-4406 -4552 0
-4553 293 0
-4553 343 0
4553 -293 -343 0
-4406 -4553 0
-4554 300 0
-4554 232 0
4554 -300 -232 0
-4406 -4554 0
-4555 303 0
-4555 235 0
4555 -303 -235 0
-4406 -4555 0
-4556 304 0
-4556 236 0
4556 -304 -236 0
-4406 -4556 0
-4406 297 0
-297 4406 4550 4551 4552 4553 4554 4555 4556 0
-4557 127 0
-4557 272 0
4557 -127 -272 0
-4407 -4557 0
-4558 282 0
-4558 321 0
4558 -282 -321 0
-4407 -4558 0
-4559 288 0
-4559 336 0
4559 -288 -336 0
-4407 -4559 0
-4560 293 0
-4560 346 0
4560 -293 -346 0
-4407 -4560 0
-4561 297 0
-4561 352 0
4561 -297 -352 0
-4407 -4561 0
-4562 303 0
-4562 238 0
4562 -303 -238 0
-4407 -4562 0
-4563 304 0
-4563 239 0
4563 -304 -239 0
-4407 -4563 0
-4407 300 0
-300 4407 4557 4558 4559 4560 4561 4562 4563 0
-4564 127 0
-4564 275 0
4564 -127 -275 0
-4408 -4564 0
-4565 282 0
-4565 324 0
4565 -282 -324 0
-4408 -4565 0
-4566 288 0
-4566 339 0
4566 -288 -339 0
-4408 -4566 0
-4567 293 0
-4567 349 0
4567 -293 -349 0
-4408 -4567 0
-4568 297 0
-4568 355 0
4568 -297 -355 0
-4408 -4568 0
-4569 300 0
-4569 358 0
4569 -300 -358 0
-4408 -4569 0
-4570 304 0
-4570 241 0
4570 -304 -241 0
-4408 -4570 0
-4408 303 0
-303 4408 4564 4565 4566 4567 4568 4569 4570 0
-4571 127 0
-4571 276 0
4571 -127 -276 0
-4409 -4571 0
-4572 282 0
-4572 325 0
4572 -282 -325 0
-4409 -4572 0
-4573 288 0
-4573 340 0
4573 -288 -340 0
-4409 -4573 0
-4574 293 0
-4574 350 0
4574 -293 -350 0
-4409 -4574 0
-4575 297 0
-4575 356 0
4575 -297 -356 0
-4409 -4575 0
-4576 300 0
-4576 359 0
4576 -300 -359 0
-4409 -4576 0
-4577 303 0
-4577 361 0
4577 -303 -361 0
-4409 -4577 0
-4409 304 0
-304 4409 4571 4572 4573 4574 4575 4576 4577 0
-4578 162 0
-4578 127 0
4578 -162 -127 0
-4410 -4578 0
-4579 309 0
-4579 140 0
4579 -309 -140 0
-4410 -4579 0
-4580 314 0
-4580 145 0
4580 -314 -145 0
-4410 -4580 0
-4581 318 0
-4581 149 0
4581 -318 -149 0
-4410 -4581 0
-4582 321 0
-4582 152 0
4582 -321 -152 0
-4410 -4582 0
-4583 324 0
-4583 155 0
4583 -324 -155 0
-4410 -4583 0
-4584 325 0
-4584 156 0
4584 -325 -156 0
-4410 -4584 0
-4410 134 0
-134 4410 4578 4579 4580 4581 4582 4583 4584 0
-4585 134 0
-4585 247 0
4585 -134 -247 0
-4411 -4585 0
-4586 309 0
-4586 168 0
4586 -309 -168 0
-4411 -4586 0
-4587 314 0
-4587 173 0
4587 -314 -173 0
-4411 -4587 0
-4588 318 0
-4588 177 0
4588 -318 -177 0
-4411 -4588 0
-4589 321 0
-4589 180 0
4589 -321 -180 0
-4411 -4589 0
-4590 324 0
-4590 183 0
4590 -324 -183 0
-4411 -4590 0
-4591 325 0
-4591 184 0
4591 -325 -184 0
-4411 -4591 0
-4411 162 0
-162 4411 4585 4586 4587 4588 4589 4590 4591 0
-4592 134 0
-4592 260 0
4592 -134 -260 0
-4412 -4592 0
-4593 162 0
-4593 288 0
4593 -162 -288 0
-4412 -4593 0
-4594 314 0
-4594 209 0
4594 -314 -209 0
-4412 -4594 0
-4595 318 0
-4595 213 0
4595 -318 -213 0
-4412 -4595 0
-4596 321 0
-4596 216 0
4596 -321 -216 0
-4412 -4596 0
-4597 324 0
-4597 219 0
4597 -324 -219 0
-4412 -4597 0
-4598 325 0
-4598 220 0
4598 -325 -220 0
-4412 -4598 0
-4412 309 0
-309 4412 4592 4593 4594 4595 4596 4597 4598 0
-4599 134 0
-4599 265 0
4599 -134 -265 0
-4413 -4599 0
-4600 162 0
-4600 293 0
4600 -162 -293 0
-4413 -4600 0
-4601 309 0
-4601 329 0
4601 -309 -329 0
-4413 -4601 0
-4602 318 0
-4602 223 0
4602 -318 -223 0
-4413 -4602 0
-4603 321 0
-4603 226 0
4603 -321 -226 0
-4413 -4603 0
-4604 324 0
-4604 229 0
4604 -324 -229 0
-4413 -4604 0
-4605 325 0
-4605 230 0
4605 -325 -230 0
-4413 -4605 0
-4413 314 0
-314 4413 4599 4600 4601 4602 4603 4604 4605 0
-4606 134 0
-4606 269 0
4606 -134 -269 0
-4414 -4606 0
-4607 162 0
-4607 297 0
4607 -162 -297 0
-4414 -4607 0
-4608 309 0
-4608 333 0
4608 -309 -333 0
-4414 -4608 0
-4609 314 0
-4609 343 0
4609 -314 -343 0
-4414 -4609 0
-4610 321 0
-4610 232 0
4610 -321 -232 0
-4414 -4610 0
-4611 324 0
-4611 235 0
4611 -324 -235 0
-4414 -4611 0
-4612 325 0
-4612 236 0
4612 -325 -236 0
-4414 -4612 0
-4414 318 0
-318 4414 4606 4607 4608 4609 4610 4611 4612 0
-4613 134 0
-4613 272 0
4613 -134 -272 0
-4415 -4613 0
-4614 162 0
-4614 300 0
4614 -162 -300 0
-4415 -4614 0
-4615 309 0
-4615 336 0
4615 -309 -336 0
-4415 -4615 0
-4616 314 0
-4616 346 0
4616 -314 -346 0
-4415 -4616 0
-4617 318 0
-4617 352 0
4617 -318 -352 0
-4415 -4617 0
-4618 324 0
-4618 238 0
4618 -324 -238 0
-4415 -4618 0
-4619 325 0
-4619 239 0
4619 -325 -239 0
-4415 -4619 0
-4415 321 0
-321 4415 4613 4614 4615 4616 4617 4618 4619 0
-4620 134 0
-4620 275 0
4620 -134 -275 0
-4416 -4620 0
-4621 162 0
-4621 303 0
4621 -162 -303 0
-4416 -4621 0
-4622 309 0
-4622 339 0
4622 -309 -339 0
-4416 -4622 0
-4623 314 0
-4623 349 0
4623 -314 -349 0
-4416 -4623 0
-4624 318 0
-4624 355 0
4624 -318 -355 0
-4416 -4624 0
-4625 321 0
-4625 358 0
4625 -321 -358 0
-4416 -4625 0
-4626 325 0
-4626 241 0
4626 -325 -241 0
-4416 -4626 0
-4416 324 0
-324 4416 4620 4621 4622 4623 4624 4625 4626 0
-4627 134 0
-4627 276 0
4627 -134 -276 0
-4417 -4627 0
-4628 162 0
-4628 304 0
4628 -162 -304 0
-4417 -4628 0
-4629 309 0
-4629 340 0
4629 -309 -340 0
-4417 -4629 0
-4630 314 0
-4630 350 0
4630 -314 -350 0
-4417 -4630 0
-4631 318 0
-4631 356 0
4631 -318 -356 0
-4417 -4631 0
-4632 321 0
-4632 359 0
4632 -321 -359 0
-4417 -4632 0
-4633 324 0
-4633 361 0
4633 -324 -361 0
-4417 -4633 0
-4417 325 0
-325 4417 4627 4628 4629 4630 4631 4632 4633 0
-4634 168 0
-4634 127 0
4634 -168 -127 0
-4418 -4634 0
-4635 189 0
-4635 134 0
4635 -189 -134 0
-4418 -4635 0
-4636 329 0
-4636 145 0
4636 -329 -145 0
-4418 -4636 0
-4637 333 0
-4637 149 0
4637 -333 -149 0
-4418 -4637 0
-4638 336 0
-4638 152 0
4638 -336 -152 0
-4418 -4638 0
-4639 339 0
-4639 155 0
4639 -339 -155 0
-4418 -4639 0
-4640 340 0
-4640 156 0
4640 -340 -156 0
-4418 -4640 0
-4418 140 0
-140 4418 4634 4635 4636 4637 4638 4639 4640 0
-4641 140 0
-4641 247 0
4641 -140 -247 0
-4419 -4641 0
-4642 189 0
-4642 162 0
4642 -189 -162 0
-4419 -4642 0
-4643 329 0
-4643 173 0
4643 -329 -173 0
-4419 -4643 0
-4644 333 0
-4644 177 0
4644 -333 -177 0
-4419 -4644 0
-4645 336 0
-4645 180 0
4645 -336 -180 0
-4419 -4645 0
-4646 339 0
-4646 183 0
4646 -339 -183 0
-4419 -4646 0
-4647 340 0
-4647 184 0
4647 -340 -184 0
-4419 -4647 0
-4419 168 0
-168 4419 4641 4642 4643 4644 4645 4646 4647 0
-4648 140 0
-4648 254 0
4648 -140 -254 0
-4420 -4648 0
-4649 168 0
-4649 282 0
4649 -168 -282 0
-4420 -4649 0
-4650 329 0
-4650 194 0
4650 -329 -194 0
-4420 -4650 0
-4651 333 0
-4651 198 0
4651 -333 -198 0
-4420 -4651 0
-4652 336 0
-4652 201 0
4652 -336 -201 0
-4420 -4652 0
-4653 339 0
-4653 204 0
4653 -339 -204 0
-4420 -4653 0
-4654 340 0
-4654 205 0
4654 -340 -205 0
-4420 -4654 0
-4420 189 0
-189 4420 4648 4649 4650 4651 4652 4653 4654 0
-4655 140 0
-4655 265 0
4655 -140 -265 0
-4421 -4655 0
-4656 168 0
-4656 293 0
4656 -168 -293 0
-4421 -4656 0
-4657 189 0
-4657 314 0
4657 -189 -314 0
-4421 -4657 0
-4658 333 0
-4658 223 0
4658 -333 -223 0
-4421 -4658 0
-4659 336 0
-4659 226 0
4659 -336 -226 0
-4421 -4659 0
-4660 339 0
-4660 229 0
4660 -339 -229 0
-4421 -4660 0
-4661 340 0
-4661 230 0
4661 -340 -230 0
-4421 -4661 0
-4421 329 0
-329 4421 4655 4656 4657 4658 4659 4660 4661 0
-4662 140 0
-4662 269 0
4662 -140 -269 0
-4422 -4662 0
-4663 168 0
-4663 297 0
4663 -168 -297 0
-4422 -4663 0
-4664 189 0
-4664 318 0
4664 -189 -318 0
-4422 -4664 0
-4665 329 0
-4665 343 0
4665 -329 -343 0
-4422 -4665 0
-4666 336 0
-4666 232 0
4666 -336 -232 0
-4422 -4666 0
-4667 339 0
-4667 235 0
4667 -339 -235 0
-4422 -4667 0
-4668 340 0
-4668 236 0
4668 -340 -236 0
-4422 -4668 0
-4422 333 0
-333 4422 4662 4663 4664 4665 4666 4667 4668 0
-4669 140 0
-4669 272 0
4669 -140 -272 0
-4423 -4669 0
-4670 168 0
-4670 300 0
4670 -168 -300 0
-4423 -4670 0
-4671 189 0
-4671 321 0
4671 -189 -321 0
-4423 -4671 0
-4672 329 0
-4672 346 0
4672 -329 -346 0
-4423 -4672 0
-4673 333 0
-4673 352 0
4673 -333 -352 0
-4423 -4673 0
-4674 339 0
-4674 238 0
4674 -339 -238 0
-4423 -4674 0
-4675 340 0
-4675 239 0
4675 -340 -239 0
-4423 -4675 0
-4423 336 0
-336 4423 4669 4670 4671 4672 4673 4674 4675 0
-4676 140 0
-4676 275 0
4676 -140 -275 0
-4424 -4676 0
-4677 168 0
-4677 303 0
4677 -168 -303 0
-4424 -4677 0
-4678 189 0
-4678 324 0
4678 -189 -324 0
-4424 -4678 0
-4679 329 0
-4679 349 0
4679 -329 -349 0
-4424 -4679 0
-4680 333 0
-4680 355 0
4680 -333 -355 0
-4424 -4680 0
-4681 336 0
-4681 358 0
4681 -336 -358 0
-4424 -4681 0
-4682 340 0
-4682 241 0
4682 -340 -241 0
-4424 -4682 0
-4424 339 0
-339 4424 4676 4677 4678 4679 4680 4681 4682 0
-4683 140 0
-4683 276 0
4683 -140 -276 0
-4425 -4683 0
-4684 168 0
-4684 304 0
4684 -168 -304 0
-4425 -4684 0
-4685 189 0
-4685 325 0
4685 -189 -325 0
-4425 -4685 0
-4686 329 0
-4686 350 0
4686 -329 -350 0
-4425 -4686 0
-4687 333 0
-4687 356 0
4687 -333 -356 0
-4425 -4687 0
-4688 336 0
-4688 359 0
4688 -336 -359 0
-4425 -4688 0
-4689 339 0
-4689 361 0
4689 -339 -361 0
-4425 -4689 0
-4425 340 0
-340 4425 4683 4684 4685 4686 4687 4688 4689 0
-4690 173 0
-4690 127 0
4690 -173 -127 0
-4426 -4690 0
-4691 194 0
-4691 134 0
4691 -194 -134 0
-4426 -4691 0
-4692 209 0
-4692 140 0
4692 -209 -140 0
-4426 -4692 0
-4693 343 0
-4693 149 0
4693 -343 -149 0
-4426 -4693 0
-4694 346 0
-4694 152 0
4694 -346 -152 0
-4426 -4694 0
-4695 349 0
-4695 155 0
4695 -349 -155 0
-4426 -4695 0
-4696 350 0
-4696 156 0
4696 -350 -156 0
-4426 -4696 0
-4426 145 0
-145 4426 4690 4691 4692 4693 4694 4695 4696 0
-4697 145 0
-4697 247 0
4697 -145 -247 0
-4427 -4697 0
-4698 194 0
-4698 162 0
4698 -194 -162 0
-4427 -4698 0
-4699 209 0
-4699 168 0
4699 -209 -168 0
-4427 -4699 0
-4700 343 0
-4700 177 0
4700 -343 -177 0
-4427 -4700 0
-4701 346 0
-4701 180 0
4701 -346 -180 0
-4427 -4701 0
-4702 349 0
-4702 183 0
4702 -349 -183 0
-4427 -4702 0
-4703 350 0
-4703 184 0
4703 -350 -184 0
-4427 -4703 0
-4427 173 0
-173 4427 4697 4698 4699 4700 4701 4702 4703 0
-4704 145 0
-4704 254 0
4704 -145 -254 0
-4428 -4704 0
-4705 173 0
-4705 282 0
4705 -173 -282 0
-4428 -4705 0
-4706 209 0
-4706 189 0
4706 -209 -189 0
-4428 -4706 0
-4707 343 0
-4707 198 0
4707 -343 -198 0
-4428 -4707 0
-4708 346 0
-4708 201 0
4708 -346 -201 0
-4428 -4708 0
-4709 349 0
-4709 204 0
4709 -349 -204 0
-4428 -4709 0
-4710 350 0
-4710 205 0
4710 -350 -205 0
-4428 -4710 0
-4428 194 0
-194 4428 4704 4705 4706 4707 4708 4709 4710 0
-4711 145 0
-4711 260 0
4711 -145 -260 0
-4429 -4711 0
-4712 173 0
-4712 288 0
4712 -173 -288 0
-4429 -4712 0
-4713 194 0
-4713 309 0
4713 -194 -309 0
-4429 -4713 0
-4714 343 0
-4714 213 0
4714 -343 -213 0
-4429 -4714 0
-4715 346 0
-4715 216 0
4715 -346 -216 0
-4429 -4715 0
-4716 349 0
-4716 219 0
4716 -349 -219 0
-4429 -4716 0
-4717 350 0
-4717 220 0
4717 -350 -220 0
-4429 -4717 0
-4429 209 0
-209 4429 4711 4712 4713 4714 4715 4716 4717 0
-4718 145 0
-4718 269 0
4718 -145 -269 0
-4430 -4718 0
-4719 173 0
-4719 297 0
4719 -173 -297 0
-4430 -4719 0
-4720 194 0
-4720 318 0
4720 -194 -318 0
-4430 -4720 0
-4721 209 0
-4721 333 0
4721 -209 -333 0
-4430 -4721 0
-4722 346 0
-4722 232 0
4722 -346 -232 0
-4430 -4722 0
-4723 349 0
-4723 235 0
4723 -349 -235 0
-4430 -4723 0
-4724 350 0
-4724 236 0
4724 -350 -236 0
-4430 -4724 0
-4430 343 0
-343 4430 4718 4719 4720 4721 4722 4723 4724 0
-4725 145 0
-4725 272 0
4725 -145 -272 0
-4431 -4725 0
-4726 173 0
-4726 300 0
4726 -173 -300 0
-4431 -4726 0
-4727 194 0
-4727 321 0
4727 -194 -321 0
-4431 -4727 0
-4728 209 0
-4728 336 0
4728 -209 -336 0
-4431 -4728 0
-4729 343 0
-4729 352 0
4729 -343 -352 0
-4431 -4729 0
-4730 349 0
-4730 238 0
4730 -349 -238 0
-4431 -4730 0
-4731 350 0
-4731 239 0
4731 -350 -239 0
-4431 -4731 0
-4431 346 0
-346 4431 4725 4726 4727 4728 4729 4730 4731 0
-4732 145 0
-4732 275 0
4732 -145 -275 0
-4432 -4732 0
-4733 173 0
-4733 303 0
4733 -173 -303 0
-4432 -4733 0
-4734 194 0
-4734 324 0
4734 -194 -324 0
-4432 -4734 0
-4735 209 0
-4735 339 0
4735 -209 -339 0
-4432 -4735 0
-4736 343 0
-4736 355 0
4736 -343 -355 0
-4432 -4736 0
-4737 346 0
-4737 358 0
4737 -346 -358 0
-4432 -4737 0
-4738 350 0
-4738 241 0
4738 -350 -241 0
-4432 -4738 0
-4432 349 0
-349 4432 4732 4733 4734 4735 4736 4737 4738 0
-4739 145 0
-4739 276 0
4739 -145 -276 0
-4433 -4739 0
-4740 173 0
-4740 304 0
4740 -173 -304 0
-4433 -4740 0
-4741 194 0
-4741 325 0
4741 -194 -325 0
-4433 -4741 0
-4742 209 0
-4742 340 0
4742 -209 -340 0
-4433 -4742 0
-4743 343 0
-4743 356 0
4743 -343 -356 0
-4433 -4743 0
-4744 346 0
-4744 359 0
4744 -346 -359 0
-4433 -4744 0
-4745 349 0
-4745 361 0
4745 -349 -361 0
-4433 -4745 0
-4433 350 0
-350 4433 4739 4740 4741 4742 4743 4744 4745 0
-4746 177 0
-4746 127 0
4746 -177 -127 0
-4434 -4746 0
-4747 198 0
-4747 134 0
4747 -198 -134 0
-4434 -4747 0
-4748 213 0
-4748 140 0
4748 -213 -140 0
-4434 -4748 0
-4749 223 0
-4749 145 0
4749 -223 -145 0
-4434 -4749 0
-4750 352 0
-4750 152 0
4750 -352 -152 0
-4434 -4750 0
-4751 355 0
-4751 155 0
4751 -355 -155 0
-4434 -4751 0
-4752 356 0
-4752 156 0
4752 -356 -156 0
-4434 -4752 0
-4434 149 0
-149 4434 4746 4747 4748 4749 4750 4751 4752 0
-4753 149 0
-4753 247 0
4753 -149 -247 0
-4435 -4753 0
-4754 198 0
-4754 162 0
4754 -198 -162 0
-4435 -4754 0
-4755 213 0
-4755 168 0
4755 -213 -168 0
-4435 -4755 0
-4756 223 0
-4756 173 0
4756 -223 -173 0
-4435 -4756 0
-4757 352 0
-4757 180 0
4757 -352 -180 0
-4435 -4757 0
-4758 355 0
-4758 183 0
4758 -355 -183 0
-4435 -4758 0
-4759 356 0
-4759 184 0
4759 -356 -184 0
-4435 -4759 0
-4435 177 0
-177 4435 4753 4754 4755 4756 4757 4758 4759 0
-4760 149 0
-4760 254 0
4760 -149 -254 0
-4436 -4760 0
-4761 177 0
-4761 282 0
4761 -177 -282 0
-4436 -4761 0
-4762 213 0
-4762 189 0
4762 -213 -189 0
-4436 -4762 0
-4763 223 0
-4763 194 0
4763 -223 -194 0
-4436 -4763 0
-4764 352 0
-4764 201 0
4764 -352 -201 0
-4436 -4764 0
-4765 355 0
-4765 204 0
4765 -355 -204 0
-4436 -4765 0
-4766 356 0
-4766 205 0
4766 -356 -205 0
-4436 -4766 0
-4436 198 0
-198 4436 4760 4761 4762 4763 4764 4765 4766 0
-4767 149 0
-4767 260 0
4767 -149 -260 0
-4437 -4767 0
-4768 177 0
-4768 288 0
4768 -177 -288 0
-4437 -4768 0
-4769 198 0
-4769 309 0
4769 -198 -309 0
-4437 -4769 0
-4770 223 0
-4770 209 0
4770 -223 -209 0
-4437 -4770 0
-4771 352 0
-4771 216 0
4771 -352 -216 0
-4437 -4771 0
-4772 355 0
-4772 219 0
4772 -355 -219 0
-4437 -4772 0
-4773 356 0
-4773 220 0
4773 -356 -220 0
-4437 -4773 0
-4437 213 0
-213 4437 4767 4768 4769 4770 4771 4772 4773 0
-4774 149 0
-4774 265 0
4774 -149 -265 0
-4438 -4774 0
-4775 177 0
-4775 293 0
4775 -177 -293 0
-4438 -4775 0
-4776 198 0
-4776 314 0
4776 -198 -314 0
-4438 -4776 0
-4777 213 0
-4777 329 0
4777 -213 -329 0
-4438 -4777 0
-4778 352 0
-4778 226 0
4778 -352 -226 0
-4438 -4778 0
-4779 355 0
-4779 229 0
4779 -355 -229 0
-4438 -4779 0
-4780 356 0
-4780 230 0
4780 -356 -230 0
-4438 -4780 0
-4438 223 0
-223 4438 4774 4775 4776 4777 4778 4779 4780 0
-4781 149 0
-4781 272 0
4781 -149 -272 0
-4439 -4781 0
-4782 177 0
-4782 300 0
4782 -177 -300 0
-4439 -4782 0
-4783 198 0
-4783 321 0
4783 -198 -321 0
-4439 -4783 0
-4784 213 0
-4784 336 0
4784 -213 -336 0
-4439 -4784 0
-4785 223 0
-4785 346 0
4785 -223 -346 0
-4439 -4785 0
-4786 355 0
-4786 238 0
4786 -355 -238 0
-4439 -4786 0
-4787 356 0
-4787 239 0
4787 -356 -239 0
-4439 -4787 0
-4439 352 0
-352 4439 4781 4782 4783 4784 4785 4786 4787 0
-4788 149 0
-4788 275 0
4788 -149 -275 0
-4440 -4788 0
-4789 177 0
-4789 303 0
4789 -177 -303 0
-4440 -4789 0
-4790 198 0
-4790 324 0
4790 -198 -324 0
-4440 -4790 0
-4791 213 0
-4791 339 0
4791 -213 -339 0
-4440 -4791 0
-4792 223 0
-4792 349 0
4792 -223 -349 0
-4440 -4792 0
-4793 352 0
-4793 358 0
4793 -352 -358 0
-4440 -4793 0
-4794 356 0
-4794 241 0
4794 -356 -241 0
-4440 -4794 0
-4440 355 0
-355 4440 4788 4789 4790 4791 4792 4793 4794 0
-4795 149 0
-4795 276 0
4795 -149 -276 0
-4441 -4795 0
-4796 177 0
-4796 304 0
4796 -177 -304 0
-4441 -4796 0
-4797 198 0
-4797 325 0
4797 -198 -325 0
-4441 -4797 0
-4798 213 0
-4798 340 0
4798 -213 -340 0
-4441 -4798 0
-4799 223 0
-4799 350 0
4799 -223 -350 0
-4441 -4799 0
-4800 352 0
-4800 359 0
4800 -352 -359 0
-4441 -4800 0
-4801 355 0
-4801 361 0
4801 -355 -361 0
-4441 -4801 0
-4441 356 0
-356 4441 4795 4796 4797 4798 4799 4800 4801 0
-4802 180 0
-4802 127 0
4802 -180 -127 0
-4442 -4802 0
-4803 201 0
-4803 134 0
4803 -201 -134 0
-4442 -4803 0
-4804 216 0
-4804 140 0
4804 -216 -140 0
-4442 -4804 0
-4805 226 0
-4805 145 0
4805 -226 -145 0
-4442 -4805 0
-4806 232 0
-4806 149 0
4806 -232 -149 0
-4442 -4806 0
-4807 358 0
-4807 155 0
4807 -358 -155 0
-4442 -4807 0
-4808 359 0
-4808 156 0
4808 -359 -156 0
-4442 -4808 0
-4442 152 0
-152 4442 4802 4803 4804 4805 4806 4807 4808 0
-4809 152 0
-4809 247 0
4809 -152 -247 0
-4443 -4809 0
-4810 201 0
-4810 162 0
4810 -201 -162 0
-4443 -4810 0
-4811 216 0
-4811 168 0
4811 -216 -168 0
-4443 -4811 0
-4812 226 0
-4812 173 0
4812 -226 -173 0
-4443 -4812 0
-4813 232 0
-4813 177 0
4813 -232 -177 0
-4443 -4813 0
-4814 358 0
-4814 183 0
4814 -358 -183 0
-4443 -4814 0
-4815 359 0
-4815 184 0
4815 -359 -184 0
-4443 -4815 0
-4443 180 0
-180 4443 4809 4810 4811 4812 4813 4814 4815 0
-4816 152 0
-4816 254 0
4816 -152 -254 0
-4444 -4816 0
-4817 180 0
-4817 282 0
4817 -180 -282 0
-4444 -4817 0
-4818 216 0
-4818 189 0
4818 -216 -189 0
-4444 -4818 0
-4819 226 0
-4819 194 0
4819 -226 -194 0
-4444 -4819 0
-4820 232 0
-4820 198 0
4820 -232 -198 0
-4444 -4820 0
-4821 358 0
-4821 204 0
4821 -358 -204 0
-4444 -4821 0
-4822 359 0
-4822 205 0
4822 -359 -205 0
-4444 -4822 0
-4444 201 0
-201 4444 4816 4817 4818 4819 4820 4821 4822 0
-4823 152 0
-4823 260 0
4823 -152 -260 0
-4445 -4823 0
-4824 180 0
-4824 288 0
4824 -180 -288 0
-4445 -4824 0
-4825 201 0
-4825 309 0
4825 -201 -309 0
-4445 -4825 0
-4826 226 0
-4826 209 0
4826 -226 -209 0
-4445 -4826 0
-4827 232 0
-4827 213 0
4827 -232 -213 0
-4445 -4827 0
-4828 358 0
-4828 219 0
4828 -358 -219 0
-4445 -4828 0
-4829 359 0
-4829 220 0
4829 -359 -220 0
-4445 -4829 0
-4445 216 0
-216 4445 4823 4824 4825 4826 4827 4828 4829 0
-4830 152 0
-4830 265 0
4830 -152 -265 0
-4446 -4830 0
-4831 180 0
-4831 293 0
4831 -180 -293 0
-4446 -4831 0
-4832 201 0
-4832 314 0
4832 -201 -314 0
-4446 -4832 0
-4833 216 0
-4833 329 0
4833 -216 -329 0
-4446 -4833 0
-4834 232 0
-4834 223 0
4834 -232 -223 0
-4446 -4834 0
-4835 358 0
-4835 229 0
4835 -358 -229 0
-4446 -4835 0
-4836 359 0
-4836 230 0
4836 -359 -230 0
-4446 -4836 0
-4446 226 0
-226 4446 4830 4831 4832 4833 4834 4835 4836 0
-4837 152 0
-4837 269 0
4837 -152 -269 0
-4447 -4837 0
-4838 180 0
-4838 297 0
4838 -180 -297 0
-4447 -4838 0
-4839 201 0
-4839 318 0
4839 -201 -318 0
-4447 -4839 0
-4840 216 0
-4840 333 0
4840 -216 -333 0
-4447 -4840 0
-4841 226 0
-4841 343 0
4841 -226 -343 0
-4447 -4841 0
-4842 358 0
-4842 235 0
4842 -358 -235 0
-4447 -4842 0
-4843 359 0
-4843 236 0
4843 -359 -236 0
-4447 -4843 0
-4447 232 0
-232 4447 4837 4838 4839 4840 4841 4842 4843 0
-4844 152 0
-4844 275 0
4844 -152 -275 0
-4448 -4844 0
-4845 180 0
-4845 303 0
4845 -180 -303 0
-4448 -4845 0
-4846 201 0
-4846 324 0
4846 -201 -324 0
-4448 -4846 0
-4847 216 0
-4847 339 0
4847 -216 -339 0
-4448 -4847 0
-4848 226 0
-4848 349 0
4848 -226 -349 0
-4448 -4848 0
-4849 232 0
-4849 355 0
4849 -232 -355 0
-4448 -4849 0
-4850 359 0
-4850 241 0
4850 -359 -241 0
-4448 -4850 0
-4448 358 0
-358 4448 4844 4845 4846 4847 4848 4849 4850 0
-4851 152 0
-4851 276 0
4851 -152 -276 0
-4449 -4851 0
-4852 180 0
-4852 304 0
4852 -180 -304 0
-4449 -4852 0
-4853 201 0
-4853 325 0
4853 -201 -325 0
-4449 -4853 0
-4854 216 0
-4854 340 0
4854 -216 -340 0
-4449 -4854 0
-4855 226 0
-4855 350 0
4855 -226 -350 0
-4449 -4855 0
-4856 232 0
-4856 356 0
4856 -232 -356 0
-4449 -4856 0
-4857 358 0
-4857 361 0
4857 -358 -361 0
-4449 -4857 0
-4449 359 0
-359 4449 4851 4852 4853 4854 4855 4856 4857 0
-4858 183 0
-4858 127 0
4858 -183 -127 0
-4450 -4858 0
-4859 204 0
-4859 134 0
4859 -204 -134 0
-4450 -4859 0
-4860 219 0
-4860 140 0
4860 -219 -140 0
-4450 -4860 0
-4861 229 0
-4861 145 0
4861 -229 -145 0
-4450 -4861 0
-4862 235 0
-4862 149 0
4862 -235 -149 0
-4450 -4862 0
-4863 238 0
-4863 152 0
4863 -238 -152 0
-4450 -4863 0
-4864 361 0
-4864 156 0
4864 -361 -156 0
-4450 -4864 0
-4450 155 0
-155 4450 4858 4859 4860 4861 4862 4863 4864 0
-4865 155 0
-4865 247 0
4865 -155 -247 0
-4451 -4865 0
-4866 204 0
-4866 162 0
4866 -204 -162 0
-4451 -4866 0
-4867 219 0
-4867 168 0
4867 -219 -168 0
-4451 -4867 0
-4868 229 0
-4868 173 0
4868 -229 -173 0
-4451 -4868 0
-4869 235 0
-4869 177 0
4869 -235 -177 0
-4451 -4869 0
-4870 238 0
-4870 180 0
4870 -238 -180 0
-4451 -4870 0
-4871 361 0
-4871 184 0
4871 -361 -184 0
-4451 -4871 0
-4451 183 0
-183 4451 4865 4866 4867 4868 4869 4870 4871 0
-4872 155 0
-4872 254 0
4872 -155 -254 0
-4452 -4872 0
-4873 183 0
-4873 282 0
4873 -183 -282 0
-4452 -4873 0
-4874 219 0
-4874 189 0
4874 -219 -189 0
-4452 -4874 0
-4875 229 0
-4875 194 0
4875 -229 -194 0
-4452 -4875 0
-4876 235 0
-4876 198 0
4876 -235 -198 0
-4452 -4876 0
-4877 238 0
-4877 201 0
4877 -238 -201 0
-4452 -4877 0
-4878 361 0
-4878 205 0
4878 -361 -205 0
-4452 -4878 0
-4452 204 0
-204 4452 4872 4873 4874 4875 4876 4877 4878 0
-4879 155 0
-4879 260 0
4879 -155 -260 0
-4453 -4879 0
-4880 183 0
-4880 288 0
4880 -183 -288 0
-4453 -4880 0
-4881 204 0
-4881 309 0
4881 -204 -309 0
-4453 -4881 0
-4882 229 0
-4882 209 0
4882 -229 -209 0
-4453 -4882 0
-4883 235 0
-4883 213 0
4883 -235 -213 0
-4453 -4883 0
-4884 238 0
-4884 216 0
4884 -238 -216 0
-4453 -4884 0
-4885 361 0
-4885 220 0
4885 -361 -220 0
-4453 -4885 0
-4453 219 0
-219 4453 4879 4880 4881 4882 4883 4884 4885 0
-4886 155 0
-4886 265 0
4886 -155 -265 0
-4454 -4886 0
-4887 183 0
-4887 293 0
4887 -183 -293 0
-4454 -4887 0
-4888 204 0
-4888 314 0
4888 -204 -314 0
-4454 -4888 0
-4889 219 0
-4889 329 0
4889 -219 -329 0
-4454 -4889 0
-4890 235 0
-4890 223 0
4890 -235 -223 0
-4454 -4890 0
-4891 238 0
-4891 226 0
4891 -238 -226 0
-4454 -4891 0
-4892 361 0
-4892 230 0
4892 -361 -230 0
-4454 -4892 0
-4454 229 0
-229 4454 4886 4887 4888 4889 4890 4891 4892 0
-4893 155 0
-4893 269 0
4893 -155 -269 0
-4455 -4893 0
-4894 183 0
-4894 297 0
4894 -183 -297 0
-4455 -4894 0
-4895 204 0
-4895 318 0
4895 -204 -318 0
-4455 -4895 0
-4896 219 0
-4896 333 0
4896 -219 -333 0
-4455 -4896 0
-4897 229 0
-4897 343 0
4897 -229 -343 0
-4455 -4897 0
-4898 238 0
-4898 232 0
4898 -238 -232 0
-4455 -4898 0
-4899 361 0
-4899 236 0
4899 -361 -236 0
-4455 -4899 0
-4455 235 0
-235 4455 4893 4894 4895 4896 4897 4898 4899 0
-4900 155 0
-4900 272 0
4900 -155 -272 0
-4456 -4900 0
-4901 183 0
-4901 300 0
4901 -183 -300 0
-4456 -4901 0
-4902 204 0
-4902 321 0
4902 -204 -321 0
-4456 -4902 0
-4903 219 0
-4903 336 0
4903 -219 -336 0
-4456 -4903 0
-4904 229 0
-4904 346 0
4904 -229 -346 0
-4456 -4904 0
-4905 235 0
-4905 352 0
4905 -235 -352 0
-4456 -4905 0
-4906 361 0
-4906 239 0
4906 -361 -239 0
-4456 -4906 0
-4456 238 0
-238 4456 4900 4901 4902 4903 4904 4905 4906 0
-4907 155 0
-4907 276 0
4907 -155 -276 0
-4457 -4907 0
-4908 183 0
-4908 304 0
4908 -183 -304 0
-4457 -4908 0
-4909 204 0
-4909 325 0
4909 -204 -325 0
-4457 -4909 0
-4910 219 0
-4910 340 0
4910 -219 -340 0
-4457 -4910 0
-4911 229 0
-4911 350 0
4911 -229 -350 0
-4457 -4911 0
-4912 235 0
-4912 356 0
4912 -235 -356 0
-4457 -4912 0
-4913 238 0
-4913 359 0
4913 -238 -359 0
-4457 -4913 0
-4457 361 0
-361 4457 4907 4908 4909 4910 4911 4912 4913 0
-4914 184 0
-4914 127 0
4914 -184 -127 0
-4458 -4914 0
-4915 205 0
-4915 134 0
4915 -205 -134 0
-4458 -4915 0
-4916 220 0
-4916 140 0
4916 -220 -140 0
-4458 -4916 0
-4917 230 0
-4917 145 0
4917 -230 -145 0
-4458 -4917 0
-4918 236 0
-4918 149 0
4918 -236 -149 0
-4458 -4918 0
-4919 239 0
-4919 152 0
4919 -239 -152 0
-4458 -4919 0
-4920 241 0
-4920 155 0
4920 -241 -155 0
-4458 -4920 0
-4458 156 0
-156 4458 4914 4915 4916 4917 4918 4919 4920 0
-4921 156 0
-4921 247 0
4921 -156 -247 0
-4459 -4921 0
-4922 205 0
-4922 162 0
4922 -205 -162 0
-4459 -4922 0
-4923 220 0
-4923 168 0
4923 -220 -168 0
-4459 -4923 0
-4924 230 0
-4924 173 0
4924 -230 -173 0
-4459 -4924 0
-4925 236 0
-4925 177 0
4925 -236 -177 0
-4459 -4925 0
-4926 239 0
-4926 180 0
4926 -239 -180 0
-4459 -4926 0
-4927 241 0
-4927 183 0
4927 -241 -183 0
-4459 -4927 0
-4459 184 0
-184 4459 4921 4922 4923 4924 4925 4926 4927 0
-4928 156 0
-4928 254 0
4928 -156 -254 0
-4460 -4928 0
-4929 184 0
-4929 282 0
4929 -184 -282 0
-4460 -4929 0
-4930 220 0
-4930 189 0
4930 -220 -189 0
-4460 -4930 0
-4931 230 0
-4931 194 0
4931 -230 -194 0
-4460 -4931 0
-4932 236 0
-4932 198 0
4932 -236 -198 0
-4460 -4932 0
-4933 239 0
-4933 201 0
4933 -239 -201 0
-4460 -4933 0
-4934 241 0
-4934 204 0
4934 -241 -204 0
-4460 -4934 0
-4460 205 0
-205 4460 4928 4929 4930 4931 4932 4933 4934 0
-4935 156 0
-4935 260 0
4935 -156 -260 0
-4461 -4935 0
-4936 184 0
-4936 288 0
4936 -184 -288 0
-4461 -4936 0
-4937 205 0
-4937 309 0
4937 -205 -309 0
-4461 -4937 0
-4938 230 0
-4938 209 0
4938 -230 -209 0
-4461 -4938 0
-4939 236 0
-4939 213 0
4939 -236 -213 0
-4461 -4939 0
-4940 239 0
-4940 216 0
4940 -239 -216 0
-4461 -4940 0
-4941 241 0
-4941 219 0
4941 -241 -219 0
-4461 -4941 0
-4461 220 0
-220 4461 4935 4936 4937 4938 4939 4940 4941 0
-4942 156 0
-4942 265 0
4942 -156 -265 0
-4462 -4942 0
-4943 184 0
-4943 293 0
4943 -184 -293 0
-4462 -4943 0
-4944 205 0
-4944 314 0
4944 -205 -314 0
-4462 -4944 0
-4945 220 0
-4945 329 0
4945 -220 -329 0
-4462 -4945 0
-4946 236 0
-4946 223 0
4946 -236 -223 0
-4462 -4946 0
-4947 239 0
-4947 226 0
4947 -239 -226 0
-4462 -4947 0
-4948 241 0
-4948 229 0
4948 -241 -229 0
-4462 -4948 0
-4462 230 0
-230 4462 4942 4943 4944 4945 4946 4947 4948 0
-4949 156 0
-4949 269 0
4949 -156 -269 0
-4463 -4949 0
-4950 184 0
-4950 297 0
4950 -184 -297 0
-4463 -4950 0
-4951 205 0
-4951 318 0
4951 -205 -318 0
-4463 -4951 0
-4952 220 0
-4952 333 0
4952 -220 -333 0
-4463 -4952 0
-4953 230 0
-4953 343 0
4953 -230 -343 0
-4463 -4953 0
-4954 239 0
-4954 232 0
4954 -239 -232 0
-4463 -4954 0
-4955 241 0
-4955 235 0
4955 -241 -235 0
-4463 -4955 0
-4463 236 0
-236 4463 4949 4950 4951 4952 4953 4954 4955 0
-4956 156 0
-4956 272 0
4956 -156 -272 0
-4464 -4956 0
-4957 184 0
-4957 300 0
4957 -184 -300 0
-4464 -4957 0
-4958 205 0
-4958 321 0
4958 -205 -321 0
-4464 -4958 0
-4959 220 0
-4959 336 0
4959 -220 -336 0
-4464 -4959 0
-4960 230 0
-4960 346 0
4960 -230 -346 0
-4464 -4960 0
-4961 236 0
-4961 352 0
4961 -236 -352 0
-4464 -4961 0
-4962 241 0
-4962 238 0
4962 -241 -238 0
-4464 -4962 0
-4464 239 0
-239 4464 4956 4957 4958 4959 4960 4961 4962 0
-4963 156 0
-4963 275 0
4963 -156 -275 0
-4465 -4963 0
-4964 184 0
-4964 303 0
4964 -184 -303 0
-4465 -4964 0
-4965 205 0
-4965 324 0
4965 -205 -324 0
-4465 -4965 0
-4966 220 0
-4966 339 0
4966 -220 -339 0
-4465 -4966 0
-4967 230 0
-4967 349 0
4967 -230 -349 0
-4465 -4967 0
-4968 236 0
-4968 355 0
4968 -236 -355 0
-4465 -4968 0
-4969 239 0
-4969 358 0
4969 -239 -358 0
-4465 -4969 0
-4465 241 0
-241 4465 4963 4964 4965 4966 4967 4968 4969 0
-5042 255 0
-5042 163 0
5042 -255 -163 0
-4970 -5042 0
-5043 261 0
-5043 169 0
5043 -261 -169 0
-4970 -5043 0
-5044 266 0
-5044 174 0
5044 -266 -174 0
-4970 -5044 0
-5045 270 0
-5045 178 0
5045 -270 -178 0
-4970 -5045 0
-5046 273 0
-5046 181 0
5046 -273 -181 0
-4970 -5046 0
-5047 275 0
-5047 183 0
5047 -275 -183 0
-4970 -5047 0
-5048 277 0
-5048 185 0
5048 -277 -185 0
-4970 -5048 0
-4970 248 0
-248 4970 5042 5043 5044 5045 5046 5047 5048 0
-5049 248 0
-5049 283 0
5049 -248 -283 0
-4971 -5049 0
-5050 261 0
-5050 190 0
5050 -261 -190 0
-4971 -5050 0
-5051 266 0
-5051 195 0
5051 -266 -195 0
-4971 -5051 0
-5052 270 0
-5052 199 0
5052 -270 -199 0
-4971 -5052 0
-5053 273 0
-5053 202 0
5053 -273 -202 0
-4971 -5053 0
-5054 275 0
-5054 204 0
5054 -275 -204 0
-4971 -5054 0
-5055 277 0
-5055 206 0
5055 -277 -206 0
-4971 -5055 0
-4971 255 0
-255 4971 5049 5050 5051 5052 5053 5054 5055 0
-5056 248 0
-5056 289 0
5056 -248 -289 0
-4972 -5056 0
-5057 255 0
-5057 310 0
5057 -255 -310 0
-4972 -5057 0
-5058 266 0
-5058 210 0
5058 -266 -210 0
-4972 -5058 0
-5059 270 0
-5059 214 0
5059 -270 -214 0
-4972 -5059 0
-5060 273 0
-5060 217 0
5060 -273 -217 0
-4972 -5060 0
-5061 275 0
-5061 219 0
5061 -275 -219 0
-4972 -5061 0
-5062 277 0
-5062 221 0
5062 -277 -221 0
-4972 -5062 0
-4972 261 0
-261 4972 5056 5057 5058 5059 5060 5061 5062 0
-5063 248 0
-5063 294 0
5063 -248 -294 0
-4973 -5063 0
-5064 255 0
-5064 315 0
5064 -255 -315 0
-4973 -5064 0
-5065 261 0
-5065 330 0
5065 -261 -330 0
-4973 -5065 0
-5066 270 0
-5066 224 0
5066 -270 -224 0
-4973 -5066 0
-5067 273 0
-5067 227 0
5067 -273 -227 0
-4973 -5067 0
-5068 275 0
-5068 229 0
5068 -275 -229 0
-4973 -5068 0
-5069 277 0
-5069 231 0
5069 -277 -231 0
-4973 -5069 0
-4973 266 0
-266 4973 5063 5064 5065 5066 5067 5068 5069 0
-5070 248 0
-5070 298 0
5070 -248 -298 0
-4974 -5070 0
-5071 255 0
-5071 319 0
5071 -255 -319 0
-4974 -5071 0
-5072 261 0
-5072 334 0
5072 -261 -334 0
-4974 -5072 0
-5073 266 0
-5073 344 0
5073 -266 -344 0
-4974 -5073 0
-5074 273 0
-5074 233 0
5074 -273 -233 0
-4974 -5074 0
-5075 275 0
-5075 235 0
5075 -275 -235 0
-4974 -5075 0
-5076 277 0
-5076 237 0
5076 -277 -237 0
-4974 -5076 0
-4974 270 0
-270 4974 5070 5071 5072 5073 5074 5075 5076 0
-5077 248 0
-5077 301 0
5077 -248 -301 0
-4975 -5077 0
-5078 255 0
-5078 322 0
5078 -255 -322 0
-4975 -5078 0
-5079 261 0
-5079 337 0
5079 -261 -337 0
-4975 -5079 0
-5080 266 0
-5080 347 0
5080 -266 -347 0
-4975 -5080 0
-5081 270 0
-5081 353 0
5081 -270 -353 0
-4975 -5081 0
-5082 275 0
-5082 238 0
5082 -275 -238 0
-4975 -5082 0
-5083 277 0
-5083 240 0
5083 -277 -240 0
-4975 -5083 0
-4975 273 0
-273 4975 5077 5078 5079 5080 5081 5082 5083 0
-5084 248 0
-5084 303 0
5084 -248 -303 0
-4976 -5084 0
-5085 255 0
-5085 324 0
5085 -255 -324 0
-4976 -5085 0
-5086 261 0
-5086 339 0
5086 -261 -339 0
-4976 -5086 0
-5087 266 0
-5087 349 0
5087 -266 -349 0
-4976 -5087 0
-5088 270 0
-5088 355 0
5088 -270 -355 0
-4976 -5088 0
-5089 273 0
-5089 358 0
5089 -273 -358 0
-4976 -5089 0
-5090 277 0
-5090 241 0
5090 -277 -241 0
-4976 -5090 0
-4976 275 0
-275 4976 5084 5085 5086 5087 5088 5089 5090 0
-5091 248 0
-5091 305 0
5091 -248 -305 0
-4977 -5091 0
-5092 255 0
-5092 326 0
5092 -255 -326 0
-4977 -5092 0
-5093 261 0
-5093 341 0
5093 -261 -341 0
-4977 -5093 0
-5094 266 0
-5094 351 0
5094 -266 -351 0
-4977 -5094 0
-5095 270 0
-5095 357 0
5095 -270 -357 0
-4977 -5095 0
-5096 273 0
-5096 360 0
5096 -273 -360 0
-4977 -5096 0
-5097 275 0
-5097 361 0
5097 -275 -361 0
-4977 -5097 0
-4977 277 0
-277 4977 5091 5092 5093 5094 5095 5096 5097 0
-5098 283 0
-5098 135 0
5098 -283 -135 0
-4978 -5098 0
-5099 289 0
-5099 141 0
5099 -289 -141 0
-4978 -5099 0
-5100 294 0
-5100 146 0
5100 -294 -146 0
-4978 -5100 0
-5101 298 0
-5101 150 0
5101 -298 -150 0
-4978 -5101 0
-5102 301 0
-5102 153 0
5102 -301 -153 0
-4978 -5102 0
-5103 303 0
-5103 155 0
5103 -303 -155 0
-4978 -5103 0
-5104 305 0
-5104 157 0
5104 -305 -157 0
-4978 -5104 0
-4978 128 0
-128 4978 5098 5099 5100 5101 5102 5103 5104 0
-5105 128 0
-5105 255 0
5105 -128 -255 0
-4979 -5105 0
-5106 289 0
-5106 190 0
5106 -289 -190 0
-4979 -5106 0
-5107 294 0
-5107 195 0
5107 -294 -195 0
-4979 -5107 0
-5108 298 0
-5108 199 0
5108 -298 -199 0
-4979 -5108 0
-5109 301 0
-5109 202 0
5109 -301 -202 0
-4979 -5109 0
-5110 303 0
-5110 204 0
5110 -303 -204 0
-4979 -5110 0
-5111 305 0
-5111 206 0
5111 -305 -206 0
-4979 -5111 0
-4979 283 0
-283 4979 5105 5106 5107 5108 5109 5110 5111 0
-5112 128 0
-5112 261 0
5112 -128 -261 0
-4980 -5112 0
-5113 283 0
-5113 310 0
5113 -283 -310 0
-4980 -5113 0
-5114 294 0
-5114 210 0
5114 -294 -210 0
-4980 -5114 0
-5115 298 0
-5115 214 0
5115 -298 -214 0
-4980 -5115 0
-5116 301 0
-5116 217 0
5116 -301 -217 0
-4980 -5116 0
-5117 303 0
-5117 219 0
5117 -303 -219 0
-4980 -5117 0
-5118 305 0
-5118 221 0
5118 -305 -221 0
-4980 -5118 0
-4980 289 0
-289 4980 5112 5113 5114 5115 5116 5117 5118 0
-5119 128 0
-5119 266 0
5119 -128 -266 0
-4981 -5119 0
-5120 283 0
-5120 315 0
5120 -283 -315 0
-4981 -5120 0
-5121 289 0
-5121 330 0
5121 -289 -330 0
-4981 -5121 0
-5122 298 0
-5122 224 0
5122 -298 -224 0
-4981 -5122 0
-5123 301 0
-5123 227 0
5123 -301 -227 0
-4981 -5123 0
-5124 303 0
-5124 229 0
5124 -303 -229 0
-4981 -5124 0
-5125 305 0
-5125 231 0
5125 -305 -231 0
-4981 -5125 0
-4981 294 0
-294 4981 5119 5120 5121 5122 5123 5124 5125 0
-5126 128 0
-5126 270 0
5126 -128 -270 0
-4982 -5126 0
-5127 283 0
-5127 319 0
5127 -283 -319 0
-4982 -5127 0
-5128 289 0
-5128 334 0
5128 -289 -334 0
-4982 -5128 0
-5129 294 0
-5129 344 0
5129 -294 -344 0
-4982 -5129 0
-5130 301 0
-5130 233 0
5130 -301 -233 0
-4982 -5130 0
-5131 303 0
-5131 235 0
5131 -303 -235 0
-4982 -5131 0
-5132 305 0
-5132 237 0
5132 -305 -237 0
-4982 -5132 0
-4982 298 0
-298 4982 5126 5127 5128 5129 5130 5131 5132 0
-5133 128 0
-5133 273 0
5133 -128 -273 0
-4983 -5133 0
-5134 283 0
-5134 322 0
5134 -283 -322 0
-4983 -5134 0
-5135 289 0
-5135 337 0
5135 -289 -337 0
-4983 -5135 0
-5136 294 0
-5136 347 0
5136 -294 -347 0
-4983 -5136 0
-5137 298 0
-5137 353 0
5137 -298 -353 0
-4983 -5137 0
-5138 303 0
-5138 238 0
5138 -303 -238 0
-4983 -5138 0
-5139 305 0
-5139 240 0
5139 -305 -240 0
-4983 -5139 0
-4983 301 0
-301 4983 5133 5134 5135 5136 5137 5138 5139 0
-5140 128 0
-5140 275 0
5140 -128 -275 0
-4984 -5140 0
-5141 283 0
-5141 324 0
5141 -283 -324 0
-4984 -5141 0
-5142 289 0
-5142 339 0
5142 -289 -339 0
-4984 -5142 0
-5143 294 0
-5143 349 0
5143 -294 -349 0
-4984 -5143 0
-5144 298 0
-5144 355 0
5144 -298 -355 0
-4984 -5144 0
-5145 301 0
-5145 358 0
5145 -301 -358 0
-4984 -5145 0
-5146 305 0
-5146 241 0
5146 -305 -241 0
-4984 -5146 0
-4984 303 0
-303 4984 5140 5141 5142 5143 5144 5145 5146 0
-5147 128 0
-5147 277 0
5147 -128 -277 0
-4985 -5147 0
-5148 283 0
-5148 326 0
5148 -283 -326 0
-4985 -5148 0
-5149 289 0
-5149 341 0
5149 -289 -341 0
-4985 -5149 0
-5150 294 0
-5150 351 0
5150 -294 -351 0
-4985 -5150 0
-5151 298 0
-5151 357 0
5151 -298 -357 0
-4985 -5151 0
-5152 301 0
-5152 360 0
5152 -301 -360 0
-4985 -5152 0
-5153 303 0
-5153 361 0
5153 -303 -361 0
-4985 -5153 0
-4985 305 0
-305 4985 5147 5148 5149 5150 5151 5152 5153 0
-5154 163 0
-5154 128 0
5154 -163 -128 0
-4986 -5154 0
-5155 310 0
-5155 141 0
5155 -310 -141 0
-4986 -5155 0
-5156 315 0
-5156 146 0
5156 -315 -146 0
-4986 -5156 0
-5157 319 0
-5157 150 0
5157 -319 -150 0
-4986 -5157 0
-5158 322 0
-5158 153 0
5158 -322 -153 0
-4986 -5158 0
-5159 324 0
-5159 155 0
5159 -324 -155 0
-4986 -5159 0
-5160 326 0
-5160 157 0
5160 -326 -157 0
-4986 -5160 0
-4986 135 0
-135 4986 5154 5155 5156 5157 5158 5159 5160 0
-5161 135 0
-5161 248 0
5161 -135 -248 0
-4987 -5161 0
-5162 310 0
-5162 169 0
5162 -310 -169 0
-4987 -5162 0
-5163 315 0
-5163 174 0
5163 -315 -174 0
-4987 -5163 0
-5164 319 0
-5164 178 0
5164 -319 -178 0
-4987 -5164 0
-5165 322 0
-5165 181 0
5165 -322 -181 0
-4987 -5165 0
-5166 324 0
-5166 183 0
5166 -324 -183 0
-4987 -5166 0
-5167 326 0
-5167 185 0
5167 -326 -185 0
-4987 -5167 0
-4987 163 0
-163 4987 5161 5162 5163 5164 5165 5166 5167 0
-5168 135 0
-5168 261 0
5168 -135 -261 0
-4988 -5168 0
-5169 163 0
-5169 289 0
5169 -163 -289 0
-4988 -5169 0
-5170 315 0
-5170 210 0
5170 -315 -210 0
-4988 -5170 0
-5171 319 0
-5171 214 0
5171 -319 -214 0
-4988 -5171 0
-5172 322 0
-5172 217 0
5172 -322 -217 0
-4988 -5172 0
-5173 324 0
-5173 219 0
5173 -324 -219 0
-4988 -5173 0
-5174 326 0
-5174 221 0
5174 -326 -221 0
-4988 -5174 0
-4988 310 0
-310 4988 5168 5169 5170 5171 5172 5173 5174 0
-5175 135 0
-5175 266 0
5175 -135 -266 0
-4989 -5175 0
-5176 163 0
-5176 294 0
5176 -163 -294 0
-4989 -5176 0
-5177 310 0
-5177 330 0
5177 -310 -330 0
-4989 -5177 0
-5178 319 0
-5178 224 0
5178 -319 -224 0
-4989 -5178 0
-5179 322 0
-5179 227 0
5179 -322 -227 0
-4989 -5179 0
-5180 324 0
-5180 229 0
5180 -324 -229 0
-4989 -5180 0
-5181 326 0
-5181 231 0
5181 -326 -231 0
-4989 -5181 0
-4989 315 0
-315 4989 5175 5176 5177 5178 5179 5180 5181 0
-5182 135 0
-5182 270 0
5182 -135 -270 0
-4990 -5182 0
-5183 163 0
-5183 298 0
5183 -163 -298 0
-4990 -5183 0
-5184 310 0
-5184 334 0
5184 -310 -334 0
-4990 -5184 0
-5185 315 0
-5185 344 0
5185 -315 -344 0
-4990 -5185 0
-5186 322 0
-5186 233 0
5186 -322 -233 0
-4990 -5186 0
-5187 324 0
-5187 235 0
5187 -324 -235 0
-4990 -5187 0
-5188 326 0
-5188 237 0
5188 -326 -237 0
-4990 -5188 0
-4990 319 0
-319 4990 5182 5183 5184 5185 5186 5187 5188 0
-5189 135 0
-5189 273 0
5189 -135 -273 0
-4991 -5189 0
-5190 163 0
-5190 301 0
5190 -163 -301 0
-4991 -5190 0
-5191 310 0
-5191 337 0
5191 -310 -337 0
-4991 -5191 0
-5192 315 0
-5192 347 0
5192 -315 -347 0
-4991 -5192 0
-5193 319 0
-5193 353 0
5193 -319 -353 0
-4991 -5193 0
-5194 324 0
-5194 238 0
5194 -324 -238 0
-4991 -5194 0
-5195 326 0
-5195 240 0
5195 -326 -240 0
-4991 -5195 0
-4991 322 0
-322 4991 5189 5190 5191 5192 5193 5194 5195 0
-5196 135 0
-5196 275 0
5196 -135 -275 0
-4992 -5196 0
-5197 163 0
-5197 303 0
5197 -163 -303 0
-4992 -5197 0
-5198 310 0
-5198 339 0
5198 -310 -339 0
-4992 -5198 0
-5199 315 0
-5199 349 0
5199 -315 -349 0
-4992 -5199 0
-5200 319 0
-5200 355 0
5200 -319 -355 0
-4992 -5200 0
-5201 322 0
-5201 358 0
5201 -322 -358 0
-4992 -5201 0
-5202 326 0
-5202 241 0
5202 -326 -241 0
-4992 -5202 0
-4992 324 0
-324 4992 5196 5197 5198 5199 5200 5201 5202 0
-5203 135 0
-5203 277 0
5203 -135 -277 0
-4993 -5203 0
-5204 163 0
-5204 305 0
5204 -163 -305 0
-4993 -5204 0
-5205 310 0
-5205 341 0
5205 -310 -341 0
-4993 -5205 0
-5206 315 0
-5206 351 0
5206 -315 -351 0
-4993 -5206 0
-5207 319 0
-5207 357 0
5207 -319 -357 0
-4993 -5207 0
-5208 322 0
-5208 360 0
5208 -322 -360 0
-4993 -5208 0
-5209 324 0
-5209 361 0
5209 -324 -361 0
-4993 -5209 0
-4993 326 0
-326 4993 5203 5204 5205 5206 5207 5208 5209 0
-5210 169 0
-5210 128 0
5210 -169 -128 0
-4994 -5210 0
-5211 190 0
-5211 135 0
5211 -190 -135 0
-4994 -5211 0
-5212 330 0
-5212 146 0
5212 -330 -146 0
-4994 -5212 0
-5213 334 0
-5213 150 0
5213 -334 -150 0
-4994 -5213 0
-5214 337 0
-5214 153 0
5214 -337 -153 0
-4994 -5214 0
-5215 339 0
-5215 155 0
5215 -339 -155 0
-4994 -5215 0
-5216 341 0
-5216 157 0
5216 -341 -157 0
-4994 -5216 0
-4994 141 0
-141 4994 5210 5211 5212 5213 5214 5215 5216 0
-5217 141 0
-5217 248 0
5217 -141 -248 0
-4995 -5217 0
-5218 190 0
-5218 163 0
5218 -190 -163 0
-4995 -5218 0
-5219 330 0
-5219 174 0
5219 -330 -174 0
-4995 -5219 0
-5220 334 0
-5220 178 0
5220 -334 -178 0
-4995 -5220 0
-5221 337 0
-5221 181 0
5221 -337 -181 0
-4995 -5221 0
-5222 339 0
-5222 183 0
5222 -339 -183 0
-4995 -5222 0
-5223 341 0
-5223 185 0
5223 -341 -185 0
-4995 -5223 0
-4995 169 0
-169 4995 5217 5218 5219 5220 5221 5222 5223 0
-5224 141 0
-5224 255 0
5224 -141 -255 0
-4996 -5224 0
-5225 169 0
-5225 283 0
5225 -169 -283 0
-4996 -5225 0
-5226 330 0
-5226 195 0
5226 -330 -195 0
-4996 -5226 0
-5227 334 0
-5227 199 0
5227 -334 -199 0
-4996 -5227 0
-5228 337 0
-5228 202 0
5228 -337 -202 0
-4996 -5228 0
-5229 339 0
-5229 204 0
5229 -339 -204 0
-4996 -5229 0
-5230 341 0
-5230 206 0
5230 -341 -206 0
-4996 -5230 0
-4996 190 0
-190 4996 5224 5225 5226 5227 5228 5229 5230 0
-5231 141 0
-5231 266 0
5231 -141 -266 0
-4997 -5231 0
-5232 169 0
-5232 294 0
5232 -169 -294 0
-4997 -5232 0
-5233 190 0
-5233 315 0
5233 -190 -315 0
-4997 -5233 0
-5234 334 0
-5234 224 0
5234 -334 -224 0
-4997 -5234 0
-5235 337 0
-5235 227 0
5235 -337 -227 0
-4997 -5235 0
-5236 339 0
-5236 229 0
5236 -339 -229 0
-4997 -5236 0
-5237 341 0
-5237 231 0
5237 -341 -231 0
-4997 -5237 0
-4997 330 0
-330 4997 5231 5232 5233 5234 5235 5236 5237 0
-5238 141 0
-5238 270 0
5238 -141 -270 0
-4998 -5238 0
-5239 169 0
-5239 298 0
5239 -169 -298 0
-4998 -5239 0
-5240 190 0
-5240 319 0
5240 -190 -319 0
-4998 -5240 0
-5241 330 0
-5241 344 0
5241 -330 -344 0
-4998 -5241 0
-5242 337 0
-5242 233 0
5242 -337 -233 0
-4998 -5242 0
-5243 339 0
-5243 235 0
5243 -339 -235 0
-4998 -5243 0
-5244 341 0
-5244 237 0
5244 -341 -237 0
-4998 -5244 0
-4998 334 0
-334 4998 5238 5239 5240 5241 5242 5243 5244 0
-5245 141 0
-5245 273 0
5245 -141 -273 0
-4999 -5245 0
-5246 169 0
-5246 301 0
5246 -169 -301 0
-4999 -5246 0
-5247 190 0
-5247 322 0
5247 -190 -322 0
-4999 -5247 0
-5248 330 0
-5248 347 0
5248 -330 -347 0
-4999 -5248 0
-5249 334 0
-5249 353 0
5249 -334 -353 0
-4999 -5249 0
-5250 339 0
-5250 238 0
5250 -339 -238 0
-4999 -5250 0
-5251 341 0
-5251 240 0
5251 -341 -240 0
-4999 -5251 0
-4999 337 0
-337 4999 5245 5246 5247 5248 5249 5250 5251 0
-5252 141 0
-5252 275 0
5252 -141 -275 0
-5000 -5252 0
-5253 169 0
-5253 303 0
5253 -169 -303 0
-5000 -5253 0
-5254 190 0
-5254 324 0
5254 -190 -324 0
-5000 -5254 0
-5255 330 0
-5255 349 0
5255 -330 -349 0
-5000 -5255 0
-5256 334 0
-5256 355 0
5256 -334 -355 0
-5000 -5256 0
-5257 337 0
-5257 358 0
5257 -337 -358 0
-5000 -5257 0
-5258 341 0
-5258 241 0
5258 -341 -241 0
-5000 -5258 0
-5000 339 0
-339 5000 5252 5253 5254 5255 5256 5257 5258 0
-5259 141 0
-5259 277 0
5259 -141 -277 0
-5001 -5259 0
-5260 169 0
-5260 305 0
5260 -169 -305 0
-5001 -5260 0
-5261 190 0
-5261 326 0
5261 -190 -326 0
-5001 -5261 0
-5262 330 0
-5262 351 0
5262 -330 -351 0
-5001 -5262 0
-5263 334 0
-5263 357 0
5263 -334 -357 0
-5001 -5263 0
-5264 337 0
-5264 360 0
5264 -337 -360 0
-5001 -5264 0
-5265 339 0
-5265 361 0
5265 -339 -361 0
-5001 -5265 0
-5001 341 0
-341 5001 5259 5260 5261 5262 5263 5264 5265 0
-5266 174 0
-5266 128 0
5266 -174 -128 0
-5002 -5266 0
-5267 195 0
-5267 135 0
5267 -195 -135 0
-5002 -5267 0
-5268 210 0
-5268 141 0
5268 -210 -141 0
-5002 -5268 0
-5269 344 0
-5269 150 0
5269 -344 -150 0
-5002 -5269 0
-5270 347 0
-5270 153 0
5270 -347 -153 0
-5002 -5270 0
-5271 349 0
-5271 155 0
5271 -349 -155 0
-5002 -5271 0
-5272 351 0
-5272 157 0
5272 -351 -157 0
-5002 -5272 0
-5002 146 0
-146 5002 5266 5267 5268 5269 5270 5271 5272 0
-5273 146 0
-5273 248 0
5273 -146 -248 0
-5003 -5273 0
-5274 195 0
-5274 163 0
5274 -195 -163 0
-5003 -5274 0
-5275 210 0
-5275 169 0
5275 -210 -169 0
-5003 -5275 0
-5276 344 0
-5276 178 0
5276 -344 -178 0
-5003 -5276 0
-5277 347 0
-5277 181 0
5277 -347 -181 0
-5003 -5277 0
-5278 349 0
-5278 183 0
5278 -349 -183 0
-5003 -5278 0
-5279 351 0
-5279 185 0
5279 -351 -185 0
-5003 -5279 0
-5003 174 0
-174 5003 5273 5274 5275 5276 5277 5278 5279 0
-5280 146 0
-5280 255 0
5280 -146 -255 0
-5004 -5280 0
-5281 174 0
-5281 283 0
5281 -174 -283 0
-5004 -5281 0
-5282 210 0
-5282 190 0
5282 -210 -190 0
-5004 -5282 0
-5283 344 0
-5283 199 0
5283 -344 -199 0
-5004 -5283 0
-5284 347 0
-5284 202 0
5284 -347 -202 0
-5004 -5284 0
-5285 349 0
-5285 204 0
5285 -349 -204 0
-5004 -5285 0
-5286 351 0
-5286 206 0
5286 -351 -206 0
-5004 -5286 0
-5004 195 0
-195 5004 5280 5281 5282 5283 5284 5285 5286 0
-5287 146 0
-5287 261 0
5287 -146 -261 0
-5005 -5287 0
-5288 174 0
-5288 289 0
5288 -174 -289 0
-5005 -5288 0
-5289 195 0
-5289 310 0
5289 -195 -310 0
-5005 -5289 0
-5290 344 0
-5290 214 0
5290 -344 -214 0
-5005 -5290 0
-5291 347 0
-5291 217 0
5291 -347 -217 0
-5005 -5291 0
-5292 349 0
-5292 219 0
5292 -349 -219 0
-5005 -5292 0
-5293 351 0
-5293 221 0
5293 -351 -221 0
-5005 -5293 0
-5005 210 0
-210 5005 5287 5288 5289 5290 5291 5292 5293 0
-5294 146 0
-5294 270 0
5294 -146 -270 0
-5006 -5294 0
-5295 174 0
-5295 298 0
5295 -174 -298 0
-5006 -5295 0
-5296 195 0
-5296 319 0
5296 -195 -319 0
-5006 -5296 0
-5297 210 0
-5297 334 0
5297 -210 -334 0
-5006 -5297 0
-5298 347 0
-5298 233 0
5298 -347 -233 0
-5006 -5298 0
-5299 349 0
-5299 235 0
5299 -349 -235 0
-5006 -5299 0
-5300 351 0
-5300 237 0
5300 -351 -237 0
-5006 -5300 0
-5006 344 0
-344 5006 5294 5295 5296 5297 5298 5299 5300 0
-5301 146 0
-5301 273 0
5301 -146 -273 0
-5007 -5301 0
-5302 174 0
-5302 301 0
5302 -174 -301 0
-5007 -5302 0
-5303 195 0
-5303 322 0
5303 -195 -322 0
-5007 -5303 0
-5304 210 0
-5304 337 0
5304 -210 -337 0
-5007 -5304 0
-5305 344 0
-5305 353 0
5305 -344 -353 0
-5007 -5305 0
-5306 349 0
-5306 238 0
5306 -349 -238 0
-5007 -5306 0
-5307 351 0
-5307 240 0
5307 -351 -240 0
-5007 -5307 0
-5007 347 0
-347 5007 5301 5302 5303 5304 5305 5306 5307 0
-5308 146 0
-5308 275 0
5308 -146 -275 0
-5008 -5308 0
-5309 174 0
-5309 303 0
5309 -174 -303 0
-5008 -5309 0
-5310 195 0
-5310 324 0
5310 -195 -324 0
-5008 -5310 0
-5311 210 0
-5311 339 0
5311 -210 -339 0
-5008 -5311 0
-5312 344 0
-5312 355 0
5312 -344 -355 0
-5008 -5312 0
-5313 347 0
-5313 358 0
5313 -347 -358 0
-5008 -5313 0
-5314 351 0
-5314 241 0
5314 -351 -241 0
-5008 -5314 0
-5008 349 0
-349 5008 5308 5309 5310 5311 5312 5313 5314 0
-5315 146 0
-5315 277 0
5315 -146 -277 0
-5009 -5315 0
-5316 174 0
-5316 305 0
5316 -174 -305 0
-5009 -5316 0
-5317 195 0
-5317 326 0
5317 -195 -326 0
-5009 -5317 0
-5318 210 0
-5318 341 0
5318 -210 -341 0
-5009 -5318 0
-5319 344 0
-5319 357 0
5319 -344 -357 0
-5009 -5319 0
-5320 347 0
-5320 360 0
5320 -347 -360 0
-5009 -5320 0
-5321 349 0
-5321 361 0
5321 -349 -361 0
-5009 -5321 0
-5009 351 0
-351 5009 5315 5316 5317 5318 5319 5320 5321 0
-5322 178 0
-5322 128 0
5322 -178 -128 0
-5010 -5322 0
-5323 199 0
-5323 135 0
5323 -199 -135 0
-5010 -5323 0
-5324 214 0
-5324 141 0
5324 -214 -141 0
-5010 -5324 0
-5325 224 0
-5325 146 0
5325 -224 -146 0
-5010 -5325 0
-5326 353 0
-5326 153 0
5326 -353 -153 0
-5010 -5326 0
-5327 355 0
-5327 155 0
5327 -355 -155 0
-5010 -5327 0
-5328 357 0
-5328 157 0
5328 -357 -157 0
-5010 -5328 0
-5010 150 0
-150 5010 5322 5323 5324 5325 5326 5327 5328 0
-5329 150 0
-5329 248 0
5329 -150 -248 0
-5011 -5329 0
-5330 199 0
-5330 163 0
5330 -199 -163 0
-5011 -5330 0
-5331 214 0
-5331 169 0
5331 -214 -169 0
-5011 -5331 0
-5332 224 0
-5332 174 0
5332 -224 -174 0
-5011 -5332 0
-5333 353 0
-5333 181 0
5333 -353 -181 0
-5011 -5333 0
-5334 355 0
-5334 183 0
5334 -355 -183 0
-5011 -5334 0
-5335 357 0
-5335 185 0
5335 -357 -185 0
-5011 -5335 0
-5011 178 0
-178 5011 5329 5330 5331 5332 5333 5334 5335 0
-5336 150 0
-5336 255 0
5336 -150 -255 0
-5012 -5336 0
-5337 178 0
-5337 283 0
5337 -178 -283 0
-5012 -5337 0
-5338 214 0
-5338 190 0
5338 -214 -190 0
-5012 -5338 0
-5339 224 0
-5339 195 0
5339 -224 -195 0
-5012 -5339 0
-5340 353 0
-5340 202 0
5340 -353 -202 0
-5012 -5340 0
-5341 355 0
-5341 204 0
5341 -355 -204 0
-5012 -5341 0
-5342 357 0
-5342 206 0
5342 -357 -206 0
-5012 -5342 0
-5012 199 0
-199 5012 5336 5337 5338 5339 5340 5341 5342 0
-5343 150 0
-5343 261 0
5343 -150 -261 0
-5013 -5343 0
-5344 178 0
-5344 289 0
5344 -178 -289 0
-5013 -5344 0
-5345 199 0
-5345 310 0
5345 -199 -310 0
-5013 -5345 0
-5346 224 0
-5346 210 0
5346 -224 -210 0
-5013 -5346 0
-5347 353 0
-5347 217 0
5347 -353 -217 0
-5013 -5347 0
-5348 355 0
-5348 219 0
5348 -355 -219 0
-5013 -5348 0
-5349 357 0
-5349 221 0
5349 -357 -221 0
-5013 -5349 0
-5013 214 0
-214 5013 5343 5344 5345 5346 5347 5348 5349 0
-5350 150 0
-5350 266 0
5350 -150 -266 0
-5014 -5350 0
-5351 178 0
-5351 294 0
5351 -178 -294 0
-5014 -5351 0
-5352 199 0
-5352 315 0
5352 -199 -315 0
-5014 -5352 0
-5353 214 0
-5353 330 0
5353 -214 -330 0
-5014 -5353 0
-5354 353 0
-5354 227 0
5354 -353 -227 0
-5014 -5354 0
-5355 355 0
-5355 229 0
5355 -355 -229 0
-5014 -5355 0
-5356 357 0
-5356 231 0
5356 -357 -231 0
-5014 -5356 0
-5014 224 0
-224 5014 5350 5351 5352 5353 5354 5355 5356 0
-5357 150 0
-5357 273 0
5357 -150 -273 0
-5015 -5357 0
-5358 178 0
-5358 301 0
5358 -178 -301 0
-5015 -5358 0
-5359 199 0
-5359 322 0
5359 -199 -322 0
-5015 -5359 0
-5360 214 0
-5360 337 0
5360 -214 -337 0
-5015 -5360 0
-5361 224 0
-5361 347 0
5361 -224 -347 0
-5015 -5361 0
-5362 355 0
-5362 238 0
5362 -355 -238 0
-5015 -5362 0
-5363 357 0
-5363 240 0
5363 -357 -240 0
-5015 -5363 0
-5015 353 0
-353 5015 5357 5358 5359 5360 5361 5362 5363 0
-5364 150 0
-5364 275 0
5364 -150 -275 0
-5016 -5364 0
-5365 178 0
-5365 303 0
5365 -178 -303 0
-5016 -5365 0
-5366 199 0
-5366 324 0
5366 -199 -324 0
-5016 -5366 0
-5367 214 0
-5367 339 0
5367 -214 -339 0
-5016 -5367 0
-5368 224 0
-5368 349 0
5368 -224 -349 0
-5016 -5368 0
-5369 353 0
-5369 358 0
5369 -353 -358 0
-5016 -5369 0
-5370 357 0
-5370 241 0
5370 -357 -241 0
-5016 -5370 0
-5016 355 0
-355 5016 5364 5365 5366 5367 5368 5369 5370 0
-5371 150 0
-5371 277 0
5371 -150 -277 0
-5017 -5371 0
-5372 178 0
-5372 305 0
5372 -178 -305 0
-5017 -5372 0
-5373 199 0
-5373 326 0
5373 -199 -326 0
-5017 -5373 0
-5374 214 0
-5374 341 0
5374 -214 -341 0
-5017 -5374 0
-5375 224 0
-5375 351 0
5375 -224 -351 0
-5017 -5375 0
-5376 353 0
-5376 360 0
5376 -353 -360 0
-5017 -5376 0
-5377 355 0
-5377 361 0
5377 -355 -361 0
-5017 -5377 0
-5017 357 0
-357 5017 5371 5372 5373 5374 5375 5376 5377 0
-5378 181 0
-5378 128 0
5378 -181 -128 0
-5018 -5378 0
-5379 202 0
-5379 135 0
5379 -202 -135 0
-5018 -5379 0
-5380 217 0
-5380 141 0
5380 -217 -141 0
-5018 -5380 0
-5381 227 0
-5381 146 0
5381 -227 -146 0
-5018 -5381 0
-5382 233 0
-5382 150 0
5382 -233 -150 0
-5018 -5382 0
-5383 358 0
-5383 155 0
5383 -358 -155 0
-5018 -5383 0
-5384 360 0
-5384 157 0
5384 -360 -157 0
-5018 -5384 0
-5018 153 0
-153 5018 5378 5379 5380 5381 5382 5383 5384 0
-5385 153 0
-5385 248 0
5385 -153 -248 0
-5019 -5385 0
-5386 202 0
-5386 163 0
5386 -202 -163 0
-5019 -5386 0
-5387 217 0
-5387 169 0
5387 -217 -169 0
-5019 -5387 0
-5388 227 0
-5388 174 0
5388 -227 -174 0
-5019 -5388 0
-5389 233 0
-5389 178 0
5389 -233 -178 0
-5019 -5389 0
-5390 358 0
-5390 183 0
5390 -358 -183 0
-5019 -5390 0
-5391 360 0
-5391 185 0
5391 -360 -185 0
-5019 -5391 0
-5019 181 0
-181 5019 5385 5386 5387 5388 5389 5390 5391 0
-5392 153 0
-5392 255 0
5392 -153 -255 0
-5020 -5392 0
-5393 181 0
-5393 283 0
5393 -181 -283 0
-5020 -5393 0
-5394 217 0
-5394 190 0
5394 -217 -190 0
-5020 -5394 0
-5395 227 0
-5395 195 0
5395 -227 -195 0
-5020 -5395 0
-5396 233 0
-5396 199 0
5396 -233 -199 0
-5020 -5396 0
-5397 358 0
-5397 204 0
5397 -358 -204 0
-5020 -5397 0
-5398 360 0
-5398 206 0
5398 -360 -206 0
-5020 -5398 0
-5020 202 0
-202 5020 5392 5393 5394 5395 5396 5397 5398 0
-5399 153 0
-5399 261 0
5399 -153 -261 0
-5021 -5399 0
-5400 181 0
-5400 289 0
5400 -181 -289 0
-5021 -5400 0
-5401 202 0
-5401 310 0
5401 -202 -310 0
-5021 -5401 0
-5402 227 0
-5402 210 0
5402 -227 -210 0
-5021 -5402 0
-5403 233 0
-5403 214 0
5403 -233 -214 0
-5021 -5403 0
-5404 358 0
-5404 219 0
5404 -358 -219 0
-5021 -5404 0
-5405 360 0
-5405 221 0
5405 -360 -221 0
-5021 -5405 0
-5021 217 0
-217 5021 5399 5400 5401 5402 5403 5404 5405 0
-5406 153 0
-5406 266 0
5406 -153 -266 0
-5022 -5406 0
-5407 181 0
-5407 294 0
5407 -181 -294 0
-5022 -5407 0
-5408 202 0
-5408 315 0
5408 -202 -315 0
-5022 -5408 0
-5409 217 0
-5409 330 0
5409 -217 -330 0
-5022 -5409 0
-5410 233 0
-5410 224 0
5410 -233 -224 0
-5022 -5410 0
-5411 358 0
-5411 229 0
5411 -358 -229 0
-5022 -5411 0
-5412 360 0
-5412 231 0
5412 -360 -231 0
-5022 -5412 0
-5022 227 0
-227 5022 5406 5407 5408 5409 5410 5411 5412 0
-5413 153 0
-5413 270 0
5413 -153 -270 0
-5023 -5413 0
-5414 181 0
-5414 298 0
5414 -181 -298 0
-5023 -5414 0
-5415 202 0
-5415 319 0
5415 -202 -319 0
-5023 -5415 0
-5416 217 0
-5416 334 0
5416 -217 -334 0
-5023 -5416 0
-5417 227 0
-5417 344 0
5417 -227 -344 0
-5023 -5417 0
-5418 358 0
-5418 235 0
5418 -358 -235 0
-5023 -5418 0
-5419 360 0
-5419 237 0
5419 -360 -237 0
-5023 -5419 0
-5023 233 0
-233 5023 5413 5414 5415 5416 5417 5418 5419 0
-5420 153 0
-5420 275 0
5420 -153 -275 0
-5024 -5420 0
-5421 181 0
-5421 303 0
5421 -181 -303 0
-5024 -5421 0
-5422 202 0
-5422 324 0
5422 -202 -324 0
-5024 -5422 0
-5423 217 0
-5423 339 0
5423 -217 -339 0
-5024 -5423 0
-5424 227 0
-5424 349 0
5424 -227 -349 0
-5024 -5424 0
-5425 233 0
-5425 355 0
5425 -233 -355 0
-5024 -5425 0
-5426 360 0
-5426 241 0
5426 -360 -241 0
-5024 -5426 0
-5024 358 0
-358 5024 5420 5421 5422 5423 5424 5425 5426 0
-5427 153 0
-5427 277 0
5427 -153 -277 0
-5025 -5427 0
-5428 181 0
-5428 305 0
5428 -181 -305 0
-5025 -5428 0
-5429 202 0
-5429 326 0
5429 -202 -326 0
-5025 -5429 0
-5430 217 0
-5430 341 0
5430 -217 -341 0
-5025 -5430 0
-5431 227 0
-5431 351 0
5431 -227 -351 0
-5025 -5431 0
-5432 233 0
-5432 357 0
5432 -233 -357 0
-5025 -5432 0
-5433 358 0
-5433 361 0
5433 -358 -361 0
-5025 -5433 0
-5025 360 0
-360 5025 5427 5428 5429 5430 5431 5432 5433 0
-5434 183 0
-5434 128 0
5434 -183 -128 0
-5026 -5434 0
-5435 204 0
-5435 135 0
5435 -204 -135 0
-5026 -5435 0
-5436 219 0
-5436 141 0
5436 -219 -141 0
-5026 -5436 0
-5437 229 0
-5437 146 0
5437 -229 -146 0
-5026 -5437 0
-5438 235 0
-5438 150 0
5438 -235 -150 0
-5026 -5438 0
-5439 238 0
-5439 153 0
5439 -238 -153 0
-5026 -5439 0
-5440 361 0
-5440 157 0
5440 -361 -157 0
-5026 -5440 0
-5026 155 0
-155 5026 5434 5435 5436 5437 5438 5439 5440 0
-5441 155 0
-5441 248 0
5441 -155 -248 0
-5027 -5441 0
-5442 204 0
-5442 163 0
5442 -204 -163 0
-5027 -5442 0
-5443 219 0
-5443 169 0
5443 -219 -169 0
-5027 -5443 0
-5444 229 0
-5444 174 0
5444 -229 -174 0
-5027 -5444 0
-5445 235 0
-5445 178 0
5445 -235 -178 0
-5027 -5445 0
-5446 238 0
-5446 181 0
5446 -238 -181 0
-5027 -5446 0
-5447 361 0
-5447 185 0
5447 -361 -185 0
-5027 -5447 0
-5027 183 0
-183 5027 5441 5442 5443 5444 5445 5446 5447 0
-5448 155 0
-5448 255 0
5448 -155 -255 0
-5028 -5448 0
-5449 183 0
-5449 283 0
5449 -183 -283 0
-5028 -5449 0
-5450 219 0
-5450 190 0
5450 -219 -190 0
-5028 -5450 0
-5451 229 0
-5451 195 0
5451 -229 -195 0
-5028 -5451 0
-5452 235 0
-5452 199 0
5452 -235 -199 0
-5028 -5452 0
-5453 238 0
-5453 202 0
5453 -238 -202 0
-5028 -5453 0
-5454 361 0
-5454 206 0
5454 -361 -206 0
-5028 -5454 0
-5028 204 0
-204 5028 5448 5449 5450 5451 5452 5453 5454 0
-5455 155 0
-5455 261 0
5455 -155 -261 0
-5029 -5455 0
-5456 183 0
-5456 289 0
5456 -183 -289 0
-5029 -5456 0
-5457 204 0
-5457 310 0
5457 -204 -310 0
-5029 -5457 0
-5458 229 0
-5458 210 0
5458 -229 -210 0
-5029 -5458 0
-5459 235 0
-5459 214 0
5459 -235 -214 0
-5029 -5459 0
-5460 238 0
-5460 217 0
5460 -238 -217 0
-5029 -5460 0
-5461 361 0
-5461 221 0
5461 -361 -221 0
-5029 -5461 0
-5029 219 0
-219 5029 5455 5456 5457 5458 5459 5460 5461 0
-5462 155 0
-5462 266 0
5462 -155 -266 0
-5030 -5462 0
-5463 183 0
-5463 294 0
5463 -183 -294 0
-5030 -5463 0
-5464 204 0
-5464 315 0
5464 -204 -315 0
-5030 -5464 0
-5465 219 0
-5465 330 0
5465 -219 -330 0
-5030 -5465 0
-5466 235 0
-5466 224 0
5466 -235 -224 0
-5030 -5466 0
-5467 238 0
-5467 227 0
5467 -238 -227 0
-5030 -5467 0
-5468 361 0
-5468 231 0
5468 -361 -231 0
-5030 -5468 0
-5030 229 0
-229 5030 5462 5463 5464 5465 5466 5467 5468 0
-5469 155 0
-5469 270 0
5469 -155 -270 0
-5031 -5469 0
-5470 183 0
-5470 298 0
5470 -183 -298 0
-5031 -5470 0
-5471 204 0
-5471 319 0
5471 -204 -319 0
-5031 -5471 0
-5472 219 0
-5472 334 0
5472 -219 -334 0
-5031 -5472 0
-5473 229 0
-5473 344 0
5473 -229 -344 0
-5031 -5473 0
-5474 238 0
-5474 233 0
5474 -238 -233 0
-5031 -5474 0
-5475 361 0
-5475 237 0
5475 -361 -237 0
-5031 -5475 0
-5031 235 0
-235 5031 5469 5470 5471 5472 5473 5474 5475 0
-5476 155 0
-5476 273 0
5476 -155 -273 0
-5032 -5476 0
-5477 183 0
-5477 301 0
5477 -183 -301 0
-5032 -5477 0
-5478 204 0
-5478 322 0
5478 -204 -322 0
-5032 -5478 0
-5479 219 0
-5479 337 0
5479 -219 -337 0
-5032 -5479 0
-5480 229 0
-5480 347 0
5480 -229 -347 0
-5032 -5480 0
-5481 235 0
-5481 353 0
5481 -235 -353 0
-5032 -5481 0
-5482 361 0
-5482 240 0
5482 -361 -240 0
-5032 -5482 0
-5032 238 0
-238 5032 5476 5477 5478 5479 5480 5481 5482 0
-5483 155 0
-5483 277 0
5483 -155 -277 0
-5033 -5483 0
-5484 183 0
-5484 305 0
5484 -183 -305 0
-5033 -5484 0
-5485 204 0
-5485 326 0
5485 -204 -326 0
-5033 -5485 0
-5486 219 0
-5486 341 0
5486 -219 -341 0
-5033 -5486 0
-5487 229 0
-5487 351 0
5487 -229 -351 0
-5033 -5487 0
-5488 235 0
-5488 357 0
5488 -235 -357 0
-5033 -5488 0
-5489 238 0
-5489 360 0
5489 -238 -360 0
-5033 -5489 0
-5033 361 0
-361 5033 5483 5484 5485 5486 5487 5488 5489 0
-5490 185 0
-5490 128 0
5490 -185 -128 0
-5034 -5490 0
-5491 206 0
-5491 135 0
5491 -206 -135 0
-5034 -5491 0
-5492 221 0
-5492 141 0
5492 -221 -141 0
-5034 -5492 0
-5493 231 0
-5493 146 0
5493 -231 -146 0
-5034 -5493 0
-5494 237 0
-5494 150 0
5494 -237 -150 0
-5034 -5494 0
-5495 240 0
-5495 153 0
5495 -240 -153 0
-5034 -5495 0
-5496 241 0
-5496 155 0
5496 -241 -155 0
-5034 -5496 0
-5034 157 0
-157 5034 5490 5491 5492 5493 5494 5495 5496 0
-5497 157 0
-5497 248 0
5497 -157 -248 0
-5035 -5497 0
-5498 206 0
-5498 163 0
5498 -206 -163 0
-5035 -5498 0
-5499 221 0
-5499 169 0
5499 -221 -169 0
-5035 -5499 0
-5500 231 0
-5500 174 0
5500 -231 -174 0
-5035 -5500 0
-5501 237 0
-5501 178 0
5501 -237 -178 0
-5035 -5501 0
-5502 240 0
-5502 181 0
5502 -240 -181 0
-5035 -5502 0
-5503 241 0
-5503 183 0
5503 -241 -183 0
-5035 -5503 0
-5035 185 0
-185 5035 5497 5498 5499 5500 5501 5502 5503 0
-5504 157 0
-5504 255 0
5504 -157 -255 0
-5036 -5504 0
-5505 185 0
-5505 283 0
5505 -185 -283 0
-5036 -5505 0
-5506 221 0
-5506 190 0
5506 -221 -190 0
-5036 -5506 0
-5507 231 0
-5507 195 0
5507 -231 -195 0
-5036 -5507 0
-5508 237 0
-5508 199 0
5508 -237 -199 0
-5036 -5508 0
-5509 240 0
-5509 202 0
5509 -240 -202 0
-5036 -5509 0
-5510 241 0
-5510 204 0
5510 -241 -204 0
-5036 -5510 0
-5036 206 0
-206 5036 5504 5505 5506 5507 5508 5509 5510 0
-5511 157 0
-5511 261 0
5511 -157 -261 0
-5037 -5511 0
-5512 185 0
-5512 289 0
5512 -185 -289 0
-5037 -5512 0
-5513 206 0
-5513 310 0
5513 -206 -310 0
-5037 -5513 0
-5514 231 0
-5514 210 0
5514 -231 -210 0
-5037 -5514 0
-5515 237 0
-5515 214 0
5515 -237 -214 0
-5037 -5515 0
-5516 240 0
-5516 217 0
5516 -240 -217 0
-5037 -5516 0
-5517 241 0
-5517 219 0
5517 -241 -219 0
-5037 -5517 0
-5037 221 0
-221 5037 5511 5512 5513 5514 5515 5516 5517 0
-5518 157 0
-5518 266 0
5518 -157 -266 0
-5038 -5518 0
-5519 185 0
-5519 294 0
5519 -185 -294 0
-5038 -5519 0
-5520 206 0
-5520 315 0
5520 -206 -315 0
-5038 -5520 0
-5521 221 0
-5521 330 0
5521 -221 -330 0
-5038 -5521 0
-5522 237 0
-5522 224 0
5522 -237 -224 0
-5038 -5522 0
-5523 240 0
-5523 227 0
5523 -240 -227 0
-5038 -5523 0
-5524 241 0
-5524 229 0
5524 -241 -229 0
-5038 -5524 0
-5038 231 0
-231 5038 5518 5519 5520 5521 5522 5523 5524 0
-5525 157 0
-5525 270 0
5525 -157 -270 0
-5039 -5525 0
-5526 185 0
-5526 298 0
5526 -185 -298 0
-5039 -5526 0
-5527 206 0
-5527 319 0
5527 -206 -319 0
-5039 -5527 0
-5528 221 0
-5528 334 0
5528 -221 -334 0
-5039 -5528 0
-5529 231 0
-5529 344 0
5529 -231 -344 0
-5039 -5529 0
-5530 240 0
-5530 233 0
5530 -240 -233 0
-5039 -5530 0
-5531 241 0
-5531 235 0
5531 -241 -235 0
-5039 -5531 0
-5039 237 0
-237 5039 5525 5526 5527 5528 5529 5530 5531 0
-5532 157 0
-5532 273 0
5532 -157 -273 0
-5040 -5532 0
-5533 185 0
-5533 301 0
5533 -185 -301 0
-5040 -5533 0
-5534 206 0
-5534 322 0
5534 -206 -322 0
-5040 -5534 0
-5535 221 0
-5535 337 0
5535 -221 -337 0
-5040 -5535 0
-5536 231 0
-5536 347 0
5536 -231 -347 0
-5040 -5536 0
-5537 237 0
-5537 353 0
5537 -237 -353 0
-5040 -5537 0
-5538 241 0
-5538 238 0
5538 -241 -238 0
-5040 -5538 0
-5040 240 0
-240 5040 5532 5533 5534 5535 5536 5537 5538 0
-5539 157 0
-5539 275 0
5539 -157 -275 0
-5041 -5539 0
-5540 185 0
-5540 303 0
5540 -185 -303 0
-5041 -5540 0
-5541 206 0
-5541 324 0
5541 -206 -324 0
-5041 -5541 0
-5542 221 0
-5542 339 0
5542 -221 -339 0
-5041 -5542 0
-5543 231 0
-5543 349 0
5543 -231 -349 0
-5041 -5543 0
-5544 237 0
-5544 355 0
5544 -237 -355 0
-5041 -5544 0
-5545 240 0
-5545 358 0
5545 -240 -358 0
-5041 -5545 0
-5041 241 0
-241 5041 5539 5540 5541 5542 5543 5544 5545 0
-5618 256 0
-5618 164 0
5618 -256 -164 0
-5546 -5618 0
-5619 262 0
-5619 170 0
5619 -262 -170 0
-5546 -5619 0
-5620 267 0
-5620 175 0
5620 -267 -175 0
-5546 -5620 0
-5621 271 0
-5621 179 0
5621 -271 -179 0
-5546 -5621 0
-5622 274 0
-5622 182 0
5622 -274 -182 0
-5546 -5622 0
-5623 276 0
-5623 184 0
5623 -276 -184 0
-5546 -5623 0
-5624 277 0
-5624 185 0
5624 -277 -185 0
-5546 -5624 0
-5546 249 0
-249 5546 5618 5619 5620 5621 5622 5623 5624 0
-5625 249 0
-5625 284 0
5625 -249 -284 0
-5547 -5625 0
-5626 262 0
-5626 191 0
5626 -262 -191 0
-5547 -5626 0
-5627 267 0
-5627 196 0
5627 -267 -196 0
-5547 -5627 0
-5628 271 0
-5628 200 0
5628 -271 -200 0
-5547 -5628 0
-5629 274 0
-5629 203 0
5629 -274 -203 0
-5547 -5629 0
-5630 276 0
-5630 205 0
5630 -276 -205 0
-5547 -5630 0
-5631 277 0
-5631 206 0
5631 -277 -206 0
-5547 -5631 0
-5547 256 0
-256 5547 5625 5626 5627 5628 5629 5630 5631 0
-5632 249 0
-5632 290 0
5632 -249 -290 0
-5548 -5632 0
-5633 256 0
-5633 311 0
5633 -256 -311 0
-5548 -5633 0
-5634 267 0
-5634 211 0
5634 -267 -211 0
-5548 -5634 0
-5635 271 0
-5635 215 0
5635 -271 -215 0
-5548 -5635 0
-5636 274 0
-5636 218 0
5636 -274 -218 0
-5548 -5636 0
-5637 276 0
-5637 220 0
5637 -276 -220 0
-5548 -5637 0
-5638 277 0
-5638 221 0
5638 -277 -221 0
-5548 -5638 0
-5548 262 0
-262 5548 5632 5633 5634 5635 5636 5637 5638 0
-5639 249 0
-5639 295 0
5639 -249 -295 0
-5549 -5639 0
-5640 256 0
-5640 316 0
5640 -256 -316 0
-5549 -5640 0
-5641 262 0
-5641 331 0
5641 -262 -331 0
-5549 -5641 0
-5642 271 0
-5642 225 0
5642 -271 -225 0
-5549 -5642 0
-5643 274 0
-5643 228 0
5643 -274 -228 0
-5549 -5643 0
-5644 276 0
-5644 230 0
5644 -276 -230 0
-5549 -5644 0
-5645 277 0
-5645 231 0
5645 -277 -231 0
-5549 -5645 0
-5549 267 0
-267 5549 5639 5640 5641 5642 5643 5644 5645 0
-5646 249 0
-5646 299 0
5646 -249 -299 0
-5550 -5646 0
-5647 256 0
-5647 320 0
5647 -256 -320 0
-5550 -5647 0
-5648 262 0
-5648 335 0
5648 -262 -335 0
-5550 -5648 0
-5649 267 0
-5649 345 0
5649 -267 -345 0
-5550 -5649 0
-5650 274 0
-5650 234 0
5650 -274 -234 0
-5550 -5650 0
-5651 276 0
-5651 236 0
5651 -276 -236 0
-5550 -5651 0
-5652 277 0
-5652 237 0
5652 -277 -237 0
-5550 -5652 0
-5550 271 0
-271 5550 5646 5647 5648 5649 5650 5651 5652 0
-5653 249 0
-5653 302 0
5653 -249 -302 0
-5551 -5653 0
-5654 256 0
-5654 323 0
5654 -256 -323 0
-5551 -5654 0
-5655 262 0
-5655 338 0
5655 -262 -338 0
-5551 -5655 0
-5656 267 0
-5656 348 0
5656 -267 -348 0
-5551 -5656 0
-5657 271 0
-5657 354 0
5657 -271 -354 0
-5551 -5657 0
-5658 276 0
-5658 239 0
5658 -276 -239 0
-5551 -5658 0
-5659 277 0
-5659 240 0
5659 -277 -240 0
-5551 -5659 0
-5551 274 0
-274 5551 5653 5654 5655 5656 5657 5658 5659 0
-5660 249 0
-5660 304 0
5660 -249 -304 0
-5552 -5660 0
-5661 256 0
-5661 325 0
5661 -256 -325 0
-5552 -5661 0
-5662 262 0
-5662 340 0
5662 -262 -340 0
-5552 -5662 0
-5663 267 0
-5663 350 0
5663 -267 -350 0
-5552 -5663 0
-5664 271 0
-5664 356 0
5664 -271 -356 0
-5552 -5664 0
-5665 274 0
-5665 359 0
5665 -274 -359 0
-5552 -5665 0
-5666 277 0
-5666 241 0
5666 -277 -241 0
-5552 -5666 0
-5552 276 0
-276 5552 5660 5661 5662 5663 5664 5665 5666 0
-5667 249 0
-5667 305 0
5667 -249 -305 0
-5553 -5667 0
-5668 256 0
-5668 326 0
5668 -256 -326 0
-5553 -5668 0
-5669 262 0
-5669 341 0
5669 -262 -341 0
-5553 -5669 0
-5670 267 0
-5670 351 0
5670 -267 -351 0
-5553 -5670 0
-5671 271 0
-5671 357 0
5671 -271 -357 0
-5553 -5671 0
-5672 274 0
-5672 360 0
5672 -274 -360 0
-5553 -5672 0
-5673 276 0
-5673 361 0
5673 -276 -361 0
-5553 -5673 0
-5553 277 0
-277 5553 5667 5668 5669 5670 5671 5672 5673 0
-5674 284 0
-5674 136 0
5674 -284 -136 0
-5554 -5674 0
-5675 290 0
-5675 142 0
5675 -290 -142 0
-5554 -5675 0
-5676 295 0
-5676 147 0
5676 -295 -147 0
-5554 -5676 0
-5677 299 0
-5677 151 0
5677 -299 -151 0
-5554 -5677 0
-5678 302 0
-5678 154 0
5678 -302 -154 0
-5554 -5678 0
-5679 304 0
-5679 156 0
5679 -304 -156 0
-5554 -5679 0
-5680 305 0
-5680 157 0
5680 -305 -157 0
-5554 -5680 0
-5554 129 0
-129 5554 5674 5675 5676 5677 5678 5679 5680 0
-5681 129 0
-5681 256 0
5681 -129 -256 0
-5555 -5681 0
-5682 290 0
-5682 191 0
5682 -290 -191 0
-5555 -5682 0
-5683 295 0
-5683 196 0
5683 -295 -196 0
-5555 -5683 0
-5684 299 0
-5684 200 0
5684 -299 -200 0
-5555 -5684 0
-5685 302 0
-5685 203 0
5685 -302 -203 0
-5555 -5685 0
-5686 304 0
-5686 205 0
5686 -304 -205 0
-5555 -5686 0
-5687 305 0
-5687 206 0
5687 -305 -206 0
-5555 -5687 0
-5555 284 0
-284 5555 5681 5682 5683 5684 5685 5686 5687 0
-5688 129 0
-5688 262 0
5688 -129 -262 0
-5556 -5688 0
-5689 284 0
-5689 311 0
5689 -284 -311 0
-5556 -5689 0
-5690 295 0
-5690 211 0
5690 -295 -211 0
-5556 -5690 0
-5691 299 0
-5691 215 0
5691 -299 -215 0
-5556 -5691 0
-5692 302 0
-5692 218 0
5692 -302 -218 0
-5556 -5692 0
-5693 304 0
-5693 220 0
5693 -304 -220 0
-5556 -5693 0
-5694 305 0
-5694 221 0
5694 -305 -221 0
-5556 -5694 0
-5556 290 0
-290 5556 5688 5689 5690 5691 5692 5693 5694 0
-5695 129 0
-5695 267 0
5695 -129 -267 0
-5557 -5695 0
-5696 284 0
-5696 316 0
5696 -284 -316 0
-5557 -5696 0
-5697 290 0
-5697 331 0
5697 -290 -331 0
-5557 -5697 0
-5698 299 0
-5698 225 0
5698 -299 -225 0
-5557 -5698 0
-5699 302 0
-5699 228 0
5699 -302 -228 0
-5557 -5699 0
-5700 304 0
-5700 230 0
5700 -304 -230 0
-5557 -5700 0
-5701 305 0
-5701 231 0
5701 -305 -231 0
-5557 -5701 0
-5557 295 0
-295 5557 5695 5696 5697 5698 5699 5700 5701 0
-5702 129 0
-5702 271 0
5702 -129 -271 0
-5558 -5702 0
-5703 284 0
-5703 320 0
5703 -284 -320 0
-5558 -5703 0
-5704 290 0
-5704 335 0
5704 -290 -335 0
-5558 -5704 0
-5705 295 0
-5705 345 0
5705 -295 -345 0
-5558 -5705 0
-5706 302 0
-5706 234 0
5706 -302 -234 0
-5558 -5706 0
-5707 304 0
-5707 236 0
5707 -304 -236 0
-5558 -5707 0
-5708 305 0
-5708 237 0
5708 -305 -237 0
-5558 -5708 0
-5558 299 0
-299 5558 5702 5703 5704 5705 5706 5707 5708 0
-5709 129 0
-5709 274 0
5709 -129 -274 0
-5559 -5709 0
-5710 284 0
-5710 323 0
5710 -284 -323 0
-5559 -5710 0
-5711 290 0
-5711 338 0
5711 -290 -338 0
-5559 -5711 0
-5712 295 0
-5712 348 0
5712 -295 -348 0
-5559 -5712 0
-5713 299 0
-5713 354 0
5713 -299 -354 0
-5559 -5713 0
-5714 304 0
-5714 239 0
5714 -304 -239 0
-5559 -5714 0
-5715 305 0
-5715 240 0
5715 -305 -240 0
-5559 -5715 0
-5559 302 0
-302 5559 5709 5710 5711 5712 5713 5714 5715 0
-5716 129 0
-5716 276 0
5716 -129 -276 0
-5560 -5716 0
-5717 284 0
-5717 325 0
5717 -284 -325 0
-5560 -5717 0
-5718 290 0
-5718 340 0
5718 -290 -340 0
-5560 -5718 0
-5719 295 0
-5719 350 0
5719 -295 -350 0
-5560 -5719 0
-5720 299 0
-5720 356 0
5720 -299 -356 0
-5560 -5720 0
-5721 302 0
-5721 359 0
5721 -302 -359 0
-5560 -5721 0
-5722 305 0
-5722 241 0
5722 -305 -241 0
-5560 -5722 0
-5560 304 0
-304 5560 5716 5717 5718 5719 5720 5721 5722 0
-5723 129 0
-5723 277 0
5723 -129 -277 0
-5561 -5723 0
-5724 284 0
-5724 326 0
5724 -284 -326 0
-5561 -5724 0
-5725 290 0
-5725 341 0
5725 -290 -341 0
-5561 -5725 0
-5726 295 0
-5726 351 0
5726 -295 -351 0
-5561 -5726 0
-5727 299 0
-5727 357 0
5727 -299 -357 0
-5561 -5727 0
-5728 302 0
-5728 360 0
5728 -302 -360 0
-5561 -5728 0
-5729 304 0
-5729 361 0
5729 -304 -361 0
-5561 -5729 0
-5561 305 0
-305 5561 5723 5724 5725 5726 5727 5728 5729 0
-5730 164 0
-5730 129 0
5730 -164 -129 0
-5562 -5730 0
-5731 311 0
-5731 142 0
5731 -311 -142 0
-5562 -5731 0
-5732 316 0
-5732 147 0
5732 -316 -147 0
-5562 -5732 0
-5733 320 0
-5733 151 0
5733 -320 -151 0
-5562 -5733 0
-5734 323 0
-5734 154 0
5734 -323 -154 0
-5562 -5734 0
-5735 325 0
-5735 156 0
5735 -325 -156 0
-5562 -5735 0
-5736 326 0
-5736 157 0
5736 -326 -157 0
-5562 -5736 0
-5562 136 0
-136 5562 5730 5731 5732 5733 5734 5735 5736 0
-5737 136 0
-5737 249 0
5737 -136 -249 0
-5563 -5737 0
-5738 311 0
-5738 170 0
5738 -311 -170 0
-5563 -5738 0
-5739 316 0
-5739 175 0
5739 -316 -175 0
-5563 -5739 0
-5740 320 0
-5740 179 0
5740 -320 -179 0
-5563 -5740 0
-5741 323 0
-5741 182 0
5741 -323 -182 0
-5563 -5741 0
-5742 325 0
-5742 184 0
5742 -325 -184 0
-5563 -5742 0
-5743 326 0
-5743 185 0
5743 -326 -185 0
-5563 -5743 0
-5563 164 0
-164 5563 5737 5738 5739 5740 5741 5742 5743 0
-5744 136 0
-5744 262 0
5744 -136 -262 0
-5564 -5744 0
-5745 164 0
-5745 290 0
5745 -164 -290 0
-5564 -5745 0
-5746 316 0
-5746 211 0
5746 -316 -211 0
-5564 -5746 0
-5747 320 0
-5747 215 0
5747 -320 -215 0
-5564 -5747 0
-5748 323 0
-5748 218 0
5748 -323 -218 0
-5564 -5748 0
-5749 325 0
-5749 220 0
5749 -325 -220 0
-5564 -5749 0
-5750 326 0
-5750 221 0
5750 -326 -221 0
-5564 -5750 0
-5564 311 0
-311 5564 5744 5745 5746 5747 5748 5749 5750 0
-5751 136 0
-5751 267 0
5751 -136 -267 0
-5565 -5751 0
-5752 164 0
-5752 295 0
5752 -164 -295 0
-5565 -5752 0
-5753 311 0
-5753 331 0
5753 -311 -331 0
-5565 -5753 0
-5754 320 0
-5754 225 0
5754 -320 -225 0
-5565 -5754 0
-5755 323 0
-5755 228 0
5755 -323 -228 0
-5565 -5755 0
-5756 325 0
-5756 230 0
5756 -325 -230 0
-5565 -5756 0
-5757 326 0
-5757 231 0
5757 -326 -231 0
-5565 -5757 0
-5565 316 0
-316 5565 5751 5752 5753 5754 5755 5756 5757 0
-5758 136 0
-5758 271 0
5758 -136 -271 0
-5566 -5758 0
-5759 164 0
-5759 299 0
5759 -164 -299 0
-5566 -5759 0
-5760 311 0
-5760 335 0
5760 -311 -335 0
-5566 -5760 0
-5761 316 0
-5761 345 0
5761 -316 -345 0
-5566 -5761 0
-5762 323 0
-5762 234 0
5762 -323 -234 0
-5566 -5762 0
-5763 325 0
-5763 236 0
5763 -325 -236 0
-5566 -5763 0
-5764 326 0
-5764 237 0
5764 -326 -237 0
-5566 -5764 0
-5566 320 0
-320 5566 5758 5759 5760 5761 5762 5763 5764 0
-5765 136 0
-5765 274 0
5765 -136 -274 0
-5567 -5765 0
-5766 164 0
-5766 302 0
5766 -164 -302 0
-5567 -5766 0
-5767 311 0
-5767 338 0
5767 -311 -338 0
-5567 -5767 0
-5768 316 0
-5768 348 0
5768 -316 -348 0
-5567 -5768 0
-5769 320 0
-5769 354 0
5769 -320 -354 0
-5567 -5769 0
-5770 325 0
-5770 239 0
5770 -325 -239 0
-5567 -5770 0
-5771 326 0
-5771 240 0
5771 -326 -240 0
-5567 -5771 0
-5567 323 0
-323 5567 5765 5766 5767 5768 5769 5770 5771 0
-5772 136 0
-5772 276 0
5772 -136 -276 0
-5568 -5772 0
-5773 164 0
-5773 304 0
5773 -164 -304 0
-5568 -5773 0
-5774 311 0
-5774 340 0
5774 -311 -340 0
-5568 -5774 0
-5775 316 0
-5775 350 0
5775 -316 -350 0
-5568 -5775 0
-5776 320 0
-5776 356 0
5776 -320 -356 0
-5568 -5776 0
-5777 323 0
-5777 359 0
5777 -323 -359 0
-5568 -5777 0
-5778 326 0
-5778 241 0
5778 -326 -241 0
-5568 -5778 0
-5568 325 0
-325 5568 5772 5773 5774 5775 5776 5777 5778 0
-5779 136 0
-5779 277 0
5779 -136 -277 0
-5569 -5779 0
-5780 164 0
-5780 305 0
5780 -164 -305 0
-5569 -5780 0
-5781 311 0
-5781 341 0
5781 -311 -341 0
-5569 -5781 0
-5782 316 0
-5782 351 0
5782 -316 -351 0
-5569 -5782 0
-5783 320 0
-5783 357 0
5783 -320 -357 0
-5569 -5783 0
-5784 323 0
-5784 360 0
5784 -323 -360 0
-5569 -5784 0
-5785 325 0
-5785 361 0
5785 -325 -361 0
-5569 -5785 0
-5569 326 0
-326 5569 5779 5780 5781 5782 5783 5784 5785 0
-5786 170 0
-5786 129 0
5786 -170 -129 0
-5570 -5786 0
-5787 191 0
-5787 136 0
5787 -191 -136 0
-5570 -5787 0
-5788 331 0
-5788 147 0
5788 -331 -147 0
-5570 -5788 0
-5789 335 0
-5789 151 0
5789 -335 -151 0
-5570 -5789 0
-5790 338 0
-5790 154 0
5790 -338 -154 0
-5570 -5790 0
-5791 340 0
-5791 156 0
5791 -340 -156 0
-5570 -5791 0
-5792 341 0
-5792 157 0
5792 -341 -157 0
-5570 -5792 0
-5570 142 0
-142 5570 5786 5787 5788 5789 5790 5791 5792 0
-5793 142 0
-5793 249 0
5793 -142 -249 0
-5571 -5793 0
-5794 191 0
-5794 164 0
5794 -191 -164 0
-5571 -5794 0
-5795 331 0
-5795 175 0
5795 -331 -175 0
-5571 -5795 0
-5796 335 0
-5796 179 0
5796 -335 -179 0
-5571 -5796 0
-5797 338 0
-5797 182 0
5797 -338 -182 0
-5571 -5797 0
-5798 340 0
-5798 184 0
5798 -340 -184 0
-5571 -5798 0
-5799 341 0
-5799 185 0
5799 -341 -185 0
-5571 -5799 0
-5571 170 0
-170 5571 5793 5794 5795 5796 5797 5798 5799 0
-5800 142 0
-5800 256 0
5800 -142 -256 0
-5572 -5800 0
-5801 170 0
-5801 284 0
5801 -170 -284 0
-5572 -5801 0
-5802 331 0
-5802 196 0
5802 -331 -196 0
-5572 -5802 0
-5803 335 0
-5803 200 0
5803 -335 -200 0
-5572 -5803 0
-5804 338 0
-5804 203 0
5804 -338 -203 0
-5572 -5804 0
-5805 340 0
-5805 205 0
5805 -340 -205 0
-5572 -5805 0
-5806 341 0
-5806 206 0
5806 -341 -206 0
-5572 -5806 0
-5572 191 0
-191 5572 5800 5801 5802 5803 5804 5805 5806 0
-5807 142 0
-5807 267 0
5807 -142 -267 0
-5573 -5807 0
-5808 170 0
-5808 295 0
5808 -170 -295 0
-5573 -5808 0
-5809 191 0
-5809 316 0
5809 -191 -316 0
-5573 -5809 0
-5810 335 0
-5810 225 0
5810 -335 -225 0
-5573 -5810 0
-5811 338 0
-5811 228 0
5811 -338 -228 0
-5573 -5811 0
-5812 340 0
-5812 230 0
5812 -340 -230 0
-5573 -5812 0
-5813 341 0
-5813 231 0
5813 -341 -231 0
-5573 -5813 0
-5573 331 0
-331 5573 5807 5808 5809 5810 5811 5812 5813 0
-5814 142 0
-5814 271 0
5814 -142 -271 0
-5574 -5814 0
-5815 170 0
-5815 299 0
5815 -170 -299 0
-5574 -5815 0
-5816 191 0
-5816 320 0
5816 -191 -320 0
-5574 -5816 0
-5817 331 0
-5817 345 0
5817 -331 -345 0
-5574 -5817 0
-5818 338 0
-5818 234 0
5818 -338 -234 0
-5574 -5818 0
-5819 340 0
-5819 236 0
5819 -340 -236 0
-5574 -5819 0
-5820 341 0
-5820 237 0
5820 -341 -237 0
-5574 -5820 0
-5574 335 0
-335 5574 5814 5815 5816 5817 5818 5819 5820 0
-5821 142 0
-5821 274 0
5821 -142 -274 0
-5575 -5821 0
-5822 170 0
-5822 302 0
5822 -170 -302 0
-5575 -5822 0
-5823 191 0
-5823 323 0
5823 -191 -323 0
-5575 -5823 0
-5824 331 0
-5824 348 0
5824 -331 -348 0
-5575 -5824 0
-5825 335 0
-5825 354 0
5825 -335 -354 0
-5575 -5825 0
-5826 340 0
-5826 239 0
5826 -340 -239 0
-5575 -5826 0
-5827 341 0
-5827 240 0
5827 -341 -240 0
-5575 -5827 0
-5575 338 0
-338 5575 5821 5822 5823 5824 5825 5826 5827 0
-5828 142 0
-5828 276 0
5828 -142 -276 0
-5576 -5828 0
-5829 170 0
-5829 304 0
5829 -170 -304 0
-5576 -5829 0
-5830 191 0
-5830 325 0
5830 -191 -325 0
-5576 -5830 0
-5831 331 0
-5831 350 0
5831 -331 -350 0
-5576 -5831 0
-5832 335 0
-5832 356 0
5832 -335 -356 0
-5576 -5832 0
-5833 338 0
-5833 359 0
5833 -338 -359 0
-5576 -5833 0
-5834 341 0
-5834 241 0
5834 -341 -241 0
-5576 -5834 0
-5576 340 0
-340 5576 5828 5829 5830 5831 5832 5833 5834 0
-5835 142 0
-5835 277 0
5835 -142 -277 0
-5577 -5835 0
-5836 170 0
-5836 305 0
5836 -170 -305 0
-5577 -5836 0
-5837 191 0
-5837 326 0
5837 -191 -326 0
-5577 -5837 0
-5838 331 0
-5838 351 0
5838 -331 -351 0
-5577 -5838 0
-5839 335 0
-5839 357 0
5839 -335 -357 0
-5577 -5839 0
-5840 338 0
-5840 360 0
5840 -338 -360 0
-5577 -5840 0
-5841 340 0
-5841 361 0
5841 -340 -361 0
-5577 -5841 0
-5577 341 0
-341 5577 5835 5836 5837 5838 5839 5840 5841 0
-5842 175 0
-5842 129 0
5842 -175 -129 0
-5578 -5842 0
-5843 196 0
-5843 136 0
5843 -196 -136 0
-5578 -5843 0
-5844 211 0
-5844 142 0
5844 -211 -142 0
-5578 -5844 0
-5845 345 0
-5845 151 0
5845 -345 -151 0
-5578 -5845 0
-5846 348 0
-5846 154 0
5846 -348 -154 0
-5578 -5846 0
-5847 350 0
-5847 156 0
5847 -350 -156 0
-5578 -5847 0
-5848 351 0
-5848 157 0
5848 -351 -157 0
-5578 -5848 0
-5578 147 0
-147 5578 5842 5843 5844 5845 5846 5847 5848 0
-5849 147 0
-5849 249 0
5849 -147 -249 0
-5579 -5849 0
-5850 196 0
-5850 164 0
5850 -196 -164 0
-5579 -5850 0
-5851 211 0
-5851 170 0
5851 -211 -170 0
-5579 -5851 0
-5852 345 0
-5852 179 0
5852 -345 -179 0
-5579 -5852 0
-5853 348 0
-5853 182 0
5853 -348 -182 0
-5579 -5853 0
-5854 350 0
-5854 184 0
5854 -350 -184 0
-5579 -5854 0
-5855 351 0
-5855 185 0
5855 -351 -185 0
-5579 -5855 0
-5579 175 0
-175 5579 5849 5850 5851 5852 5853 5854 5855 0
-5856 147 0
-5856 256 0
5856 -147 -256 0
-5580 -5856 0
-5857 175 0
-5857 284 0
5857 -175 -284 0
-5580 -5857 0
-5858 211 0
-5858 191 0
5858 -211 -191 0
-5580 -5858 0
-5859 345 0
-5859 200 0
5859 -345 -200 0
-5580 -5859 0
-5860 348 0
-5860 203 0
5860 -348 -203 0
-5580 -5860 0
-5861 350 0
-5861 205 0
5861 -350 -205 0
-5580 -5861 0
-5862 351 0
-5862 206 0
5862 -351 -206 0
-5580 -5862 0
-5580 196 0
-196 5580 5856 5857 5858 5859 5860 5861 5862 0
-5863 147 0
-5863 262 0
5863 -147 -262 0
-5581 -5863 0
-5864 175 0
-5864 290 0
5864 -175 -290 0
-5581 -5864 0
-5865 196 0
-5865 311 0
5865 -196 -311 0
-5581 -5865 0
-5866 345 0
-5866 215 0
5866 -345 -215 0
-5581 -5866 0
-5867 348 0
-5867 218 0
5867 -348 -218 0
-5581 -5867 0
-5868 350 0
-5868 220 0
5868 -350 -220 0
-5581 -5868 0
-5869 351 0
-5869 221 0
5869 -351 -221 0
-5581 -5869 0
-5581 211 0
-211 5581 5863 5864 5865 5866 5867 5868 5869 0
-5870 147 0
-5870 271 0
5870 -147 -271 0
-5582 -5870 0
-5871 175 0
-5871 299 0
5871 -175 -299 0
-5582 -5871 0
-5872 196 0
-5872 320 0
5872 -196 -320 0
-5582 -5872 0
-5873 211 0
-5873 335 0
5873 -211 -335 0
-5582 -5873 0
-5874 348 0
-5874 234 0
5874 -348 -234 0
-5582 -5874 0
-5875 350 0
-5875 236 0
5875 -350 -236 0
-5582 -5875 0
-5876 351 0
-5876 237 0
5876 -351 -237 0
-5582 -5876 0
-5582 345 0
-345 5582 5870 5871 5872 5873 5874 5875 5876 0
-5877 147 0
-5877 274 0
5877 -147 -274 0
-5583 -5877 0
-5878 175 0
-5878 302 0
5878 -175 -302 0
-5583 -5878 0
-5879 196 0
-5879 323 0
5879 -196 -323 0
-5583 -5879 0
-5880 211 0
-5880 338 0
5880 -211 -338 0
-5583 -5880 0
-5881 345 0
-5881 354 0
5881 -345 -354 0
-5583 -5881 0
-5882 350 0
-5882 239 0
5882 -350 -239 0
-5583 -5882 0
-5883 351 0
-5883 240 0
5883 -351 -240 0
-5583 -5883 0
-5583 348 0
-348 5583 5877 5878 5879 5880 5881 5882 5883 0
-5884 147 0
-5884 276 0
5884 -147 -276 0
-5584 -5884 0
-5885 175 0
-5885 304 0
5885 -175 -304 0
-5584 -5885 0
-5886 196 0
-5886 325 0
5886 -196 -325 0
-5584 -5886 0
-5887 211 0
-5887 340 0
5887 -211 -340 0
-5584 -5887 0
-5888 345 0
-5888 356 0
5888 -345 -356 0
-5584 -5888 0
-5889 348 0
-5889 359 0
5889 -348 -359 0
-5584 -5889 0
-5890 351 0
-5890 241 0
5890 -351 -241 0
-5584 -5890 0
-5584 350 0
-350 5584 5884 5885 5886 5887 5888 5889 5890 0
-5891 147 0
-5891 277 0
5891 -147 -277 0
-5585 -5891 0
-5892 175 0
-5892 305 0
5892 -175 -305 0
-5585 -5892 0
-5893 196 0
-5893 326 0
5893 -196 -326 0
-5585 -5893 0
-5894 211 0
-5894 341 0
5894 -211 -341 0
-5585 -5894 0
-5895 345 0
-5895 357 0
5895 -345 -357 0
-5585 -5895 0
-5896 348 0
-5896 360 0
5896 -348 -360 0
-5585 -5896 0
-5897 350 0
-5897 361 0
5897 -350 -361 0
-5585 -5897 0
-5585 351 0
-351 5585 5891 5892 5893 5894 5895 5896 5897 0
-5898 179 0
-5898 129 0
5898 -179 -129 0
-5586 -5898 0
-5899 200 0
-5899 136 0
5899 -200 -136 0
-5586 -5899 0
-5900 215 0
-5900 142 0
5900 -215 -142 0
-5586 -5900 0
-5901 225 0
-5901 147 0
5901 -225 -147 0
-5586 -5901 0
-5902 354 0
-5902 154 0
5902 -354 -154 0
-5586 -5902 0
-5903 356 0
-5903 156 0
5903 -356 -156 0
-5586 -5903 0
-5904 357 0
-5904 157 0
5904 -357 -157 0
-5586 -5904 0
-5586 151 0
-151 5586 5898 5899 5900 5901 5902 5903 5904 0
-5905 151 0
-5905 249 0
5905 -151 -249 0
-5587 -5905 0
-5906 200 0
-5906 164 0
5906 -200 -164 0
-5587 -5906 0
-5907 215 0
-5907 170 0
5907 -215 -170 0
-5587 -5907 0
-5908 225 0
-5908 175 0
5908 -225 -175 0
-5587 -5908 0
-5909 354 0
-5909 182 0
5909 -354 -182 0
-5587 -5909 0
-5910 356 0
-5910 184 0
5910 -356 -184 0
-5587 -5910 0
-5911 357 0
-5911 185 0
5911 -357 -185 0
-5587 -5911 0
-5587 179 0
-179 5587 5905 5906 5907 5908 5909 5910 5911 0
-5912 151 0
-5912 256 0
5912 -151 -256 0
-5588 -5912 0
-5913 179 0
-5913 284 0
5913 -179 -284 0
-5588 -5913 0
-5914 215 0
-5914 191 0
5914 -215 -191 0
-5588 -5914 0
-5915 225 0
-5915 196 0
5915 -225 -196 0
-5588 -5915 0
-5916 354 0
-5916 203 0
5916 -354 -203 0
-5588 -5916 0
-5917 356 0
-5917 205 0
5917 -356 -205 0
-5588 -5917 0
-5918 357 0
-5918 206 0
5918 -357 -206 0
-5588 -5918 0
-5588 200 0
-200 5588 5912 5913 5914 5915 5916 5917 5918 0
-5919 151 0
-5919 262 0
5919 -151 -262 0
-5589 -5919 0
-5920 179 0
-5920 290 0
5920 -179 -290 0
-5589 -5920 0
-5921 200 0
-5921 311 0
5921 -200 -311 0
-5589 -5921 0
-5922 225 0
-5922 211 0
5922 -225 -211 0
-5589 -5922 0
-5923 354 0
-5923 218 0
5923 -354 -218 0
-5589 -5923 0
-5924 356 0
-5924 220 0
5924 -356 -220 0
-5589 -5924 0
-5925 357 0
-5925 221 0
5925 -357 -221 0
-5589 -5925 0
-5589 215 0
-215 5589 5919 5920 5921 5922 5923 5924 5925 0
-5926 151 0
-5926 267 0
5926 -151 -267 0
-5590 -5926 0
-5927 179 0
-5927 295 0
5927 -179 -295 0
-5590 -5927 0
-5928 200 0
-5928 316 0
5928 -200 -316 0
-5590 -5928 0
-5929 215 0
-5929 331 0
5929 -215 -331 0
-5590 -5929 0
-5930 354 0
-5930 228 0
5930 -354 -228 0
-5590 -5930 0
-5931 356 0
-5931 230 0
5931 -356 -230 0
-5590 -5931 0
-5932 357 0
-5932 231 0
5932 -357 -231 0
-5590 -5932 0
-5590 225 0
-225 5590 5926 5927 5928 5929 5930 5931 5932 0
-5933 151 0
-5933 274 0
5933 -151 -274 0
-5591 -5933 0
-5934 179 0
-5934 302 0
5934 -179 -302 0
-5591 -5934 0
-5935 200 0
-5935 323 0
5935 -200 -323 0
-5591 -5935 0
-5936 215 0
-5936 338 0
5936 -215 -338 0
-5591 -5936 0
-5937 225 0
-5937 348 0
5937 -225 -348 0
-5591 -5937 0
-5938 356 0
-5938 239 0
5938 -356 -239 0
-5591 -5938 0
-5939 357 0
-5939 240 0
5939 -357 -240 0
-5591 -5939 0
-5591 354 0
-354 5591 5933 5934 5935 5936 5937 5938 5939 0
-5940 151 0
-5940 276 0
5940 -151 -276 0
-5592 -5940 0
-5941 179 0
-5941 304 0
5941 -179 -304 0
-5592 -5941 0
-5942 200 0
-5942 325 0
5942 -200 -325 0
-5592 -5942 0
-5943 215 0
-5943 340 0
5943 -215 -340 0
-5592 -5943 0
-5944 225 0
-5944 350 0
5944 -225 -350 0
-5592 -5944 0
-5945 354 0
-5945 359 0
5945 -354 -359 0
-5592 -5945 0
-5946 357 0
-5946 241 0
5946 -357 -241 0
-5592 -5946 0
-5592 356 0
-356 5592 5940 5941 5942 5943 5944 5945 5946 0
-5947 151 0
-5947 277 0
5947 -151 -277 0
-5593 -5947 0
-5948 179 0
-5948 305 0
5948 -179 -305 0
-5593 -5948 0
-5949 200 0
-5949 326 0
5949 -200 -326 0
-5593 -5949 0
-5950 215 0
-5950 341 0
5950 -215 -341 0
-5593 -5950 0
-5951 225 0
-5951 351 0
5951 -225 -351 0
-5593 -5951 0
-5952 354 0
-5952 360 0
5952 -354 -360 0
-5593 -5952 0
-5953 356 0
-5953 361 0
5953 -356 -361 0
-5593 -5953 0
-5593 357 0
-357 5593 5947 5948 5949 5950 5951 5952 5953 0
-5954 182 0
-5954 129 0
5954 -182 -129 0
-5594 -5954 0
-5955 203 0
-5955 136 0
5955 -203 -136 0
-5594 -5955 0
-5956 218 0
-5956 142 0
5956 -218 -142 0
-5594 -5956 0
-5957 228 0
-5957 147 0
5957 -228 -147 0
-5594 -5957 0
-5958 234 0
-5958 151 0
5958 -234 -151 0
-5594 -5958 0
-5959 359 0
-5959 156 0
5959 -359 -156 0
-5594 -5959 0
-5960 360 0
-5960 157 0
5960 -360 -157 0
-5594 -5960 0
-5594 154 0
-154 5594 5954 5955 5956 5957 5958 5959 5960 0
-5961 154 0
-5961 249 0
5961 -154 -249 0
-5595 -5961 0
-5962 203 0
-5962 164 0
5962 -203 -164 0
-5595 -5962 0
-5963 218 0
-5963 170 0
5963 -218 -170 0
-5595 -5963 0
-5964 228 0
-5964 175 0
5964 -228 -175 0
-5595 -5964 0
-5965 234 0
-5965 179 0
5965 -234 -179 0
-5595 -5965 0
-5966 359 0
-5966 184 0
5966 -359 -184 0
-5595 -5966 0
-5967 360 0
-5967 185 0
5967 -360 -185 0
-5595 -5967 0
-5595 182 0
-182 5595 5961 5962 5963 5964 5965 5966 5967 0
-5968 154 0
-5968 256 0
5968 -154 -256 0
-5596 -5968 0
-5969 182 0
-5969 284 0
5969 -182 -284 0
-5596 -5969 0
-5970 218 0
-5970 191 0
5970 -218 -191 0
-5596 -5970 0
-5971 228 0
-5971 196 0
5971 -228 -196 0
-5596 -5971 0
-5972 234 0
-5972 200 0
5972 -234 -200 0
-5596 -5972 0
-5973 359 0
-5973 205 0
5973 -359 -205 0
-5596 -5973 0
-5974 360 0
-5974 206 0
5974 -360 -206 0
-5596 -5974 0
-5596 203 0
-203 5596 5968 5969 5970 5971 5972 5973 5974 0
-5975 154 0
-5975 262 0
5975 -154 -262 0
-5597 -5975 0
-5976 182 0
-5976 290 0
5976 -182 -290 0
-5597 -5976 0
-5977 203 0
-5977 311 0
5977 -203 -311 0
-5597 -5977 0
-5978 228 0
-5978 211 0
5978 -228 -211 0
-5597 -5978 0
-5979 234 0
-5979 215 0
5979 -234 -215 0
-5597 -5979 0
-5980 359 0
-5980 220 0
5980 -359 -220 0
-5597 -5980 0
-5981 360 0
-5981 221 0
5981 -360 -221 0
-5597 -5981 0
-5597 218 0
-218 5597 5975 5976 5977 5978 5979 5980 5981 0
-5982 154 0
-5982 267 0
5982 -154 -267 0
-5598 -5982 0
-5983 182 0
-5983 295 0
5983 -182 -295 0
-5598 -5983 0
-5984 203 0
-5984 316 0
5984 -203 -316 0
-5598 -5984 0
-5985 218 0
-5985 331 0
5985 -218 -331 0
-5598 -5985 0
-5986 234 0
-5986 225 0
5986 -234 -225 0
-5598 -5986 0
-5987 359 0
-5987 230 0
5987 -359 -230 0
-5598 -5987 0
-5988 360 0
-5988 231 0
5988 -360 -231 0
-5598 -5988 0
-5598 228 0
-228 5598 5982 5983 5984 5985 5986 5987 5988 0
-5989 154 0
-5989 271 0
5989 -154 -271 0
-5599 -5989 0
-5990 182 0
-5990 299 0
5990 -182 -299 0
-5599 -5990 0
-5991 203 0
-5991 320 0
5991 -203 -320 0
-5599 -5991 0
-5992 218 0
-5992 335 0
5992 -218 -335 0
-5599 -5992 0
-5993 228 0
-5993 345 0
5993 -228 -345 0
-5599 -5993 0
-5994 359 0
-5994 236 0
5994 -359 -236 0
-5599 -5994 0
-5995 360 0
-5995 237 0
5995 -360 -237 0
-5599 -5995 0
-5599 234 0
-234 5599 5989 5990 5991 5992 5993 5994 5995 0
-5996 154 0
-5996 276 0
5996 -154 -276 0
-5600 -5996 0
-5997 182 0
-5997 304 0
5997 -182 -304 0
-5600 -5997 0
-5998 203 0
-5998 325 0
5998 -203 -325 0
-5600 -5998 0
-5999 218 0
-5999 340 0
5999 -218 -340 0
-5600 -5999 0
-6000 228 0
-6000 350 0
6000 -228 -350 0
-5600 -6000 0
-6001 234 0
-6001 356 0
6001 -234 -356 0
-5600 -6001 0
-6002 360 0
-6002 241 0
6002 -360 -241 0
-5600 -6002 0
-5600 359 0
-359 5600 5996 5997 5998 5999 6000 6001 6002 0
-6003 154 0
-6003 277 0
6003 -154 -277 0
-5601 -6003 0
-6004 182 0
-6004 305 0
6004 -182 -305 0
-5601 -6004 0
-6005 203 0
-6005 326 0
6005 -203 -326 0
-5601 -6005 0
-6006 218 0
-6006 341 0
6006 -218 -341 0
-5601 -6006 0
-6007 228 0
-6007 351 0
6007 -228 -351 0
-5601 -6007 0
-6008 234 0
-6008 357 0
6008 -234 -357 0
-5601 -6008 0
-6009 359 0
-6009 361 0
6009 -359 -361 0
-5601 -6009 0
-5601 360 0
-360 5601 6003 6004 6005 6006 6007 6008 6009 0
-6010 184 0
-6010 129 0
6010 -184 -129 0
-5602 -6010 0
-6011 205 0
-6011 136 0
6011 -205 -136 0
-5602 -6011 0
-6012 220 0
-6012 142 0
6012 -220 -142 0
-5602 -6012 0
-6013 230 0
-6013 147 0
6013 -230 -147 0
-5602 -6013 0
-6014 236 0
-6014 151 0
6014 -236 -151 0
-5602 -6014 0
-6015 239 0
-6015 154 0
6015 -239 -154 0
-5602 -6015 0
-6016 361 0
-6016 157 0
6016 -361 -157 0
-5602 -6016 0
-5602 156 0
-156 5602 6010 6011 6012 6013 6014 6015 6016 0
-6017 156 0
-6017 249 0
6017 -156 -249 0
-5603 -6017 0
-6018 205 0
-6018 164 0
6018 -205 -164 0
-5603 -6018 0
-6019 220 0
-6019 170 0
6019 -220 -170 0
-5603 -6019 0
-6020 230 0
-6020 175 0
6020 -230 -175 0
-5603 -6020 0
-6021 236 0
-6021 179 0
6021 -236 -179 0
-5603 -6021 0
-6022 239 0
-6022 182 0
6022 -239 -182 0
-5603 -6022 0
-6023 361 0
-6023 185 0
6023 -361 -185 0
-5603 -6023 0
-5603 184 0
-184 5603 6017 6018 6019 6020 6021 6022 6023 0
-6024 156 0
-6024 256 0
6024 -156 -256 0
-5604 -6024 0
-6025 184 0
-6025 284 0
6025 -184 -284 0
-5604 -6025 0
-6026 220 0
-6026 191 0
6026 -220 -191 0
-5604 -6026 0
-6027 230 0
-6027 196 0
6027 -230 -196 0
-5604 -6027 0
-6028 236 0
-6028 200 0
6028 -236 -200 0
-5604 -6028 0
-6029 239 0
-6029 203 0
6029 -239 -203 0
-5604 -6029 0
-6030 361 0
-6030 206 0
6030 -361 -206 0
-5604 -6030 0
-5604 205 0
-205 5604 6024 6025 6026 6027 6028 6029 6030 0
-6031 156 0
-6031 262 0
6031 -156 -262 0
-5605 -6031 0
-6032 184 0
-6032 290 0
6032 -184 -290 0
-5605 -6032 0
-6033 205 0
-6033 311 0
6033 -205 -311 0
-5605 -6033 0
-6034 230 0
-6034 211 0
6034 -230 -211 0
-5605 -6034 0
-6035 236 0
-6035 215 0
6035 -236 -215 0
-5605 -6035 0
-6036 239 0
-6036 218 0
6036 -239 -218 0
-5605 -6036 0
-6037 361 0
-6037 221 0
6037 -361 -221 0
-5605 -6037 0
-5605 220 0
-220 5605 6031 6032 6033 6034 6035 6036 6037 0
-6038 156 0
-6038 267 0
6038 -156 -267 0
-5606 -6038 0
-6039 184 0
-6039 295 0
6039 -184 -295 0
-5606 -6039 0
-6040 205 0
-6040 316 0
6040 -205 -316 0
-5606 -6040 0
-6041 220 0
-6041 331 0
6041 -220 -331 0
-5606 -6041 0
-6042 236 0
-6042 225 0
6042 -236 -225 0
-5606 -6042 0
-6043 239 0
-6043 228 0
6043 -239 -228 0
-5606 -6043 0
-6044 361 0
-6044 231 0
6044 -361 -231 0
-5606 -6044 0
-5606 230 0
-230 5606 6038 6039 6040 6041 6042 6043 6044 0
-6045 156 0
-6045 271 0
6045 -156 -271 0
-5607 -6045 0
-6046 184 0
-6046 299 0
6046 -184 -299 0
-5607 -6046 0
-6047 205 0
-6047 320 0
6047 -205 -320 0
-5607 -6047 0
-6048 220 0
-6048 335 0
6048 -220 -335 0
-5607 -6048 0
-6049 230 0
-6049 345 0
6049 -230 -345 0
-5607 -6049 0
-6050 239 0
-6050 234 0
6050 -239 -234 0
-5607 -6050 0
-6051 361 0
-6051 237 0
6051 -361 -237 0
-5607 -6051 0
-5607 236 0
-236 5607 6045 6046 6047 6048 6049 6050 6051 0
-6052 156 0
-6052 274 0
6052 -156 -274 0
-5608 -6052 0
-6053 184 0
-6053 302 0
6053 -184 -302 0
-5608 -6053 0
-6054 205 0
-6054 323 0
6054 -205 -323 0
-5608 -6054 0
-6055 220 0
-6055 338 0
6055 -220 -338 0
-5608 -6055 0
-6056 230 0
-6056 348 0
6056 -230 -348 0
-5608 -6056 0
-6057 236 0
-6057 354 0
6057 -236 -354 0
-5608 -6057 0
-6058 361 0
-6058 240 0
6058 -361 -240 0
-5608 -6058 0
-5608 239 0
-239 5608 6052 6053 6054 6055 6056 6057 6058 0
-6059 156 0
-6059 277 0
6059 -156 -277 0
-5609 -6059 0
-6060 184 0
-6060 305 0
6060 -184 -305 0
-5609 -6060 0
-6061 205 0
-6061 326 0
6061 -205 -326 0
-5609 -6061 0
-6062 220 0
-6062 341 0
6062 -220 -341 0
-5609 -6062 0
-6063 230 0
-6063 351 0
6063 -230 -351 0
-5609 -6063 0
-6064 236 0
-6064 357 0
6064 -236 -357 0
-5609 -6064 0
-6065 239 0
-6065 360 0
6065 -239 -360 0
-5609 -6065 0
-5609 361 0
-361 5609 6059 6060 6061 6062 6063 6064 6065 0
-6066 185 0
-6066 129 0
6066 -185 -129 0
-5610 -6066 0
-6067 206 0
-6067 136 0
6067 -206 -136 0
-5610 -6067 0
-6068 221 0
-6068 142 0
6068 -221 -142 0
-5610 -6068 0
-6069 231 0
-6069 147 0
6069 -231 -147 0
-5610 -6069 0
-6070 237 0
-6070 151 0
6070 -237 -151 0
-5610 -6070 0
-6071 240 0
-6071 154 0
6071 -240 -154 0
-5610 -6071 0
-6072 241 0
-6072 156 0
6072 -241 -156 0
-5610 -6072 0
-5610 157 0
-157 5610 6066 6067 6068 6069 6070 6071 6072 0
-6073 157 0
-6073 249 0
6073 -157 -249 0
-5611 -6073 0
-6074 206 0
-6074 164 0
6074 -206 -164 0
-5611 -6074 0
-6075 221 0
-6075 170 0
6075 -221 -170 0
-5611 -6075 0
-6076 231 0
-6076 175 0
6076 -231 -175 0
-5611 -6076 0
-6077 237 0
-6077 179 0
6077 -237 -179 0
-5611 -6077 0
-6078 240 0
-6078 182 0
6078 -240 -182 0
-5611 -6078 0
-6079 241 0
-6079 184 0
6079 -241 -184 0
-5611 -6079 0
-5611 185 0
-185 5611 6073 6074 6075 6076 6077 6078 6079 0
-6080 157 0
-6080 256 0
6080 -157 -256 0
-5612 -6080 0
-6081 185 0
-6081 284 0
6081 -185 -284 0
-5612 -6081 0
-6082 221 0
-6082 191 0
6082 -221 -191 0
-5612 -6082 0
-6083 231 0
-6083 196 0
6083 -231 -196 0
-5612 -6083 0
-6084 237 0
-6084 200 0
6084 -237 -200 0
-5612 -6084 0
-6085 240 0
-6085 203 0
6085 -240 -203 0
-5612 -6085 0
-6086 241 0
-6086 205 0
6086 -241 -205 0
-5612 -6086 0
-5612 206 0
-206 5612 6080 6081 6082 6083 6084 6085 6086 0
-6087 157 0
-6087 262 0
6087 -157 -262 0
-5613 -6087 0
-6088 185 0
-6088 290 0
6088 -185 -290 0
-5613 -6088 0
-6089 206 0
-6089 311 0
6089 -206 -311 0
-5613 -6089 0
-6090 231 0
-6090 211 0
6090 -231 -211 0
-5613 -6090 0
-6091 237 0
-6091 215 0
6091 -237 -215 0
-5613 -6091 0
-6092 240 0
-6092 218 0
6092 -240 -218 0
-5613 -6092 0
-6093 241 0
-6093 220 0
6093 -241 -220 0
-5613 -6093 0
-5613 221 0
-221 5613 6087 6088 6089 6090 6091 6092 6093 0
-6094 157 0
-6094 267 0
6094 -157 -267 0
-5614 -6094 0
-6095 185 0
-6095 295 0
6095 -185 -295 0
-5614 -6095 0
-6096 206 0
-6096 316 0
6096 -206 -316 0
-5614 -6096 0
-6097 221 0
-6097 331 0
6097 -221 -331 0
-5614 -6097 0
-6098 237 0
-6098 225 0
6098 -237 -225 0
-5614 -6098 0
-6099 240 0
-6099 228 0
6099 -240 -228 0
-5614 -6099 0
-6100 241 0
-6100 230 0
6100 -241 -230 0
-5614 -6100 0
-5614 231 0
-231 5614 6094 6095 6096 6097 6098 6099 6100 0
-6101 157 0
-6101 271 0
6101 -157 -271 0
-5615 -6101 0
-6102 185 0
-6102 299 0
6102 -185 -299 0
-5615 -6102 0
-6103 206 0
-6103 320 0
6103 -206 -320 0
-5615 -6103 0
-6104 221 0
-6104 335 0
6104 -221 -335 0
-5615 -6104 0
-6105 231 0
-6105 345 0
6105 -231 -345 0
-5615 -6105 0
-6106 240 0
-6106 234 0
6106 -240 -234 0
-5615 -6106 0
-6107 241 0
-6107 236 0
6107 -241 -236 0
-5615 -6107 0
-5615 237 0
-237 5615 6101 6102 6103 6104 6105 6106 6107 0
-6108 157 0
-6108 274 0
6108 -157 -274 0
-5616 -6108 0
-6109 185 0
-6109 302 0
6109 -185 -302 0
-5616 -6109 0
-6110 206 0
-6110 323 0
6110 -206 -323 0
-5616 -6110 0
-6111 221 0
-6111 338 0
6111 -221 -338 0
-5616 -6111 0
-6112 231 0
-6112 348 0
6112 -231 -348 0
-5616 -6112 0
-6113 237 0
-6113 354 0
6113 -237 -354 0
-5616 -6113 0
-6114 241 0
-6114 239 0
6114 -241 -239 0
-5616 -6114 0
-5616 240 0
-240 5616 6108 6109 6110 6111 6112 6113 6114 0
-6115 157 0
-6115 276 0
6115 -157 -276 0
-5617 -6115 0
-6116 185 0
-6116 304 0
6116 -185 -304 0
-5617 -6116 0
-6117 206 0
-6117 325 0
6117 -206 -325 0
-5617 -6117 0
-6118 221 0
-6118 340 0
6118 -221 -340 0
-5617 -6118 0
-6119 231 0
-6119 350 0
6119 -231 -350 0
-5617 -6119 0
-6120 237 0
-6120 356 0
6120 -237 -356 0
-5617 -6120 0
-6121 240 0
-6121 359 0
6121 -240 -359 0
-5617 -6121 0
-5617 241 0
-241 5617 6115 6116 6117 6118 6119 6120 6121 0
-362 6122 0
-370 6122 0
-6122 362 370 0
-363 6123 0
-378 6123 0
-6123 363 378 0
-364 6124 0
-386 6124 0
-6124 364 386 0
-365 6125 0
-394 6125 0
-6125 365 394 0
-366 6126 0
-402 6126 0
-6126 366 402 0
-367 6127 0
-410 6127 0
-6127 367 410 0
-368 6128 0
-418 6128 0
-6128 368 418 0
-369 6129 0
-426 6129 0
-6129 369 426 0
-371 6130 0
-379 6130 0
-6130 371 379 0
-372 6131 0
-387 6131 0
-6131 372 387 0
-373 6132 0
-395 6132 0
-6132 373 395 0
-374 6133 0
-403 6133 0
-6133 374 403 0
-375 6134 0
-411 6134 0
-6134 375 411 0
-376 6135 0
-419 6135 0
-6135 376 419 0
-377 6136 0
-427 6136 0
-6136 377 427 0
-380 6137 0
-388 6137 0
-6137 380 388 0
-381 6138 0
-396 6138 0
-6138 381 396 0
-382 6139 0
-404 6139 0
-6139 382 404 0
-383 6140 0
-412 6140 0
-6140 383 412 0
-384 6141 0
-420 6141 0
-6141 384 420 0
-385 6142 0
-428 6142 0
-6142 385 428 0
-389 6143 0
-397 6143 0
-6143 389 397 0
-390 6144 0
-405 6144 0
-6144 390 405 0
-391 6145 0
-413 6145 0
-6145 391 413 0
-392 6146 0
-421 6146 0
-6146 392 421 0
-393 6147 0
-429 6147 0
-6147 393 429 0
-398 6148 0
-406 6148 0
-6148 398 406 0
-399 6149 0
-414 6149 0
-6149 399 414 0
-400 6150 0
-422 6150 0
-6150 400 422 0
-401 6151 0
-430 6151 0
-6151 401 430 0
-407 6152 0
-415 6152 0
-6152 407 415 0
-408 6153 0
-423 6153 0
-6153 408 423 0
-409 6154 0
-431 6154 0
-6154 409 431 0
-416 6155 0
-424 6155 0
-6155 416 424 0
-417 6156 0
-432 6156 0
-6156 417 432 0
-425 6157 0
-433 6157 0
-6157 425 433 0
-938 6158 0
-946 6158 0
-6158 938 946 0
-939 6159 0
-954 6159 0
-6159 939 954 0
-940 6160 0
-962 6160 0
-6160 940 962 0
-941 6161 0
-970 6161 0
-6161 941 970 0
-942 6162 0
-978 6162 0
-6162 942 978 0
-943 6163 0
-986 6163 0
-6163 943 986 0
-944 6164 0
-994 6164 0
-6164 944 994 0
-945 6165 0
-1002 6165 0
-6165 945 1002 0
-947 6166 0
-955 6166 0
-6166 947 955 0
-948 6167 0
-963 6167 0
-6167 948 963 0
-949 6168 0
-971 6168 0
-6168 949 971 0
-950 6169 0
-979 6169 0
-6169 950 979 0
-951 6170 0
-987 6170 0
-6170 951 987 0
-952 6171 0
-995 6171 0
-6171 952 995 0
-953 6172 0
-1003 6172 0
-6172 953 1003 0
-956 6173 0
-964 6173 0
-6173 956 964 0
-957 6174 0
-972 6174 0
-6174 957 972 0
-958 6175 0
-980 6175 0
-6175 958 980 0
-959 6176 0
-988 6176 0
-6176 959 988 0
-960 6177 0
-996 6177 0
-6177 960 996 0
-961 6178 0
-1004 6178 0
-6178 961 1004 0
-965 6179 0
-973 6179 0
-6179 965 973 0
-966 6180 0
-981 6180 0
-6180 966 981 0
-967 6181 0
-989 6181 0
-6181 967 989 0
-968 6182 0
-997 6182 0
-6182 968 997 0
-969 6183 0
-1005 6183 0
-6183 969 1005 0
-974 6184 0
-982 6184 0
-6184 974 982 0
-975 6185 0
-990 6185 0
-6185 975 990 0
-976 6186 0
-998 6186 0
-6186 976 998 0
-977 6187 0
-1006 6187 0
-6187 977 1006 0
-983 6188 0
-991 6188 0
-6188 983 991 0
-984 6189 0
-999 6189 0
-6189 984 999 0
-985 6190 0
-1007 6190 0
-6190 985 1007 0
-992 6191 0
-1000 6191 0
-6191 992 1000 0
-993 6192 0
-1008 6192 0
-6192 993 1008 0
-1001 6193 0
-1009 6193 0
-6193 1001 1009 0
-1514 6194 0
-1522 6194 0
-6194 1514 1522 0
-1515 6195 0
-1530 6195 0
-6195 1515 1530 0
-1516 6196 0
-1538 6196 0
-6196 1516 1538 0
-1517 6197 0
-1546 6197 0
-6197 1517 1546 0
-1518 6198 0
-1554 6198 0
-6198 1518 1554 0
-1519 6199 0
-1562 6199 0
-6199 1519 1562 0
-1520 6200 0
-1570 6200 0
-6200 1520 1570 0
-1521 6201 0
-1578 6201 0
-6201 1521 1578 0
-1523 6202 0
-1531 6202 0
-6202 1523 1531 0
-1524 6203 0
-1539 6203 0
-6203 1524 1539 0
-1525 6204 0
-1547 6204 0
-6204 1525 1547 0
-1526 6205 0
-1555 6205 0
-6205 1526 1555 0
-1527 6206 0
-1563 6206 0
-6206 1527 1563 0
-1528 6207 0
-1571 6207 0
-6207 1528 1571 0
-1529 6208 0
-1579 6208 0
-6208 1529 1579 0
-1532 6209 0
-1540 6209 0
-6209 1532 1540 0
-1533 6210 0
-1548 6210 0
-6210 1533 1548 0
-1534 6211 0
-1556 6211 0
-6211 1534 1556 0
-1535 6212 0
-1564 6212 0
-6212 1535 1564 0
-1536 6213 0
-1572 6213 0
-6213 1536 1572 0
-1537 6214 0
-1580 6214 0
-6214 1537 1580 0
-1541 6215 0
-1549 6215 0
-6215 1541 1549 0
-1542 6216 0
-1557 6216 0
-6216 1542 1557 0
-1543 6217 0
-1565 6217 0
-6217 1543 1565 0
-1544 6218 0
-1573 6218 0
-6218 1544 1573 0
-1545 6219 0
-1581 6219 0
-6219 1545 1581 0
-1550 6220 0
-1558 6220 0
-6220 1550 1558 0
-1551 6221 0
-1566 6221 0
-6221 1551 1566 0
-1552 6222 0
-1574 6222 0
-6222 1552 1574 0
-1553 6223 0
-1582 6223 0
-6223 1553 1582 0
-1559 6224 0
-1567 6224 0
-6224 1559 1567 0
-1560 6225 0
-1575 6225 0
-6225 1560 1575 0
-1561 6226 0
-1583 6226 0
-6226 1561 1583 0
-1568 6227 0
-1576 6227 0
-6227 1568 1576 0
-1569 6228 0
-1584 6228 0
-6228 1569 1584 0
-1577 6229 0
-1585 6229 0
-6229 1577 1585 0
-2090 6230 0
-2098 6230 0
-6230 2090 2098 0
-2091 6231 0
-2106 6231 0
-6231 2091 2106 0
-2092 6232 0
-2114 6232 0
-6232 2092 2114 0
-2093 6233 0
-2122 6233 0
-6233 2093 2122 0
-2094 6234 0
-2130 6234 0
-6234 2094 2130 0
-2095 6235 0
-2138 6235 0
-6235 2095 2138 0
-2096 6236 0
-2146 6236 0
-6236 2096 2146 0
-2097 6237 0
-2154 6237 0
-6237 2097 2154 0
-2099 6238 0
-2107 6238 0
-6238 2099 2107 0
-2100 6239 0
-2115 6239 0
-6239 2100 2115 0
-2101 6240 0
-2123 6240 0
-6240 2101 2123 0
-2102 6241 0
-2131 6241 0
-6241 2102 2131 0
-2103 6242 0
-2139 6242 0
-6242 2103 2139 0
-2104 6243 0
-2147 6243 0
-6243 2104 2147 0
-2105 6244 0
-2155 6244 0
-6244 2105 2155 0
-2108 6245 0
-2116 6245 0
-6245 2108 2116 0
-2109 6246 0
-2124 6246 0
-6246 2109 2124 0
-2110 6247 0
-2132 6247 0
-6247 2110 2132 0
-2111 6248 0
-2140 6248 0
-6248 2111 2140 0
-2112 6249 0
-2148 6249 0
-6249 2112 2148 0
-2113 6250 0
-2156 6250 0
-6250 2113 2156 0
-2117 6251 0
-2125 6251 0
-6251 2117 2125 0
-2118 6252 0
-2133 6252 0
-6252 2118 2133 0
-2119 6253 0
-2141 6253 0
-6253 2119 2141 0
-2120 6254 0
-2149 6254 0
-6254 2120 2149 0
-2121 6255 0
-2157 6255 0
-6255 2121 2157 0
-2126 6256 0
-2134 6256 0
-6256 2126 2134 0
-2127 6257 0
-2142 6257 0
-6257 2127 2142 0
-2128 6258 0
-2150 6258 0
-6258 2128 2150 0
-2129 6259 0
-2158 6259 0
-6259 2129 2158 0
-2135 6260 0
-2143 6260 0
-6260 2135 2143 0
-2136 6261 0
-2151 6261 0
-6261 2136 2151 0
-2137 6262 0
-2159 6262 0
-6262 2137 2159 0
-2144 6263 0
-2152 6263 0
-6263 2144 2152 0
-2145 6264 0
-2160 6264 0
-6264 2145 2160 0
-2153 6265 0
-2161 6265 0
-6265 2153 2161 0
-2666 6266 0
-2674 6266 0
-6266 2666 2674 0
-2667 6267 0
-2682 6267 0
-6267 2667 2682 0
-2668 6268 0
-2690 6268 0
-6268 2668 2690 0
-2669 6269 0
-2698 6269 0
-6269 2669 2698 0
-2670 6270 0
-2706 6270 0
-6270 2670 2706 0
-2671 6271 0
-2714 6271 0
-6271 2671 2714 0
-2672 6272 0
-2722 6272 0
-6272 2672 2722 0
-2673 6273 0
-2730 6273 0
-6273 2673 2730 0
-2675 6274 0
-2683 6274 0
-6274 2675 2683 0
-2676 6275 0
-2691 6275 0
-6275 2676 2691 0
-2677 6276 0
-2699 6276 0
-6276 2677 2699 0
-2678 6277 0
-2707 6277 0
-6277 2678 2707 0
-2679 6278 0
-2715 6278 0
-6278 2679 2715 0
-2680 6279 0
-2723 6279 0
-6279 2680 2723 0
-2681 6280 0
-2731 6280 0
-6280 2681 2731 0
-2684 6281 0
-2692 6281 0
-6281 2684 2692 0
-2685 6282 0
-2700 6282 0
-6282 2685 2700 0
-2686 6283 0
-2708 6283 0
-6283 2686 2708 0
-2687 6284 0
-2716 6284 0
-6284 2687 2716 0
-2688 6285 0
-2724 6285 0
-6285 2688 2724 0
-2689 6286 0
-2732 6286 0
-6286 2689 2732 0
-2693 6287 0
-2701 6287 0
-6287 2693 2701 0
-2694 6288 0
-2709 6288 0
-6288 2694 2709 0
-2695 6289 0
-2717 6289 0
-6289 2695 2717 0
-2696 6290 0
-2725 6290 0
-6290 2696 2725 0
-2697 6291 0
-2733 6291 0
-6291 2697 2733 0
-2702 6292 0
-2710 6292 0
-6292 2702 2710 0
-2703 6293 0
-2718 6293 0
-6293 2703 2718 0
-2704 6294 0
-2726 6294 0
-6294 2704 2726 0
-2705 6295 0
-2734 6295 0
-6295 2705 2734 0
-2711 6296 0
-2719 6296 0
-6296 2711 2719 0
-2712 6297 0
-2727 6297 0
-6297 2712 2727 0
-2713 6298 0
-2735 6298 0
-6298 2713 2735 0
-2720 6299 0
-2728 6299 0
-6299 2720 2728 0
-2721 6300 0
-2736 6300 0
-6300 2721 2736 0
-2729 6301 0
-2737 6301 0
-6301 2729 2737 0
-3242 6302 0
-3250 6302 0
-6302 3242 3250 0
-3243 6303 0
-3258 6303 0
-6303 3243 3258 0
-3244 6304 0
-3266 6304 0
-6304 3244 3266 0
-3245 6305 0
-3274 6305 0
-6305 3245 3274 0
-3246 6306 0
-3282 6306 0
-6306 3246 3282 0
-3247 6307 0
-3290 6307 0
-6307 3247 3290 0
-3248 6308 0
-3298 6308 0
-6308 3248 3298 0
-3249 6309 0
-3306 6309 0
-6309 3249 3306 0
-3251 6310 0
-3259 6310 0
-6310 3251 3259 0
-3252 6311 0
-3267 6311 0
-6311 3252 3267 0
-3253 6312 0
-3275 6312 0
-6312 3253 3275 0
-3254 6313 0
-3283 6313 0
-6313 3254 3283 0
-3255 6314 0
-3291 6314 0
-6314 3255 3291 0
-3256 6315 0
-3299 6315 0
-6315 3256 3299 0
-3257 6316 0
-3307 6316 0
-6316 3257 3307 0
-3260 6317 0
-3268 6317 0
-6317 3260 3268 0
-3261 6318 0
-3276 6318 0
-6318 3261 3276 0
-3262 6319 0
-3284 6319 0
-6319 3262 3284 0
-3263 6320 0
-3292 6320 0
-6320 3263 3292 0
-3264 6321 0
-3300 6321 0
-6321 3264 3300 0
-3265 6322 0
-3308 6322 0
-6322 3265 3308 0
-3269 6323 0
-3277 6323 0
-6323 3269 3277 0
-3270 6324 0
-3285 6324 0
-6324 3270 3285 0
-3271 6325 0
-3293 6325 0
-6325 3271 3293 0
-3272 6326 0
-3301 6326 0
-6326 3272 3301 0
-3273 6327 0
-3309 6327 0
-6327 3273 3309 0
-3278 6328 0
-3286 6328 0
-6328 3278 3286 0
-3279 6329 0
-3294 6329 0
-6329 3279 3294 0
-3280 6330 0
-3302 6330 0
-6330 3280 3302 0
-3281 6331 0
-3310 6331 0
-6331 3281 3310 0
-3287 6332 0
-3295 6332 0
-6332 3287 3295 0
-3288 6333 0
-3303 6333 0
-6333 3288 3303 0
-3289 6334 0
-3311 6334 0
-6334 3289 3311 0
-3296 6335 0
-3304 6335 0
-6335 3296 3304 0
-3297 6336 0
-3312 6336 0
-6336 3297 3312 0
-3305 6337 0
-3313 6337 0
-6337 3305 3313 0
-3818 6338 0
-3826 6338 0
-6338 3818 3826 0
-3819 6339 0
-3834 6339 0
-6339 3819 3834 0
-3820 6340 0
-3842 6340 0
-6340 3820 3842 0
-3821 6341 0
-3850 6341 0
-6341 3821 3850 0
-3822 6342 0
-3858 6342 0
-6342 3822 3858 0
-3823 6343 0
-3866 6343 0
-6343 3823 3866 0
-3824 6344 0
-3874 6344 0
-6344 3824 3874 0
-3825 6345 0
-3882 6345 0
-6345 3825 3882 0
-3827 6346 0
-3835 6346 0
-6346 3827 3835 0
-3828 6347 0
-3843 6347 0
-6347 3828 3843 0
-3829 6348 0
-3851 6348 0
-6348 3829 3851 0
-3830 6349 0
-3859 6349 0
-6349 3830 3859 0
-3831 6350 0
-3867 6350 0
-6350 3831 3867 0
-3832 6351 0
-3875 6351 0
-6351 3832 3875 0
-3833 6352 0
-3883 6352 0
-6352 3833 3883 0
-3836 6353 0
-3844 6353 0
-6353 3836 3844 0
-3837 6354 0
-3852 6354 0
-6354 3837 3852 0
-3838 6355 0
-3860 6355 0
-6355 3838 3860 0
-3839 6356 0
-3868 6356 0
-6356 3839 3868 0
-3840 6357 0
-3876 6357 0
-6357 3840 3876 0
-3841 6358 0
-3884 6358 0
-6358 3841 3884 0
-3845 6359 0
-3853 6359 0
-6359 3845 3853 0
-3846 6360 0
-3861 6360 0
-6360 3846 3861 0
-3847 6361 0
-3869 6361 0
-6361 3847 3869 0
-3848 6362 0
-3877 6362 0
-6362 3848 3877 0
-3849 6363 0
-3885 6363 0
-6363 3849 3885 0
-3854 6364 0
-3862 6364 0
-6364 3854 3862 0
-3855 6365 0
-3870 6365 0
-6365 3855 3870 0
-3856 6366 0
-3878 6366 0
-6366 3856 3878 0
-3857 6367 0
-3886 6367 0
-6367 3857 3886 0
-3863 6368 0
-3871 6368 0
-6368 3863 3871 0
-3864 6369 0
-3879 6369 0
-6369 3864 3879 0
-3865 6370 0
-3887 6370 0
-6370 3865 3887 0
-3872 6371 0
-3880 6371 0
-6371 3872 3880 0
-3873 6372 0
-3888 6372 0
-6372 3873 3888 0
-3881 6373 0
-3889 6373 0
-6373 3881 3889 0
-4394 6374 0
-4402 6374 0
-6374 4394 4402 0
-4395 6375 0
-4410 6375 0
-6375 4395 4410 0
-4396 6376 0
-4418 6376 0
-6376 4396 4418 0
-4397 6377 0
-4426 6377 0
-6377 4397 4426 0
-4398 6378 0
-4434 6378 0
-6378 4398 4434 0
-4399 6379 0
-4442 6379 0
-6379 4399 4442 0
-4400 6380 0
-4450 6380 0
-6380 4400 4450 0
-4401 6381 0
-4458 6381 0
-6381 4401 4458 0
-4403 6382 0
-4411 6382 0
-6382 4403 4411 0
-4404 6383 0
-4419 6383 0
-6383 4404 4419 0
-4405 6384 0
-4427 6384 0
-6384 4405 4427 0
-4406 6385 0
-4435 6385 0
-6385 4406 4435 0
-4407 6386 0
-4443 6386 0
-6386 4407 4443 0
-4408 6387 0
-4451 6387 0
-6387 4408 4451 0
-4409 6388 0
-4459 6388 0
-6388 4409 4459 0
-4412 6389 0
-4420 6389 0
-6389 4412 4420 0
-4413 6390 0
-4428 6390 0
-6390 4413 4428 0
-4414 6391 0
-4436 6391 0
-6391 4414 4436 0
-4415 6392 0
-4444 6392 0
-6392 4415 4444 0
-4416 6393 0
-4452 6393 0
-6393 4416 4452 0
-4417 6394 0
-4460 6394 0
-6394 4417 4460 0
-4421 6395 0
-4429 6395 0
-6395 4421 4429 0
-4422 6396 0
-4437 6396 0
-6396 4422 4437 0
-4423 6397 0
-4445 6397 0
-6397 4423 4445 0
-4424 6398 0
-4453 6398 0
-6398 4424 4453 0
-4425 6399 0
-4461 6399 0
-6399 4425 4461 0
-4430 6400 0
-4438 6400 0
-6400 4430 4438 0
-4431 6401 0
-4446 6401 0
-6401 4431 4446 0
-4432 6402 0
-4454 6402 0
-6402 4432 4454 0
-4433 6403 0
-4462 6403 0
-6403 4433 4462 0
-4439 6404 0
-4447 6404 0
-6404 4439 4447 0
-4440 6405 0
-4455 6405 0
-6405 4440 4455 0
-4441 6406 0
-4463 6406 0
-6406 4441 4463 0
-4448 6407 0
-4456 6407 0
-6407 4448 4456 0
-4449 6408 0
-4464 6408 0
-6408 4449 4464 0
-4457 6409 0
-4465 6409 0
-6409 4457 4465 0
-4970 6410 0
-4978 6410 0
-6410 4970 4978 0
-4971 6411 0
-4986 6411 0
-6411 4971 4986 0
-4972 6412 0
-4994 6412 0
-6412 4972 4994 0
-4973 6413 0
-5002 6413 0
-6413 4973 5002 0
-4974 6414 0
-5010 6414 0
-6414 4974 5010 0
-4975 6415 0
-5018 6415 0
-6415 4975 5018 0
-4976 6416 0
-5026 6416 0
-6416 4976 5026 0
-4977 6417 0
-5034 6417 0
-6417 4977 5034 0
-4979 6418 0
-4987 6418 0
-6418 4979 4987 0
-4980 6419 0
-4995 6419 0
-6419 4980 4995 0
-4981 6420 0
-5003 6420 0
-6420 4981 5003 0
-4982 6421 0
-5011 6421 0
-6421 4982 5011 0
-4983 6422 0
-5019 6422 0
-6422 4983 5019 0
-4984 6423 0
-5027 6423 0
-6423 4984 5027 0
-4985 6424 0
-5035 6424 0
-6424 4985 5035 0
-4988 6425 0
-4996 6425 0
-6425 4988 4996 0
-4989 6426 0
-5004 6426 0
-6426 4989 5004 0
-4990 6427 0
-5012 6427 0
-6427 4990 5012 0
-4991 6428 0
-5020 6428 0
-6428 4991 5020 0
-4992 6429 0
-5028 6429 0
-6429 4992 5028 0
-4993 6430 0
-5036 6430 0
-6430 4993 5036 0
-4997 6431 0
-5005 6431 0
-6431 4997 5005 0
-4998 6432 0
-5013 6432 0
-6432 4998 5013 0
-4999 6433 0
-5021 6433 0
-6433 4999 5021 0
-5000 6434 0
-5029 6434 0
-6434 5000 5029 0
-5001 6435 0
-5037 6435 0
-6435 5001 5037 0
-5006 6436 0
-5014 6436 0
-6436 5006 5014 0
-5007 6437 0
-5022 6437 0
-6437 5007 5022 0
-5008 6438 0
-5030 6438 0
-6438 5008 5030 0
-5009 6439 0
-5038 6439 0
-6439 5009 5038 0
-5015 6440 0
-5023 6440 0
-6440 5015 5023 0
-5016 6441 0
-5031 6441 0
-6441 5016 5031 0
-5017 6442 0
-5039 6442 0
-6442 5017 5039 0
-5024 6443 0
-5032 6443 0
-6443 5024 5032 0
-5025 6444 0
-5040 6444 0
-6444 5025 5040 0
-5033 6445 0
-5041 6445 0
-6445 5033 5041 0
-5546 6446 0
-5554 6446 0
-6446 5546 5554 0
-5547 6447 0
-5562 6447 0
-6447 5547 5562 0
-5548 6448 0
-5570 6448 0
-6448 5548 5570 0
-5549 6449 0
-5578 6449 0
-6449 5549 5578 0
-5550 6450 0
-5586 6450 0
-6450 5550 5586 0
-5551 6451 0
-5594 6451 0
-6451 5551 5594 0
-5552 6452 0
-5602 6452 0
-6452 5552 5602 0
-5553 6453 0
-5610 6453 0
-6453 5553 5610 0
-5555 6454 0
-5563 6454 0
-6454 5555 5563 0
-5556 6455 0
-5571 6455 0
-6455 5556 5571 0
-5557 6456 0
-5579 6456 0
-6456 5557 5579 0
-5558 6457 0
-5587 6457 0
-6457 5558 5587 0
-5559 6458 0
-5595 6458 0
-6458 5559 5595 0
-5560 6459 0
-5603 6459 0
-6459 5560 5603 0
-5561 6460 0
-5611 6460 0
-6460 5561 5611 0
-5564 6461 0
-5572 6461 0
-6461 5564 5572 0
-5565 6462 0
-5580 6462 0
-6462 5565 5580 0
-5566 6463 0
-5588 6463 0
-6463 5566 5588 0
-5567 6464 0
-5596 6464 0
-6464 5567 5596 0
-5568 6465 0
-5604 6465 0
-6465 5568 5604 0
-5569 6466 0
-5612 6466 0
-6466 5569 5612 0
-5573 6467 0
-5581 6467 0
-6467 5573 5581 0
-5574 6468 0
-5589 6468 0
-6468 5574 5589 0
-5575 6469 0
-5597 6469 0
-6469 5575 5597 0
-5576 6470 0
-5605 6470 0
-6470 5576 5605 0
-5577 6471 0
-5613 6471 0
-6471 5577 5613 0
-5582 6472 0
-5590 6472 0
-6472 5582 5590 0
-5583 6473 0
-5598 6473 0
-6473 5583 5598 0
-5584 6474 0
-5606 6474 0
-6474 5584 5606 0
-5585 6475 0
-5614 6475 0
-6475 5585 5614 0
-5591 6476 0
-5599 6476 0
-6476 5591 5599 0
-5592 6477 0
-5607 6477 0
-6477 5592 5607 0
-5593 6478 0
-5615 6478 0
-6478 5593 5615 0
-5600 6479 0
-5608 6479 0
-6479 5600 5608 0
-5601 6480 0
-5616 6480 0
-6480 5601 5616 0
-5609 6481 0
-5617 6481 0
-6481 5609 5617 0
-6482 -2 0
-6482 6122 0
-6482 6158 0
-6482 6194 0
6482 2 -6122 -6158 -6194 0
-6483 -3 0
-6483 6123 0
-6483 6159 0
-6483 6230 0
6483 3 -6123 -6159 -6230 0
-6484 -4 0
-6484 6124 0
-6484 6160 0
-6484 6266 0
6484 4 -6124 -6160 -6266 0
-6485 -5 0
-6485 6125 0
-6485 6161 0
-6485 6302 0
6485 5 -6125 -6161 -6302 0
-6486 -6 0
-6486 6126 0
-6486 6162 0
-6486 6338 0
6486 6 -6126 -6162 -6338 0
-6487 -7 0
-6487 6127 0
-6487 6163 0
-6487 6374 0
6487 7 -6127 -6163 -6374 0
-6488 -8 0
-6488 6128 0
-6488 6164 0
-6488 6410 0
6488 8 -6128 -6164 -6410 0
-6489 -9 0
-6489 6129 0
-6489 6165 0
-6489 6446 0
6489 9 -6129 -6165 -6446 0
-6490 -10 0
-6490 6130 0
-6490 6195 0
-6490 6231 0
6490 10 -6130 -6195 -6231 0
-6491 -11 0
-6491 6131 0
-6491 6196 0
-6491 6267 0
6491 11 -6131 -6196 -6267 0
-6492 -12 0
-6492 6132 0
-6492 6197 0
-6492 6303 0
6492 12 -6132 -6197 -6303 0
-6493 -13 0
-6493 6133 0
-6493 6198 0
-6493 6339 0
6493 13 -6133 -6198 -6339 0
-6494 -14 0
-6494 6134 0
-6494 6199 0
-6494 6375 0
6494 14 -6134 -6199 -6375 0
-6495 -15 0
-6495 6135 0
-6495 6200 0
-6495 6411 0
6495 15 -6135 -6200 -6411 0
-6496 -16 0
-6496 6136 0
-6496 6201 0
-6496 6447 0
6496 16 -6136 -6201 -6447 0
-6497 -17 0
-6497 6137 0
-6497 6232 0
-6497 6268 0
6497 17 -6137 -6232 -6268 0
-6498 -18 0
-6498 6138 0
-6498 6233 0
-6498 6304 0
6498 18 -6138 -6233 -6304 0
-6499 -19 0
-6499 6139 0
-6499 6234 0
-6499 6340 0
6499 19 -6139 -6234 -6340 0
-6500 -20 0
-6500 6140 0
-6500 6235 0
-6500 6376 0
6500 20 -6140 -6235 -6376 0
-6501 -21 0
-6501 6141 0
-6501 6236 0
-6501 6412 0
6501 21 -6141 -6236 -6412 0
-6502 -22 0
-6502 6142 0
-6502 6237 0
-6502 6448 0
6502 22 -6142 -6237 -6448 0
-6503 -23 0
-6503 6143 0
-6503 6269 0
-6503 6305 0
6503 23 -6143 -6269 -6305 0
-6504 -24 0
-6504 6144 0
-6504 6270 0
-6504 6341 0
6504 24 -6144 -6270 -6341 0
-6505 -25 0
-6505 6145 0
-6505 6271 0
-6505 6377 0
6505 25 -6145 -6271 -6377 0
-6506 -26 0
-6506 6146 0
-6506 6272 0
-6506 6413 0
6506 26 -6146 -6272 -6413 0
-6507 -27 0
-6507 6147 0
-6507 6273 0
-6507 6449 0
6507 27 -6147 -6273 -6449 0
-6508 -28 0
-6508 6148 0
-6508 6306 0
-6508 6342 0
6508 28 -6148 -6306 -6342 0
-6509 -29 0
-6509 6149 0
-6509 6307 0
-6509 6378 0
6509 29 -6149 -6307 -6378 0
-6510 -30 0
-6510 6150 0
-6510 6308 0
-6510 6414 0
6510 30 -6150 -6308 -6414 0
-6511 -31 0
-6511 6151 0
-6511 6309 0
-6511 6450 0
6511 31 -6151 -6309 -6450 0
-6512 -32 0
-6512 6152 0
-6512 6343 0
-6512 6379 0
6512 32 -6152 -6343 -6379 0
-6513 -33 0
-6513 6153 0
-6513 6344 0
-6513 6415 0
6513 33 -6153 -6344 -6415 0
-6514 -34 0
-6514 6154 0
-6514 6345 0
-6514 6451 0
6514 34 -6154 -6345 -6451 0
-6515 -35 0
-6515 6155 0
-6515 6380 0
-6515 6416 0
6515 35 -6155 -6380 -6416 0
-6516 -36 0
-6516 6156 0
-6516 6381 0
-6516 6452 0
6516 36 -6156 -6381 -6452 0
-6517 -37 0
-6517 6157 0
-6517 6417 0
-6517 6453 0
6517 37 -6157 -6417 -6453 0
-6518 -38 0
-6518 6166 0
-6518 6202 0
-6518 6238 0
6518 38 -6166 -6202 -6238 0
-6519 -39 0
-6519 6167 0
-6519 6203 0
-6519 6274 0
6519 39 -6167 -6203 -6274 0
-6520 -40 0
-6520 6168 0
-6520 6204 0
-6520 6310 0
6520 40 -6168 -6204 -6310 0
-6521 -41 0
-6521 6169 0
-6521 6205 0
-6521 6346 0
6521 41 -6169 -6205 -6346 0
-6522 -42 0
-6522 6170 0
-6522 6206 0
-6522 6382 0
6522 42 -6170 -6206 -6382 0
-6523 -43 0
-6523 6171 0
-6523 6207 0
-6523 6418 0
6523 43 -6171 -6207 -6418 0
-6524 -44 0
-6524 6172 0
-6524 6208 0
-6524 6454 0
6524 44 -6172 -6208 -6454 0
-6525 -45 0
-6525 6173 0
-6525 6239 0
-6525 6275 0
6525 45 -6173 -6239 -6275 0
-6526 -46 0
-6526 6174 0
-6526 6240 0
-6526 6311 0
6526 46 -6174 -6240 -6311 0
-6527 -47 0
-6527 6175 0
-6527 6241 0
-6527 6347 0
6527 47 -6175 -6241 -6347 0
-6528 -48 0
-6528 6176 0
-6528 6242 0
-6528 6383 0
6528 48 -6176 -6242 -6383 0
-6529 -49 0
-6529 6177 0
-6529 6243 0
-6529 6419 0
6529 49 -6177 -6243 -6419 0
-6530 -50 0
-6530 6178 0
-6530 6244 0
-6530 6455 0
6530 50 -6178 -6244 -6455 0
-6531 -51 0
-6531 6179 0
-6531 6276 0
-6531 6312 0
6531 51 -6179 -6276 -6312 0
-6532 -52 0
-6532 6180 0
-6532 6277 0
-6532 6348 0
6532 52 -6180 -6277 -6348 0
-6533 -53 0
-6533 6181 0
-6533 6278 0
-6533 6384 0
6533 53 -6181 -6278 -6384 0
-6534 -54 0
-6534 6182 0
-6534 6279 0
-6534 6420 0
6534 54 -6182 -6279 -6420 0
-6535 -55 0
-6535 6183 0
-6535 6280 0
-6535 6456 0
6535 55 -6183 -6280 -6456 0
-6536 -56 0
-6536 6184 0
-6536 6313 0
-6536 6349 0
6536 56 -6184 -6313 -6349 0
-6537 -57 0
-6537 6185 0
-6537 6314 0
-6537 6385 0
6537 57 -6185 -6314 -6385 0
-6538 -58 0
-6538 6186 0
-6538 6315 0
-6538 6421 0
6538 58 -6186 -6315 -6421 0
-6539 -59 0
-6539 6187 0
-6539 6316 0
-6539 6457 0
6539 59 -6187 -6316 -6457 0
-6540 -60 0
-6540 6188 0
-6540 6350 0
-6540 6386 0
6540 60 -6188 -6350 -6386 0
-6541 -61 0
-6541 6189 0
-6541 6351 0
-6541 6422 0
6541 61 -6189 -6351 -6422 0
-6542 -62 0
-6542 6190 0
-6542 6352 0
-6542 6458 0
6542 62 -6190 -6352 -6458 0
-6543 -63 0
-6543 6191 0
-6543 6387 0
-6543 6423 0
6543 63 -6191 -6387 -6423 0
-6544 -64 0
-6544 6192 0
-6544 6388 0
-6544 6459 0
6544 64 -6192 -6388 -6459 0
-6545 -65 0
-6545 6193 0
-6545 6424 0
-6545 6460 0
6545 65 -6193 -6424 -6460 0
-6546 -66 0
-6546 6209 0
-6546 6245 0
-6546 6281 0
6546 66 -6209 -6245 -6281 0
-6547 -67 0
-6547 6210 0
-6547 6246 0
-6547 6317 0
6547 67 -6210 -6246 -6317 0
-6548 -68 0
-6548 6211 0
-6548 6247 0
-6548 6353 0
6548 68 -6211 -6247 -6353 0
-6549 -69 0
-6549 6212 0
-6549 6248 0
-6549 6389 0
6549 69 -6212 -6248 -6389 0
-6550 -70 0
-6550 6213 0
-6550 6249 0
-6550 6425 0
6550 70 -6213 -6249 -6425 0
-6551 -71 0
-6551 6214 0
-6551 6250 0
-6551 6461 0
6551 71 -6214 -6250 -6461 0
-6552 -72 0
-6552 6215 0
-6552 6282 0
-6552 6318 0
6552 72 -6215 -6282 -6318 0
-6553 -73 0
-6553 6216 0
-6553 6283 0
-6553 6354 0
6553 73 -6216 -6283 -6354 0
-6554 -74 0
-6554 6217 0
-6554 6284 0
-6554 6390 0
6554 74 -6217 -6284 -6390 0
-6555 -75 0
-6555 6218 0
-6555 6285 0
-6555 6426 0
6555 75 -6218 -6285 -6426 0
-6556 -76 0
-6556 6219 0
-6556 6286 0
-6556 6462 0
6556 76 -6219 -6286 -6462 0
-6557 -77 0
-6557 6220 0
-6557 6319 0
-6557 6355 0
6557 77 -6220 -6319 -6355 0
-6558 -78 0
-6558 6221 0
-6558 6320 0
-6558 6391 0
6558 78 -6221 -6320 -6391 0
-6559 -79 0
-6559 6222 0
-6559 6321 0
-6559 6427 0
6559 79 -6222 -6321 -6427 0
-6560 -80 0
-6560 6223 0
-6560 6322 0
-6560 6463 0
6560 80 -6223 -6322 -6463 0
-6561 -81 0
-6561 6224 0
-6561 6356 0
-6561 6392 0
6561 81 -6224 -6356 -6392 0
-6562 -82 0
-6562 6225 0
-6562 6357 0
-6562 6428 0
6562 82 -6225 -6357 -6428 0
-6563 -83 0
-6563 6226 0
-6563 6358 0
-6563 6464 0
6563 83 -6226 -6358 -6464 0
-6564 -84 0
-6564 6227 0
-6564 6393 0
-6564 6429 0
6564 84 -6227 -6393 -6429 0
-6565 -85 0
-6565 6228 0
-6565 6394 0
-6565 6465 0
6565 85 -6228 -6394 -6465 0
-6566 -86 0
-6566 6229 0
-6566 6430 0
-6566 6466 0
6566 86 -6229 -6430 -6466 0
-6567 -87 0
-6567 6251 0
-6567 6287 0
-6567 6323 0
6567 87 -6251 -6287 -6323 0
-6568 -88 0
-6568 6252 0
-6568 6288 0
-6568 6359 0
6568 88 -6252 -6288 -6359 0
-6569 -89 0
-6569 6253 0
-6569 6289 0
-6569 6395 0
6569 89 -6253 -6289 -6395 0
-6570 -90 0
-6570 6254 0
-6570 6290 0
-6570 6431 0
6570 90 -6254 -6290 -6431 0
-6571 -91 0
-6571 6255 0
-6571 6291 0
-6571 6467 0
6571 91 -6255 -6291 -6467 0
-6572 -92 0
-6572 6256 0
-6572 6324 0
-6572 6360 0
6572 92 -6256 -6324 -6360 0
-6573 -93 0
-6573 6257 0
-6573 6325 0
-6573 6396 0
6573 93 -6257 -6325 -6396 0
-6574 -94 0
-6574 6258 0
-6574 6326 0
-6574 6432 0
6574 94 -6258 -6326 -6432 0
-6575 -95 0
-6575 6259 0
-6575 6327 0
-6575 6468 0
6575 95 -6259 -6327 -6468 0
-6576 -96 0
-6576 6260 0
-6576 6361 0
-6576 6397 0
6576 96 -6260 -6361 -6397 0
-6577 -97 0
-6577 6261 0
-6577 6362 0
-6577 6433 0
6577 97 -6261 -6362 -6433 0
-6578 -98 0
-6578 6262 0
-6578 6363 0
-6578 6469 0
6578 98 -6262 -6363 -6469 0
-6579 -99 0
-6579 6263 0
-6579 6398 0
-6579 6434 0
6579 99 -6263 -6398 -6434 0
-6580 -100 0
-6580 6264 0
-6580 6399 0
-6580 6470 0
6580 100 -6264 -6399 -6470 0
-6581 -101 0
-6581 6265 0
-6581 6435 0
-6581 6471 0
6581 101 -6265 -6435 -6471 0
-6582 -102 0
-6582 6292 0
-6582 6328 0
-6582 6364 0
6582 102 -6292 -6328 -6364 0
-6583 -103 0
-6583 6293 0
-6583 6329 0
-6583 6400 0
6583 103 -6293 -6329 -6400 0
-6584 -104 0
-6584 6294 0
-6584 6330 0
-6584 6436 0
6584 104 -6294 -6330 -6436 0
-6585 -105 0
-6585 6295 0
-6585 6331 0
-6585 6472 0
6585 105 -6295 -6331 -6472 0
-6586 -106 0
-6586 6296 0
-6586 6365 0
-6586 6401 0
6586 106 -6296 -6365 -6401 0
-6587 -107 0
-6587 6297 0
-6587 6366 0
-6587 6437 0
6587 107 -6297 -6366 -6437 0
-6588 -108 0
-6588 6298 0
-6588 6367 0
-6588 6473 0
6588 108 -6298 -6367 -6473 0
-6589 -109 0
-6589 6299 0
-6589 6402 0
-6589 6438 0
6589 109 -6299 -6402 -6438 0
-6590 -110 0
-6590 6300 0
-6590 6403 0
-6590 6474 0
6590 110 -6300 -6403 -6474 0
-6591 -111 0
-6591 6301 0
-6591 6439 0
-6591 6475 0
6591 111 -6301 -6439 -6475 0
-6592 -112 0
-6592 6332 0
-6592 6368 0
-6592 6404 0
6592 112 -6332 -6368 -6404 0
-6593 -113 0
-6593 6333 0
-6593 6369 0
-6593 6440 0
6593 113 -6333 -6369 -6440 0
-6594 -114 0
-6594 6334 0
-6594 6370 0
-6594 6476 0
6594 114 -6334 -6370 -6476 0
-6595 -115 0
-6595 6335 0
-6595 6405 0
-6595 6441 0
6595 115 -6335 -6405 -6441 0
-6596 -116 0
-6596 6336 0
-6596 6406 0
-6596 6477 0
6596 116 -6336 -6406 -6477 0
-6597 -117 0
-6597 6337 0
-6597 6442 0
-6597 6478 0
6597 117 -6337 -6442 -6478 0
-6598 -118 0
-6598 6371 0
-6598 6407 0
-6598 6443 0
6598 118 -6371 -6407 -6443 0
-6599 -119 0
-6599 6372 0
-6599 6408 0
-6599 6479 0
6599 119 -6372 -6408 -6479 0
-6600 -120 0
-6600 6373 0
-6600 6444 0
-6600 6480 0
6600 120 -6373 -6444 -6480 0
-6601 -121 0
-6601 6409 0
-6601 6445 0
-6601 6481 0
6601 121 -6409 -6445 -6481 0
-2 6602 0
-3 6602 0
-4 6602 0
-5 6602 0
-6 6602 0
-7 6602 0
-8 6602 0
-9 6602 0
-6602 2 3 4 5 6 7 8 9 0
-2 6603 0
-10 6603 0
-11 6603 0
-12 6603 0
-13 6603 0
-14 6603 0
-15 6603 0
-16 6603 0
-6603 2 10 11 12 13 14 15 16 0
-3 6604 0
-10 6604 0
-17 6604 0
-18 6604 0
-19 6604 0
-20 6604 0
-21 6604 0
-22 6604 0
-6604 3 10 17 18 19 20 21 22 0
-4 6605 0
-11 6605 0
-17 6605 0
-23 6605 0
-24 6605 0
-25 6605 0
-26 6605 0
-27 6605 0
-6605 4 11 17 23 24 25 26 27 0
-5 6606 0
-12 6606 0
-18 6606 0
-23 6606 0
-28 6606 0
-29 6606 0
-30 6606 0
-31 6606 0
-6606 5 12 18 23 28 29 30 31 0
-6 6607 0
-13 6607 0
-19 6607 0
-24 6607 0
-28 6607 0
-32 6607 0
-33 6607 0
-34 6607 0
-6607 6 13 19 24 28 32 33 34 0
-7 6608 0
-14 6608 0
-20 6608 0
-25 6608 0
-29 6608 0
-32 6608 0
-35 6608 0
-36 6608 0
-6608 7 14 20 25 29 32 35 36 0
-8 6609 0
-15 6609 0
-21 6609 0
-26 6609 0
-30 6609 0
-33 6609 0
-35 6609 0
-37 6609 0
-6609 8 15 21 26 30 33 35 37 0
-9 6610 0
-16 6610 0
-22 6610 0
-27 6610 0
-31 6610 0
-34 6610 0
-36 6610 0
-37 6610 0
-6610 9 16 22 27 31 34 36 37 0
-2 6611 0
-38 6611 0
-39 6611 0
-40 6611 0
-41 6611 0
-42 6611 0
-43 6611 0
-44 6611 0
-6611 2 38 39 40 41 42 43 44 0
-3 6612 0
-38 6612 0
-45 6612 0
-46 6612 0
-47 6612 0
-48 6612 0
-49 6612 0
-50 6612 0
-6612 3 38 45 46 47 48 49 50 0
-4 6613 0
-39 6613 0
-45 6613 0
-51 6613 0
-52 6613 0
-53 6613 0
-54 6613 0
-55 6613 0
-6613 4 39 45 51 52 53 54 55 0
-5 6614 0
-40 6614 0
-46 6614 0
-51 6614 0
-56 6614 0
-57 6614 0
-58 6614 0
-59 6614 0
-6614 5 40 46 51 56 57 58 59 0
-6 6615 0
-41 6615 0
-47 6615 0
-52 6615 0
-56 6615 0
-60 6615 0
-61 6615 0
-62 6615 0
-6615 6 41 47 52 56 60 61 62 0
-7 6616 0
-42 6616 0
-48 6616 0
-53 6616 0
-57 6616 0
-60 6616 0
-63 6616 0
-64 6616 0
-6616 7 42 48 53 57 60 63 64 0
-8 6617 0
-43 6617 0
-49 6617 0
-54 6617 0
-58 6617 0
-61 6617 0
-63 6617 0
-65 6617 0
-6617 8 43 49 54 58 61 63 65 0
-9 6618 0
-44 6618 0
-50 6618 0
-55 6618 0
-59 6618 0
-62 6618 0
-64 6618 0
-65 6618 0
-6618 9 44 50 55 59 62 64 65 0
-10 6619 0
-38 6619 0
-66 6619 0
-67 6619 0
-68 6619 0
-69 6619 0
-70 6619 0
-71 6619 0
-6619 10 38 66 67 68 69 70 71 0
-11 6620 0
-39 6620 0
-66 6620 0
-72 6620 0
-73 6620 0
-74 6620 0
-75 6620 0
-76 6620 0
-6620 11 39 66 72 73 74 75 76 0
-12 6621 0
-40 6621 0
-67 6621 0
-72 6621 0
-77 6621 0
-78 6621 0
-79 6621 0
-80 6621 0
-6621 12 40 67 72 77 78 79 80 0
-13 6622 0
-41 6622 0
-68 6622 0
-73 6622 0
-77 6622 0
-81 6622 0
-82 6622 0
-83 6622 0
-6622 13 41 68 73 77 81 82 83 0
-14 6623 0
-42 6623 0
-69 6623 0
-74 6623 0
-78 6623 0
-81 6623 0
-84 6623 0
-85 6623 0
-6623 14 42 69 74 78 81 84 85 0
-15 6624 0
-43 6624 0
-70 6624 0
-75 6624 0
-79 6624 0
-82 6624 0
-84 6624 0
-86 6624 0
-6624 15 43 70 75 79 82 84 86 0
-16 6625 0
-44 6625 0
-71 6625 0
-76 6625 0
-80 6625 0
-83 6625 0
-85 6625 0
-86 6625 0
-6625 16 44 71 76 80 83 85 86 0
-17 6626 0
-45 6626 0
-66 6626 0
-87 6626 0
-88 6626 0
-89 6626 0
-90 6626 0
-91 6626 0
-6626 17 45 66 87 88 89 90 91 0
-18 6627 0
-46 6627 0
-67 6627 0
-87 6627 0
-92 6627 0
-93 6627 0
-94 6627 0
-95 6627 0
-6627 18 46 67 87 92 93 94 95 0
-19 6628 0
-47 6628 0
-68 6628 0
-88 6628 0
-92 6628 0
-96 6628 0
-97 6628 0
-98 6628 0
-6628 19 47 68 88 92 96 97 98 0
-20 6629 0
-48 6629 0
-69 6629 0
-89 6629 0
-93 6629 0
-96 6629 0
-99 6629 0
-100 6629 0
-6629 20 48 69 89 93 96 99 100 0
-21 6630 0
-49 6630 0
-70 6630 0
-90 6630 0
-94 6630 0
-97 6630 0
-99 6630 0
-101 6630 0
-6630 21 49 70 90 94 97 99 101 0
-22 6631 0
-50 6631 0
-71 6631 0
-91 6631 0
-95 6631 0
-98 6631 0
-100 6631 0
-101 6631 0
-6631 22 50 71 91 95 98 100 101 0
-23 6632 0
-51 6632 0
-72 6632 0
-87 6632 0
-102 6632 0
-103 6632 0
-104 6632 0
-105 6632 0
-6632 23 51 72 87 102 103 104 105 0
-24 6633 0
-52 6633 0
-73 6633 0
-88 6633 0
-102 6633 0
-106 6633 0
-107 6633 0
-108 6633 0
-6633 24 52 73 88 102 106 107 108 0
-25 6634 0
-53 6634 0
-74 6634 0
-89 6634 0
-103 6634 0
-106 6634 0
-109 6634 0
-110 6634 0
-6634 25 53 74 89 103 106 109 110 0
-26 6635 0
-54 6635 0
-75 6635 0
-90 6635 0
-104 6635 0
-107 6635 0
-109 6635 0
-111 6635 0
-6635 26 54 75 90 104 107 109 111 0
-27 6636 0
-55 6636 0
-76 6636 0
-91 6636 0
-105 6636 0
-108 6636 0
-110 6636 0
-111 6636 0
-6636 27 55 76 91 105 108 110 111 0
-28 6637 0
-56 6637 0
-77 6637 0
-92 6637 0
-102 6637 0
-112 6637 0
-113 6637 0
-114 6637 0
-6637 28 56 77 92 102 112 113 114 0
-29 6638 0
-57 6638 0
-78 6638 0
-93 6638 0
-103 6638 0
-112 6638 0
-115 6638 0
-116 6638 0
-6638 29 57 78 93 103 112 115 116 0
-30 6639 0
-58 6639 0
-79 6639 0
-94 6639 0
-104 6639 0
-113 6639 0
-115 6639 0
-117 6639 0
-6639 30 58 79 94 104 113 115 117 0
-31 6640 0
-59 6640 0
-80 6640 0
-95 6640 0
-105 6640 0
-114 6640 0
-116 6640 0
-117 6640 0
-6640 31 59 80 95 105 114 116 117 0
-32 6641 0
-60 6641 0
-81 6641 0
-96 6641 0
-106 6641 0
-112 6641 0
-118 6641 0
-119 6641 0
-6641 32 60 81 96 106 112 118 119 0
-33 6642 0
-61 6642 0
-82 6642 0
-97 6642 0
-107 6642 0
-113 6642 0
-118 6642 0
-120 6642 0
-6642 33 61 82 97 107 113 118 120 0
-34 6643 0
-62 6643 0
-83 6643 0
-98 6643 0
-108 6643 0
-114 6643 0
-119 6643 0
-120 6643 0
-6643 34 62 83 98 108 114 119 120 0
-35 6644 0
-63 6644 0
-84 6644 0
-99 6644 0
-109 6644 0
-115 6644 0
-118 6644 0
-121 6644 0
-6644 35 63 84 99 109 115 118 121 0
-36 6645 0
-64 6645 0
-85 6645 0
-100 6645 0
-110 6645 0
-116 6645 0
-119 6645 0
-121 6645 0
-6645 36 64 85 100 110 116 119 121 0
-37 6646 0
-65 6646 0
-86 6646 0
-101 6646 0
-111 6646 0
-117 6646 0
-120 6646 0
-121 6646 0
-6646 37 65 86 101 111 117 120 121 0
-6647 2 0
-6647 3 0
6647 -2 -3 0
-6648 2 0
-6648 4 0
6648 -2 -4 0
-6649 2 0
-6649 5 0
6649 -2 -5 0
-6650 2 0
-6650 6 0
6650 -2 -6 0
-6651 2 0
-6651 7 0
6651 -2 -7 0
-6652 2 0
-6652 8 0
6652 -2 -8 0
-6653 2 0
-6653 9 0
6653 -2 -9 0
-6654 3 0
-6654 4 0
6654 -3 -4 0
-6655 3 0
-6655 5 0
6655 -3 -5 0
-6656 3 0
-6656 6 0
6656 -3 -6 0
-6657 3 0
-6657 7 0
6657 -3 -7 0
-6658 3 0
-6658 8 0
6658 -3 -8 0
-6659 3 0
-6659 9 0
6659 -3 -9 0
-6660 4 0
-6660 5 0
6660 -4 -5 0
-6661 4 0
-6661 6 0
6661 -4 -6 0
-6662 4 0
-6662 7 0
6662 -4 -7 0
-6663 4 0
-6663 8 0
6663 -4 -8 0
-6664 4 0
-6664 9 0
6664 -4 -9 0
-6665 5 0
-6665 6 0
6665 -5 -6 0
-6666 5 0
-6666 7 0
6666 -5 -7 0
-6667 5 0
-6667 8 0
6667 -5 -8 0
-6668 5 0
-6668 9 0
6668 -5 -9 0
-6669 6 0
-6669 7 0
6669 -6 -7 0
-6670 6 0
-6670 8 0
6670 -6 -8 0
-6671 6 0
-6671 9 0
6671 -6 -9 0
-6672 7 0
-6672 8 0
6672 -7 -8 0
-6673 7 0
-6673 9 0
6673 -7 -9 0
-6674 8 0
-6674 9 0
6674 -8 -9 0
-6647 6675 0
-6648 6675 0
-6649 6675 0
-6650 6675 0
-6651 6675 0
-6652 6675 0
-6653 6675 0
-6654 6675 0
-6655 6675 0
-6656 6675 0
-6657 6675 0
-6658 6675 0
-6659 6675 0
-6660 6675 0
-6661 6675 0
-6662 6675 0
-6663 6675 0
-6664 6675 0
-6665 6675 0
-6666 6675 0
-6667 6675 0
-6668 6675 0
-6669 6675 0
-6670 6675 0
-6671 6675 0
-6672 6675 0
-6673 6675 0
-6674 6675 0
-6675 6647 6648 6649 6650 6651 6652 6653 6654 6655 6656 6657 6658 6659 6660 6661 6662 6663 6664 6665 6666 6667 6668 6669 6670 6671 6672 6673 6674 0
-6676 2 0
-6676 10 0
6676 -2 -10 0
-6677 2 0
-6677 11 0
6677 -2 -11 0
-6678 2 0
-6678 12 0
6678 -2 -12 0
-6679 2 0
-6679 13 0
6679 -2 -13 0
-6680 2 0
-6680 14 0
6680 -2 -14 0
-6681 2 0
-6681 15 0
6681 -2 -15 0
-6682 2 0
-6682 16 0
6682 -2 -16 0
-6683 10 0
-6683 11 0
6683 -10 -11 0
-6684 10 0
-6684 12 0
6684 -10 -12 0
-6685 10 0
-6685 13 0
6685 -10 -13 0
-6686 10 0
-6686 14 0
6686 -10 -14 0
-6687 10 0
-6687 15 0
6687 -10 -15 0
-6688 10 0
-6688 16 0
6688 -10 -16 0
-6689 11 0
-6689 12 0
6689 -11 -12 0
-6690 11 0
-6690 13 0
6690 -11 -13 0
-6691 11 0
-6691 14 0
6691 -11 -14 0
-6692 11 0
-6692 15 0
6692 -11 -15 0
-6693 11 0
-6693 16 0
6693 -11 -16 0
-6694 12 0
-6694 13 0
6694 -12 -13 0
-6695 12 0
-6695 14 0
6695 -12 -14 0
-6696 12 0
-6696 15 0
6696 -12 -15 0
-6697 12 0
-6697 16 0
6697 -12 -16 0
-6698 13 0
-6698 14 0
6698 -13 -14 0
-6699 13 0
-6699 15 0
6699 -13 -15 0
-6700 13 0
-6700 16 0
6700 -13 -16 0
-6701 14 0
-6701 15 0
6701 -14 -15 0
-6702 14 0
-6702 16 0
6702 -14 -16 0
-6703 15 0
-6703 16 0
6703 -15 -16 0
-6676 6704 0
-6677 6704 0
-6678 6704 0
-6679 6704 0
-6680 6704 0
-6681 6704 0
-6682 6704 0
-6683 6704 0
-6684 6704 0
-6685 6704 0
-6686 6704 0
-6687 6704 0
-6688 6704 0
-6689 6704 0
-6690 6704 0
-6691 6704 0
-6692 6704 0
-6693 6704 0
-6694 6704 0
-6695 6704 0
-6696 6704 0
-6697 6704 0
-6698 6704 0
-6699 6704 0
-6700 6704 0
-6701 6704 0
-6702 6704 0
-6703 6704 0
-6704 6676 6677 6678 6679 6680 6681 6682 6683 6684 6685 6686 6687 6688 6689 6690 6691 6692 6693 6694 6695 6696 6697 6698 6699 6700 6701 6702 6703 0
-6705 3 0
-6705 10 0
6705 -3 -10 0
-6706 3 0
-6706 17 0
6706 -3 -17 0
-6707 3 0
-6707 18 0
6707 -3 -18 0
-6708 3 0
-6708 19 0
6708 -3 -19 0
-6709 3 0
-6709 20 0
6709 -3 -20 0
-6710 3 0
-6710 21 0
6710 -3 -21 0
-6711 3 0
-6711 22 0
6711 -3 -22 0
-6712 10 0
-6712 17 0
6712 -10 -17 0
-6713 10 0
-6713 18 0
6713 -10 -18 0
-6714 10 0
-6714 19 0
6714 -10 -19 0
-6715 10 0
-6715 20 0
6715 -10 -20 0
-6716 10 0
-6716 21 0
6716 -10 -21 0
-6717 10 0
-6717 22 0
6717 -10 -22 0
-6718 17 0
-6718 18 0
6718 -17 -18 0
-6719 17 0
-6719 19 0
6719 -17 -19 0
-6720 17 0
-6720 20 0
6720 -17 -20 0
-6721 17 0
-6721 21 0
6721 -17 -21 0
-6722 17 0
-6722 22 0
6722 -17 -22 0
-6723 18 0
-6723 19 0
6723 -18 -19 0
-6724 18 0
-6724 20 0
6724 -18 -20 0
-6725 18 0
-6725 21 0
6725 -18 -21 0
-6726 18 0
-6726 22 0
6726 -18 -22 0
-6727 19 0
-6727 20 0
6727 -19 -20 0
-6728 19 0
-6728 21 0
6728 -19 -21 0
-6729 19 0
-6729 22 0
6729 -19 -22 0
-6730 20 0
-6730 21 0
6730 -20 -21 0
-6731 20 0
-6731 22 0
6731 -20 -22 0
-6732 21 0
-6732 22 0
6732 -21 -22 0
-6705 6733 0
-6706 6733 0
-6707 6733 0
-6708 6733 0
-6709 6733 0
-6710 6733 0
-6711 6733 0
-6712 6733 0
-6713 6733 0
-6714 6733 0
-6715 6733 0
-6716 6733 0
-6717 6733 0
-6718 6733 0
-6719 6733 0
-6720 6733 0
-6721 6733 0
-6722 6733 0
-6723 6733 0
-6724 6733 0
-6725 6733 0
-6726 6733 0
-6727 6733 0
-6728 6733 0
-6729 6733 0
-6730 6733 0
-6731 6733 0
-6732 6733 0
-6733 6705 6706 6707 6708 6709 6710 6711 6712 6713 6714 6715 6716 6717 6718 6719 6720 6721 6722 6723 6724 6725 6726 6727 6728 6729 6730 6731 6732 0
-6734 4 0
-6734 11 0
6734 -4 -11 0
-6735 4 0
-6735 17 0
6735 -4 -17 0
-6736 4 0
-6736 23 0
6736 -4 -23 0
-6737 4 0
-6737 24 0
6737 -4 -24 0
-6738 4 0
-6738 25 0
6738 -4 -25 0
-6739 4 0
-6739 26 0
6739 -4 -26 0
-6740 4 0
-6740 27 0
6740 -4 -27 0
-6741 11 0
-6741 17 0
6741 -11 -17 0
-6742 11 0
-6742 23 0
6742 -11 -23 0
-6743 11 0
-6743 24 0
6743 -11 -24 0
-6744 11 0
-6744 25 0
6744 -11 -25 0
-6745 11 0
-6745 26 0
6745 -11 -26 0
-6746 11 0
-6746 27 0
6746 -11 -27 0
-6747 17 0
-6747 23 0
6747 -17 -23 0
-6748 17 0
-6748 24 0
6748 -17 -24 0
-6749 17 0
-6749 25 0
6749 -17 -25 0
-6750 17 0
-6750 26 0
6750 -17 -26 0
-6751 17 0
-6751 27 0
6751 -17 -27 0
-6752 23 0
-6752 24 0
6752 -23 -24 0
-6753 23 0
-6753 25 0
6753 -23 -25 0
-6754 23 0
-6754 26 0
6754 -23 -26 0
-6755 23 0
-6755 27 0
6755 -23 -27 0
-6756 24 0
-6756 25 0
6756 -24 -25 0
-6757 24 0
-6757 26 0
6757 -24 -26 0
-6758 24 0
-6758 27 0
6758 -24 -27 0
-6759 25 0
-6759 26 0
6759 -25 -26 0
-6760 25 0
-6760 27 0
6760 -25 -27 0
-6761 26 0
-6761 27 0
6761 -26 -27 0
-6734 6762 0
-6735 6762 0
-6736 6762 0
-6737 6762 0
-6738 6762 0
-6739 6762 0
-6740 6762 0
-6741 6762 0
-6742 6762 0
-6743 6762 0
-6744 6762 0
-6745 6762 0
-6746 6762 0
-6747 6762 0
-6748 6762 0
-6749 6762 0
-6750 6762 0
-6751 6762 0
-6752 6762 0
-6753 6762 0
-6754 6762 0
-6755 6762 0
-6756 6762 0
-6757 6762 0
-6758 6762 0
-6759 6762 0
-6760 6762 0
-6761 6762 0
-6762 6734 6735 6736 6737 6738 6739 6740 6741 6742 6743 6744 6745 6746 6747 6748 6749 6750 6751 6752 6753 6754 6755 6756 6757 6758 6759 6760 6761 0
-6763 5 0
-6763 12 0
6763 -5 -12 0
-6764 5 0
-6764 18 0
6764 -5 -18 0
-6765 5 0
-6765 23 0
6765 -5 -23 0
-6766 5 0
-6766 28 0
6766 -5 -28 0
-6767 5 0
-6767 29 0
6767 -5 -29 0
-6768 5 0
-6768 30 0
6768 -5 -30 0
-6769 5 0
-6769 31 0
6769 -5 -31 0
-6770 12 0
-6770 18 0
6770 -12 -18 0
-6771 12 0
-6771 23 0
6771 -12 -23 0
-6772 12 0
-6772 28 0
6772 -12 -28 0
-6773 12 0
-6773 29 0
6773 -12 -29 0
-6774 12 0
-6774 30 0
6774 -12 -30 0
-6775 12 0
-6775 31 0
6775 -12 -31 0
-6776 18 0
-6776 23 0
6776 -18 -23 0
-6777 18 0
-6777 28 0
6777 -18 -28 0
-6778 18 0
-6778 29 0
6778 -18 -29 0
-6779 18 0
-6779 30 0
6779 -18 -30 0
-6780 18 0
-6780 31 0
6780 -18 -31 0
-6781 23 0
-6781 28 0
6781 -23 -28 0
-6782 23 0
-6782 29 0
6782 -23 -29 0
-6783 23 0
-6783 30 0
6783 -23 -30 0
-6784 23 0
-6784 31 0
6784 -23 -31 0
-6785 28 0
-6785 29 0
6785 -28 -29 0
-6786 28 0
-6786 30 0
6786 -28 -30 0
-6787 28 0
-6787 31 0
6787 -28 -31 0
-6788 29 0
-6788 30 0
6788 -29 -30 0
-6789 29 0
-6789 31 0
6789 -29 -31 0
-6790 30 0
-6790 31 0
6790 -30 -31 0
-6763 6791 0
-6764 6791 0
-6765 6791 0
-6766 6791 0
-6767 6791 0
-6768 6791 0
-6769 6791 0
-6770 6791 0
-6771 6791 0
-6772 6791 0
-6773 6791 0
-6774 6791 0
-6775 6791 0
-6776 6791 0
-6777 6791 0
-6778 6791 0
-6779 6791 0
-6780 6791 0
-6781 6791 0
-6782 6791 0
-6783 6791 0
-6784 6791 0
-6785 6791 0
-6786 6791 0
-6787 6791 0
-6788 6791 0
-6789 6791 0
-6790 6791 0
-6791 6763 6764 6765 6766 6767 6768 6769 6770 6771 6772 6773 6774 6775 6776 6777 6778 6779 6780 6781 6782 6783 6784 6785 6786 6787 6788 6789 6790 0
-6792 6 0
-6792 13 0
6792 -6 -13 0
-6793 6 0
-6793 19 0
6793 -6 -19 0
-6794 6 0
-6794 24 0
6794 -6 -24 0
-6795 6 0
-6795 28 0
6795 -6 -28 0
-6796 6 0
-6796 32 0
6796 -6 -32 0
-6797 6 0
-6797 33 0
6797 -6 -33 0
-6798 6 0
-6798 34 0
6798 -6 -34 0
-6799 13 0
-6799 19 0
6799 -13 -19 0
-6800 13 0
-6800 24 0
6800 -13 -24 0
-6801 13 0
-6801 28 0
6801 -13 -28 0
-6802 13 0
-6802 32 0
6802 -13 -32 0
-6803 13 0
-6803 33 0
6803 -13 -33 0
-6804 13 0
-6804 34 0
6804 -13 -34 0
-6805 19 0
-6805 24 0
6805 -19 -24 0
-6806 19 0
-6806 28 0
6806 -19 -28 0
-6807 19 0
-6807 32 0
6807 -19 -32 0
-6808 19 0
-6808 33 0
6808 -19 -33 0
-6809 19 0
-6809 34 0
6809 -19 -34 0
-6810 24 0
-6810 28 0
6810 -24 -28 0
-6811 24 0
-6811 32 0
6811 -24 -32 0
-6812 24 0
-6812 33 0
6812 -24 -33 0
-6813 24 0
-6813 34 0
6813 -24 -34 0
-6814 28 0
-6814 32 0
6814 -28 -32 0
-6815 28 0
-6815 33 0
6815 -28 -33 0
-6816 28 0
-6816 34 0
6816 -28 -34 0
-6817 32 0
-6817 33 0
6817 -32 -33 0
-6818 32 0
-6818 34 0
6818 -32 -34 0
-6819 33 0
-6819 34 0
6819 -33 -34 0
-6792 6820 0
-6793 6820 0
-6794 6820 0
-6795 6820 0
-6796 6820 0
-6797 6820 0
-6798 6820 0
-6799 6820 0
-6800 6820 0
-6801 6820 0
-6802 6820 0
-6803 6820 0
-6804 6820 0
-6805 6820 0
-6806 6820 0
-6807 6820 0
-6808 6820 0
-6809 6820 0
-6810 6820 0
-6811 6820 0
-6812 6820 0
-6813 6820 0
-6814 6820 0
-6815 6820 0
-6816 6820 0
-6817 6820 0
-6818 6820 0
-6819 6820 0
-6820 6792 6793 6794 6795 6796 6797 6798 6799 6800 6801 6802 6803 6804 6805 6806 6807 6808 6809 6810 6811 6812 6813 6814 6815 6816 6817 6818 6819 0
-6821 7 0
-6821 14 0
6821 -7 -14 0
-6822 7 0
-6822 20 0
6822 -7 -20 0
-6823 7 0
-6823 25 0
6823 -7 -25 0
-6824 7 0
-6824 29 0
6824 -7 -29 0
-6825 7 0
-6825 32 0
6825 -7 -32 0
-6826 7 0
-6826 35 0
6826 -7 -35 0
-6827 7 0
-6827 36 0
6827 -7 -36 0
-6828 14 0
-6828 20 0
6828 -14 -20 0
-6829 14 0
-6829 25 0
6829 -14 -25 0
-6830 14 0
-6830 29 0
6830 -14 -29 0
-6831 14 0
-6831 32 0
6831 -14 -32 0
-6832 14 0
-6832 35 0
6832 -14 -35 0
-6833 14 0
-6833 36 0
6833 -14 -36 0
-6834 20 0
-6834 25 0
6834 -20 -25 0
-6835 20 0
-6835 29 0
6835 -20 -29 0
-6836 20 0
-6836 32 0
6836 -20 -32 0
-6837 20 0
-6837 35 0
6837 -20 -35 0
-6838 20 0
-6838 36 0
6838 -20 -36 0
-6839 25 0
-6839 29 0
6839 -25 -29 0
-6840 25 0
-6840 32 0
6840 -25 -32 0
-6841 25 0
-6841 35 0
6841 -25 -35 0
-6842 25 0
-6842 36 0
6842 -25 -36 0
-6843 29 0
-6843 32 0
6843 -29 -32 0
-6844 29 0
-6844 35 0
6844 -29 -35 0
-6845 29 0
-6845 36 0
6845 -29 -36 0
-6846 32 0
-6846 35 0
6846 -32 -35 0
-6847 32 0
-6847 36 0
6847 -32 -36 0
-6848 35 0
-6848 36 0
6848 -35 -36 0
-6821 6849 0
-6822 6849 0
-6823 6849 0
-6824 6849 0
-6825 6849 0
-6826 6849 0
-6827 6849 0
-6828 6849 0
-6829 6849 0
-6830 6849 0
-6831 6849 0
-6832 6849 0
-6833 6849 0
-6834 6849 0
-6835 6849 0
-6836 6849 0
-6837 6849 0
-6838 6849 0
-6839 6849 0
-6840 6849 0
-6841 6849 0
-6842 6849 0
-6843 6849 0
-6844 6849 0
-6845 6849 0
-6846 6849 0
-6847 6849 0
-6848 6849 0
-6849 6821 6822 6823 6824 6825 6826 6827 6828 6829 6830 6831 6832 6833 6834 6835 6836 6837 6838 6839 6840 6841 6842 6843 6844 6845 6846 6847 6848 0
-6850 8 0
-6850 15 0
6850 -8 -15 0
-6851 8 0
-6851 21 0
6851 -8 -21 0
-6852 8 0
-6852 26 0
6852 -8 -26 0
-6853 8 0
-6853 30 0
6853 -8 -30 0
-6854 8 0
-6854 33 0
6854 -8 -33 0
-6855 8 0
-6855 35 0
6855 -8 -35 0
-6856 8 0
-6856 37 0
6856 -8 -37 0
-6857 15 0
-6857 21 0
6857 -15 -21 0
-6858 15 0
-6858 26 0
6858 -15 -26 0
-6859 15 0
-6859 30 0
6859 -15 -30 0
-6860 15 0
-6860 33 0
6860 -15 -33 0
-6861 15 0
-6861 35 0
6861 -15 -35 0
-6862 15 0
-6862 37 0
6862 -15 -37 0
-6863 21 0
-6863 26 0
6863 -21 -26 0
-6864 21 0
-6864 30 0
6864 -21 -30 0
-6865 21 0
-6865 33 0
6865 -21 -33 0
-6866 21 0
-6866 35 0
6866 -21 -35 0
-6867 21 0
-6867 37 0
6867 -21 -37 0
-6868 26 0
-6868 30 0
6868 -26 -30 0
-6869 26 0
-6869 33 0
6869 -26 -33 0
-6870 26 0
-6870 35 0
6870 -26 -35 0
-6871 26 0
-6871 37 0
6871 -26 -37 0
-6872 30 0
-6872 33 0
6872 -30 -33 0
-6873 30 0
-6873 35 0
6873 -30 -35 0
-6874 30 0
-6874 37 0
6874 -30 -37 0
-6875 33 0
-6875 35 0
6875 -33 -35 0
-6876 33 0
-6876 37 0
6876 -33 -37 0
-6877 35 0
-6877 37 0
6877 -35 -37 0
-6850 6878 0
-6851 6878 0
-6852 6878 0
-6853 6878 0
-6854 6878 0
-6855 6878 0
-6856 6878 0
-6857 6878 0
-6858 6878 0
-6859 6878 0
-6860 6878 0
-6861 6878 0
-6862 6878 0
-6863 6878 0
-6864 6878 0
-6865 6878 0
-6866 6878 0
-6867 6878 0
-6868 6878 0
-6869 6878 0
-6870 6878 0
-6871 6878 0
-6872 6878 0
-6873 6878 0
-6874 6878 0
-6875 6878 0
-6876 6878 0
-6877 6878 0
-6878 6850 6851 6852 6853 6854 6855 6856 6857 6858 6859 6860 6861 6862 6863 6864 6865 6866 6867 6868 6869 6870 6871 6872 6873 6874 6875 6876 6877 0
-6879 9 0
-6879 16 0
6879 -9 -16 0
-6880 9 0
-6880 22 0
6880 -9 -22 0
-6881 9 0
-6881 27 0
6881 -9 -27 0
-6882 9 0
-6882 31 0
6882 -9 -31 0
-6883 9 0
-6883 34 0
6883 -9 -34 0
-6884 9 0
-6884 36 0
6884 -9 -36 0
-6885 9 0
-6885 37 0
6885 -9 -37 0
-6886 16 0
-6886 22 0
6886 -16 -22 0
-6887 16 0
-6887 27 0
6887 -16 -27 0
-6888 16 0
-6888 31 0
6888 -16 -31 0
-6889 16 0
-6889 34 0
6889 -16 -34 0
-6890 16 0
-6890 36 0
6890 -16 -36 0
-6891 16 0
-6891 37 0
6891 -16 -37 0
-6892 22 0
-6892 27 0
6892 -22 -27 0
-6893 22 0
-6893 31 0
6893 -22 -31 0
-6894 22 0
-6894 34 0
6894 -22 -34 0
-6895 22 0
-6895 36 0
6895 -22 -36 0
-6896 22 0
-6896 37 0
6896 -22 -37 0
-6897 27 0
-6897 31 0
6897 -27 -31 0
-6898 27 0
-6898 34 0
6898 -27 -34 0
-6899 27 0
-6899 36 0
6899 -27 -36 0
-6900 27 0
-6900 37 0
6900 -27 -37 0
-6901 31 0
-6901 34 0
6901 -31 -34 0
-6902 31 0
-6902 36 0
6902 -31 -36 0
-6903 31 0
-6903 37 0
6903 -31 -37 0
-6904 34 0
-6904 36 0
6904 -34 -36 0
-6905 34 0
-6905 37 0
6905 -34 -37 0
-6906 36 0
-6906 37 0
6906 -36 -37 0
-6879 6907 0
-6880 6907 0
-6881 6907 0
-6882 6907 0
-6883 6907 0
-6884 6907 0
-6885 6907 0
-6886 6907 0
-6887 6907 0
-6888 6907 0
-6889 6907 0
-6890 6907 0
-6891 6907 0
-6892 6907 0
-6893 6907 0
-6894 6907 0
-6895 6907 0
-6896 6907 0
-6897 6907 0
-6898 6907 0
-6899 6907 0
-6900 6907 0
-6901 6907 0
-6902 6907 0
-6903 6907 0
-6904 6907 0
-6905 6907 0
-6906 6907 0
-6907 6879 6880 6881 6882 6883 6884 6885 6886 6887 6888 6889 6890 6891 6892 6893 6894 6895 6896 6897 6898 6899 6900 6901 6902 6903 6904 6905 6906 0
-6908 2 0
-6908 38 0
6908 -2 -38 0
-6909 2 0
-6909 39 0
6909 -2 -39 0
-6910 2 0
-6910 40 0
6910 -2 -40 0
-6911 2 0
-6911 41 0
6911 -2 -41 0
-6912 2 0
-6912 42 0
6912 -2 -42 0
-6913 2 0
-6913 43 0
6913 -2 -43 0
-6914 2 0
-6914 44 0
6914 -2 -44 0
-6915 38 0
-6915 39 0
6915 -38 -39 0
-6916 38 0
-6916 40 0
6916 -38 -40 0
-6917 38 0
-6917 41 0
6917 -38 -41 0
-6918 38 0
-6918 42 0
6918 -38 -42 0
-6919 38 0
-6919 43 0
6919 -38 -43 0
-6920 38 0
-6920 44 0
6920 -38 -44 0
-6921 39 0
-6921 40 0
6921 -39 -40 0
-6922 39 0
-6922 41 0
6922 -39 -41 0
-6923 39 0
-6923 42 0
6923 -39 -42 0
-6924 39 0
-6924 43 0
6924 -39 -43 0
-6925 39 0
-6925 44 0
6925 -39 -44 0
-6926 40 0
-6926 41 0
6926 -40 -41 0
-6927 40 0
-6927 42 0
6927 -40 -42 0
-6928 40 0
-6928 43 0
6928 -40 -43 0
-6929 40 0
-6929 44 0
6929 -40 -44 0
-6930 41 0
-6930 42 0
6930 -41 -42 0
-6931 41 0
-6931 43 0
6931 -41 -43 0
-6932 41 0
-6932 44 0
6932 -41 -44 0
-6933 42 0
-6933 43 0
6933 -42 -43 0
-6934 42 0
-6934 44 0
6934 -42 -44 0
-6935 43 0
-6935 44 0
6935 -43 -44 0
-6908 6936 0
-6909 6936 0
-6910 6936 0
-6911 6936 0
-6912 6936 0
-6913 6936 0
-6914 6936 0
-6915 6936 0
-6916 6936 0
-6917 6936 0
-6918 6936 0
-6919 6936 0
-6920 6936 0
-6921 6936 0
-6922 6936 0
-6923 6936 0
-6924 6936 0
-6925 6936 0
-6926 6936 0
-6927 6936 0
-6928 6936 0
-6929 6936 0
-6930 6936 0
-6931 6936 0
-6932 6936 0
-6933 6936 0
-6934 6936 0
-6935 6936 0
-6936 6908 6909 6910 6911 6912 6913 6914 6915 6916 6917 6918 6919 6920 6921 6922 6923 6924 6925 6926 6927 6928 6929 6930 6931 6932 6933 6934 6935 0
-6937 3 0
-6937 38 0
6937 -3 -38 0
-6938 3 0
-6938 45 0
6938 -3 -45 0
-6939 3 0
-6939 46 0
6939 -3 -46 0
-6940 3 0
-6940 47 0
6940 -3 -47 0
-6941 3 0
-6941 48 0
6941 -3 -48 0
-6942 3 0
-6942 49 0
6942 -3 -49 0
-6943 3 0
-6943 50 0
6943 -3 -50 0
-6944 38 0
-6944 45 0
6944 -38 -45 0
-6945 38 0
-6945 46 0
6945 -38 -46 0
-6946 38 0
-6946 47 0
6946 -38 -47 0
-6947 38 0
-6947 48 0
6947 -38 -48 0
-6948 38 0
-6948 49 0
6948 -38 -49 0
-6949 38 0
-6949 50 0
6949 -38 -50 0
-6950 45 0
-6950 46 0
6950 -45 -46 0
-6951 45 0
-6951 47 0
6951 -45 -47 0
-6952 45 0
-6952 48 0
6952 -45 -48 0
-6953 45 0
-6953 49 0
6953 -45 -49 0
-6954 45 0
-6954 50 0
6954 -45 -50 0
-6955 46 0
-6955 47 0
6955 -46 -47 0
-6956 46 0
-6956 48 0
6956 -46 -48 0
-6957 46 0
-6957 49 0
6957 -46 -49 0
-6958 46 0
-6958 50 0
6958 -46 -50 0
-6959 47 0
-6959 48 0
6959 -47 -48 0
-6960 47 0
-6960 49 0
6960 -47 -49 0
-6961 47 0
-6961 50 0
6961 -47 -50 0
-6962 48 0
-6962 49 0
6962 -48 -49 0
-6963 48 0
-6963 50 0
6963 -48 -50 0
-6964 49 0
-6964 50 0
6964 -49 -50 0
-6937 6965 0
-6938 6965 0
-6939 6965 0
-6940 6965 0
-6941 6965 0
-6942 6965 0
-6943 6965 0
-6944 6965 0
-6945 6965 0
-6946 6965 0
-6947 6965 0
-6948 6965 0
-6949 6965 0
-6950 6965 0
-6951 6965 0
-6952 6965 0
-6953 6965 0
-6954 6965 0
-6955 6965 0
-6956 6965 0
-6957 6965 0
-6958 6965 0
-6959 6965 0
-6960 6965 0
-6961 6965 0
-6962 6965 0
-6963 6965 0
-6964 6965 0
-6965 6937 6938 6939 6940 6941 6942 6943 6944 6945 6946 6947 6948 6949 6950 6951 6952 6953 6954 6955 6956 6957 6958 6959 6960 6961 6962 6963 6964 0
-6966 4 0
-6966 39 0
6966 -4 -39 0
-6967 4 0
-6967 45 0
6967 -4 -45 0
-6968 4 0
-6968 51 0
6968 -4 -51 0
-6969 4 0
-6969 52 0
6969 -4 -52 0
-6970 4 0
-6970 53 0
6970 -4 -53 0
-6971 4 0
-6971 54 0
6971 -4 -54 0
-6972 4 0
-6972 55 0
6972 -4 -55 0
-6973 39 0
-6973 45 0
6973 -39 -45 0
-6974 39 0
-6974 51 0
6974 -39 -51 0
-6975 39 0
-6975 52 0
6975 -39 -52 0
-6976 39 0
-6976 53 0
6976 -39 -53 0
-6977 39 0
-6977 54 0
6977 -39 -54 0
-6978 39 0
-6978 55 0
6978 -39 -55 0
-6979 45 0
-6979 51 0
6979 -45 -51 0
-6980 45 0
-6980 52 0
6980 -45 -52 0
-6981 45 0
-6981 53 0
6981 -45 -53 0
-6982 45 0
-6982 54 0
6982 -45 -54 0
-6983 45 0
-6983 55 0
6983 -45 -55 0
-6984 51 0
-6984 52 0
6984 -51 -52 0
-6985 51 0
-6985 53 0
6985 -51 -53 0
-6986 51 0
-6986 54 0
6986 -51 -54 0
-6987 51 0
-6987 55 0
6987 -51 -55 0
-6988 52 0
-6988 53 0
6988 -52 -53 0
-6989 52 0
-6989 54 0
6989 -52 -54 0
-6990 52 0
-6990 55 0
6990 -52 -55 0
-6991 53 0
-6991 54 0
6991 -53 -54 0
-6992 53 0
-6992 55 0
6992 -53 -55 0
-6993 54 0
-6993 55 0
6993 -54 -55 0
-6966 6994 0
-6967 6994 0
-6968 6994 0
-6969 6994 0
-6970 6994 0
-6971 6994 0
-6972 6994 0
-6973 6994 0
-6974 6994 0
-6975 6994 0
-6976 6994 0
-6977 6994 0
-6978 6994 0
-6979 6994 0
-6980 6994 0
-6981 6994 0
-6982 6994 0
-6983 6994 0
-6984 6994 0
-6985 6994 0
-6986 6994 0
-6987 6994 0
-6988 6994 0
-6989 6994 0
-6990 6994 0
-6991 6994 0
-6992 6994 0
-6993 6994 0
-6994 6966 6967 6968 6969 6970 6971 6972 6973 6974 6975 6976 6977 6978 6979 6980 6981 6982 6983 6984 6985 6986 6987 6988 6989 6990 6991 6992 6993 0
-6995 5 0
-6995 40 0
6995 -5 -40 0
-6996 5 0
-6996 46 0
6996 -5 -46 0
-6997 5 0
-6997 51 0
6997 -5 -51 0
-6998 5 0
-6998 56 0
6998 -5 -56 0
-6999 5 0
-6999 57 0
6999 -5 -57 0
-7000 5 0
-7000 58 0
7000 -5 -58 0
-7001 5 0
-7001 59 0
7001 -5 -59 0
-7002 40 0
-7002 46 0
7002 -40 -46 0
-7003 40 0
-7003 51 0
7003 -40 -51 0
-7004 40 0
-7004 56 0
7004 -40 -56 0
-7005 40 0
-7005 57 0
7005 -40 -57 0
-7006 40 0
-7006 58 0
7006 -40 -58 0
-7007 40 0
-7007 59 0
7007 -40 -59 0
-7008 46 0
-7008 51 0
7008 -46 -51 0
-7009 46 0
-7009 56 0
7009 -46 -56 0
-7010 46 0
-7010 57 0
7010 -46 -57 0
-7011 46 0
-7011 58 0
7011 -46 -58 0
-7012 46 0
-7012 59 0
7012 -46 -59 0
-7013 51 0
-7013 56 0
7013 -51 -56 0
-7014 51 0
-7014 57 0
7014 -51 -57 0
-7015 51 0
-7015 58 0
7015 -51 -58 0
-7016 51 0
-7016 59 0
7016 -51 -59 0
-7017 56 0
-7017 57 0
7017 -56 -57 0
-7018 56 0
-7018 58 0
7018 -56 -58 0
-7019 56 0
-7019 59 0
7019 -56 -59 0
-7020 57 0
-7020 58 0
7020 -57 -58 0
-7021 57 0
-7021 59 0
7021 -57 -59 0
-7022 58 0
-7022 59 0
7022 -58 -59 0
-6995 7023 0
-6996 7023 0
-6997 7023 0
-6998 7023 0
-6999 7023 0
-7000 7023 0
-7001 7023 0
-7002 7023 0
-7003 7023 0
-7004 7023 0
-7005 7023 0
-7006 7023 0
-7007 7023 0
-7008 7023 0
-7009 7023 0
-7010 7023 0
-7011 7023 0
-7012 7023 0
-7013 7023 0
-7014 7023 0
-7015 7023 0
-7016 7023 0
-7017 7023 0
-7018 7023 0
-7019 7023 0
-7020 7023 0
-7021 7023 0
-7022 7023 0
-7023 6995 6996 6997 6998 6999 7000 7001 7002 7003 7004 7005 7006 7007 7008 7009 7010 7011 7012 7013 7014 7015 7016 7017 7018 7019 7020 7021 7022 0
-7024 6 0
-7024 41 0
7024 -6 -41 0
-7025 6 0
-7025 47 0
7025 -6 -47 0
-7026 6 0
-7026 52 0
7026 -6 -52 0
-7027 6 0
-7027 56 0
7027 -6 -56 0
-7028 6 0
-7028 60 0
7028 -6 -60 0
-7029 6 0
-7029 61 0
7029 -6 -61 0
-7030 6 0
-7030 62 0
7030 -6 -62 0
-7031 41 0
-7031 47 0
7031 -41 -47 0
-7032 41 0
-7032 52 0
7032 -41 -52 0
-7033 41 0
-7033 56 0
7033 -41 -56 0
-7034 41 0
-7034 60 0
7034 -41 -60 0
-7035 41 0
-7035 61 0
7035 -41 -61 0
-7036 41 0
-7036 62 0
7036 -41 -62 0
-7037 47 0
-7037 52 0
7037 -47 -52 0
-7038 47 0
-7038 56 0
7038 -47 -56 0
-7039 47 0
-7039 60 0
7039 -47 -60 0
-7040 47 0
-7040 61 0
7040 -47 -61 0
-7041 47 0
-7041 62 0
7041 -47 -62 0
-7042 52 0
-7042 56 0
7042 -52 -56 0
-7043 52 0
-7043 60 0
7043 -52 -60 0
-7044 52 0
-7044 61 0
7044 -52 -61 0
-7045 52 0
-7045 62 0
7045 -52 -62 0
-7046 56 0
-7046 60 0
7046 -56 -60 0
-7047 56 0
-7047 61 0
7047 -56 -61 0
-7048 56 0
-7048 62 0
7048 -56 -62 0
-7049 60 0
-7049 61 0
7049 -60 -61 0
-7050 60 0
-7050 62 0
7050 -60 -62 0
-7051 61 0
-7051 62 0
7051 -61 -62 0
-7024 7052 0
-7025 7052 0
-7026 7052 0
-7027 7052 0
-7028 7052 0
-7029 7052 0
-7030 7052 0
-7031 7052 0
-7032 7052 0
-7033 7052 0
-7034 7052 0
-7035 7052 0
-7036 7052 0
-7037 7052 0
-7038 7052 0
-7039 7052 0
-7040 7052 0
-7041 7052 0
-7042 7052 0
-7043 7052 0
-7044 7052 0
-7045 7052 0
-7046 7052 0
-7047 7052 0
-7048 7052 0
-7049 7052 0
-7050 7052 0
-7051 7052 0
-7052 7024 7025 7026 7027 7028 7029 7030 7031 7032 7033 7034 7035 7036 7037 7038 7039 7040 7041 7042 7043 7044 7045 7046 7047 7048 7049 7050 7051 0
-7053 7 0
-7053 42 0
7053 -7 -42 0
-7054 7 0
-7054 48 0
7054 -7 -48 0
-7055 7 0
-7055 53 0
7055 -7 -53 0
-7056 7 0
-7056 57 0
7056 -7 -57 0
-7057 7 0
-7057 60 0
7057 -7 -60 0
-7058 7 0
-7058 63 0
7058 -7 -63 0
-7059 7 0
-7059 64 0
7059 -7 -64 0
-7060 42 0
-7060 48 0
7060 -42 -48 0
-7061 42 0
-7061 53 0
7061 -42 -53 0
-7062 42 0
-7062 57 0
7062 -42 -57 0
-7063 42 0
-7063 60 0
7063 -42 -60 0
-7064 42 0
-7064 63 0
7064 -42 -63 0
-7065 42 0
-7065 64 0
7065 -42 -64 0
-7066 48 0
-7066 53 0
7066 -48 -53 0
-7067 48 0
-7067 57 0
7067 -48 -57 0
-7068 48 0
-7068 60 0
7068 -48 -60 0
-7069 48 0
-7069 63 0
7069 -48 -63 0
-7070 48 0
-7070 64 0
7070 -48 -64 0
-7071 53 0
-7071 57 0
7071 -53 -57 0
-7072 53 0
-7072 60 0
7072 -53 -60 0
-7073 53 0
-7073 63 0
7073 -53 -63 0
-7074 53 0
-7074 64 0
7074 -53 -64 0
-7075 57 0
-7075 60 0
7075 -57 -60 0
-7076 57 0
-7076 63 0
7076 -57 -63 0
-7077 57 0
-7077 64 0
7077 -57 -64 0
-7078 60 0
-7078 63 0
7078 -60 -63 0
-7079 60 0
-7079 64 0
7079 -60 -64 0
-7080 63 0
-7080 64 0
7080 -63 -64 0
-7053 7081 0
-7054 7081 0
-7055 7081 0
-7056 7081 0
-7057 7081 0
-7058 7081 0
-7059 7081 0
-7060 7081 0
-7061 7081 0
-7062 7081 0
-7063 7081 0
-7064 7081 0
-7065 7081 0
-7066 7081 0
-7067 7081 0
-7068 7081 0
-7069 7081 0
-7070 7081 0
-7071 7081 0
-7072 7081 0
-7073 7081 0
-7074 7081 0
-7075 7081 0
-7076 7081 0
-7077 7081 0
-7078 7081 0
-7079 7081 0
-7080 7081 0
-7081 7053 7054 7055 7056 7057 7058 7059 7060 7061 7062 7063 7064 7065 7066 7067 7068 7069 7070 7071 7072 7073 7074 7075 7076 7077 7078 7079 7080 0
-7082 8 0
-7082 43 0
7082 -8 -43 0
-7083 8 0
-7083 49 0
7083 -8 -49 0
-7084 8 0
-7084 54 0
7084 -8 -54 0
-7085 8 0
-7085 58 0
7085 -8 -58 0
-7086 8 0
-7086 61 0
7086 -8 -61 0
-7087 8 0
-7087 63 0
7087 -8 -63 0
-7088 8 0
-7088 65 0
7088 -8 -65 0
-7089 43 0
-7089 49 0
7089 -43 -49 0
-7090 43 0
-7090 54 0
7090 -43 -54 0
-7091 43 0
-7091 58 0
7091 -43 -58 0
-7092 43 0
-7092 61 0
7092 -43 -61 0
-7093 43 0
-7093 63 0
7093 -43 -63 0
-7094 43 0
-7094 65 0
7094 -43 -65 0
-7095 49 0
-7095 54 0
7095 -49 -54 0
-7096 49 0
-7096 58 0
7096 -49 -58 0
-7097 49 0
-7097 61 0
7097 -49 -61 0
-7098 49 0
-7098 63 0
7098 -49 -63 0
-7099 49 0
-7099 65 0
7099 -49 -65 0
-7100 54 0
-7100 58 0
7100 -54 -58 0
-7101 54 0
-7101 61 0
7101 -54 -61 0
-7102 54 0
-7102 63 0
7102 -54 -63 0
-7103 54 0
-7103 65 0
7103 -54 -65 0
-7104 58 0
-7104 61 0
7104 -58 -61 0
-7105 58 0
-7105 63 0
7105 -58 -63 0
-7106 58 0
-7106 65 0
7106 -58 -65 0
-7107 61 0
-7107 63 0
7107 -61 -63 0
-7108 61 0
-7108 65 0
7108 -61 -65 0
-7109 63 0
-7109 65 0
7109 -63 -65 0
-7082 7110 0
-7083 7110 0
-7084 7110 0
-7085 7110 0
-7086 7110 0
-7087 7110 0
-7088 7110 0
-7089 7110 0
-7090 7110 0
-7091 7110 0
-7092 7110 0
-7093 7110 0
-7094 7110 0
-7095 7110 0
-7096 7110 0
-7097 7110 0
-7098 7110 0
-7099 7110 0
-7100 7110 0
-7101 7110 0
-7102 7110 0
-7103 7110 0
-7104 7110 0
-7105 7110 0
-7106 7110 0
-7107 7110 0
-7108 7110 0
-7109 7110 0
-7110 7082 7083 7084 7085 7086 7087 7088 7089 7090 7091 7092 7093 7094 7095 7096 7097 7098 7099 7100 7101 7102 7103 7104 7105 7106 7107 7108 7109 0
-7111 9 0
-7111 44 0
7111 -9 -44 0
-7112 9 0
-7112 50 0
7112 -9 -50 0
-7113 9 0
-7113 55 0
7113 -9 -55 0
-7114 9 0
-7114 59 0
7114 -9 -59 0
-7115 9 0
-7115 62 0
7115 -9 -62 0
-7116 9 0
-7116 64 0
7116 -9 -64 0
-7117 9 0
-7117 65 0
7117 -9 -65 0
-7118 44 0
-7118 50 0
7118 -44 -50 0
-7119 44 0
-7119 55 0
7119 -44 -55 0
-7120 44 0
-7120 59 0
7120 -44 -59 0
-7121 44 0
-7121 62 0
7121 -44 -62 0
-7122 44 0
-7122 64 0
7122 -44 -64 0
-7123 44 0
-7123 65 0
7123 -44 -65 0
-7124 50 0
-7124 55 0
7124 -50 -55 0
-7125 50 0
-7125 59 0
7125 -50 -59 0
-7126 50 0
-7126 62 0
7126 -50 -62 0
-7127 50 0
-7127 64 0
7127 -50 -64 0
-7128 50 0
-7128 65 0
7128 -50 -65 0
-7129 55 0
-7129 59 0
7129 -55 -59 0
-7130 55 0
-7130 62 0
7130 -55 -62 0
-7131 55 0
-7131 64 0
7131 -55 -64 0
-7132 55 0
-7132 65 0
7132 -55 -65 0
-7133 59 0
-7133 62 0
7133 -59 -62 0
-7134 59 0
-7134 64 0
7134 -59 -64 0
-7135 59 0
-7135 65 0
7135 -59 -65 0
-7136 62 0
-7136 64 0
7136 -62 -64 0
-7137 62 0
-7137 65 0
7137 -62 -65 0
-7138 64 0
-7138 65 0
7138 -64 -65 0
-7111 7139 0
-7112 7139 0
-7113 7139 0
-7114 7139 0
-7115 7139 0
-7116 7139 0
-7117 7139 0
-7118 7139 0
-7119 7139 0
-7120 7139 0
-7121 7139 0
-7122 7139 0
-7123 7139 0
-7124 7139 0
-7125 7139 0
-7126 7139 0
-7127 7139 0
-7128 7139 0
-7129 7139 0
-7130 7139 0
-7131 7139 0
-7132 7139 0
-7133 7139 0
-7134 7139 0
-7135 7139 0
-7136 7139 0
-7137 7139 0
-7138 7139 0
-7139 7111 7112 7113 7114 7115 7116 7117 7118 7119 7120 7121 7122 7123 7124 7125 7126 7127 7128 7129 7130 7131 7132 7133 7134 7135 7136 7137 7138 0
-7140 10 0
-7140 38 0
7140 -10 -38 0
-7141 10 0
-7141 66 0
7141 -10 -66 0
-7142 10 0
-7142 67 0
7142 -10 -67 0
-7143 10 0
-7143 68 0
7143 -10 -68 0
-7144 10 0
-7144 69 0
7144 -10 -69 0
-7145 10 0
-7145 70 0
7145 -10 -70 0
-7146 10 0
-7146 71 0
7146 -10 -71 0
-7147 38 0
-7147 66 0
7147 -38 -66 0
-7148 38 0
-7148 67 0
7148 -38 -67 0
-7149 38 0
-7149 68 0
7149 -38 -68 0
-7150 38 0
-7150 69 0
7150 -38 -69 0
-7151 38 0
-7151 70 0
7151 -38 -70 0
-7152 38 0
-7152 71 0
7152 -38 -71 0
-7153 66 0
-7153 67 0
7153 -66 -67 0
-7154 66 0
-7154 68 0
7154 -66 -68 0
-7155 66 0
-7155 69 0
7155 -66 -69 0
-7156 66 0
-7156 70 0
7156 -66 -70 0
-7157 66 0
-7157 71 0
7157 -66 -71 0
-7158 67 0
-7158 68 0
7158 -67 -68 0
-7159 67 0
-7159 69 0
7159 -67 -69 0
-7160 67 0
-7160 70 0
7160 -67 -70 0
-7161 67 0
-7161 71 0
7161 -67 -71 0
-7162 68 0
-7162 69 0
7162 -68 -69 0
-7163 68 0
-7163 70 0
7163 -68 -70 0
-7164 68 0
-7164 71 0
7164 -68 -71 0
-7165 69 0
-7165 70 0
7165 -69 -70 0
-7166 69 0
-7166 71 0
7166 -69 -71 0
-7167 70 0
-7167 71 0
7167 -70 -71 0
-7140 7168 0
-7141 7168 0
-7142 7168 0
-7143 7168 0
-7144 7168 0
-7145 7168 0
-7146 7168 0
-7147 7168 0
-7148 7168 0
-7149 7168 0
-7150 7168 0
-7151 7168 0
-7152 7168 0
-7153 7168 0
-7154 7168 0
-7155 7168 0
-7156 7168 0
-7157 7168 0
-7158 7168 0
-7159 7168 0
-7160 7168 0
-7161 7168 0
-7162 7168 0
-7163 7168 0
-7164 7168 0
-7165 7168 0
-7166 7168 0
-7167 7168 0
-7168 7140 7141 7142 7143 7144 7145 7146 7147 7148 7149 7150 7151 7152 7153 7154 7155 7156 7157 7158 7159 7160 7161 7162 7163 7164 7165 7166 7167 0
-7169 11 0
-7169 39 0
7169 -11 -39 0
-7170 11 0
-7170 66 0
7170 -11 -66 0
-7171 11 0
-7171 72 0
7171 -11 -72 0
-7172 11 0
-7172 73 0
7172 -11 -73 0
-7173 11 0
-7173 74 0
7173 -11 -74 0
-7174 11 0
-7174 75 0
7174 -11 -75 0
-7175 11 0
-7175 76 0
7175 -11 -76 0
-7176 39 0
-7176 66 0
7176 -39 -66 0
-7177 39 0
-7177 72 0
7177 -39 -72 0
-7178 39 0
-7178 73 0
7178 -39 -73 0
-7179 39 0
-7179 74 0
7179 -39 -74 0
-7180 39 0
-7180 75 0
7180 -39 -75 0
-7181 39 0
-7181 76 0
7181 -39 -76 0
-7182 66 0
-7182 72 0
7182 -66 -72 0
-7183 66 0
-7183 73 0
7183 -66 -73 0
-7184 66 0
-7184 74 0
7184 -66 -74 0
-7185 66 0
-7185 75 0
7185 -66 -75 0
-7186 66 0
-7186 76 0
7186 -66 -76 0
-7187 72 0
-7187 73 0
7187 -72 -73 0
-7188 72 0
-7188 74 0
7188 -72 -74 0
-7189 72 0
-7189 75 0
7189 -72 -75 0
-7190 72 0
-7190 76 0
7190 -72 -76 0
-7191 73 0
-7191 74 0
7191 -73 -74 0
-7192 73 0
-7192 75 0
7192 -73 -75 0
-7193 73 0
-7193 76 0
7193 -73 -76 0
-7194 74 0
-7194 75 0
7194 -74 -75 0
-7195 74 0
-7195 76 0
7195 -74 -76 0
-7196 75 0
-7196 76 0
7196 -75 -76 0
-7169 7197 0
-7170 7197 0
-7171 7197 0
-7172 7197 0
-7173 7197 0
-7174 7197 0
-7175 7197 0
-7176 7197 0
-7177 7197 0
-7178 7197 0
-7179 7197 0
-7180 7197 0
-7181 7197 0
-7182 7197 0
-7183 7197 0
-7184 7197 0
-7185 7197 0
-7186 7197 0
-7187 7197 0
-7188 7197 0
-7189 7197 0
-7190 7197 0
-7191 7197 0
-7192 7197 0
-7193 7197 0
-7194 7197 0
-7195 7197 0
-7196 7197 0
-7197 7169 7170 7171 7172 7173 7174 7175 7176 7177 7178 7179 7180 7181 7182 7183 7184 7185 7186 7187 7188 7189 7190 7191 7192 7193 7194 7195 7196 0
-7198 12 0
-7198 40 0
7198 -12 -40 0
-7199 12 0
-7199 67 0
7199 -12 -67 0
-7200 12 0
-7200 72 0
7200 -12 -72 0
-7201 12 0
-7201 77 0
7201 -12 -77 0
-7202 12 0
-7202 78 0
7202 -12 -78 0
-7203 12 0
-7203 79 0
7203 -12 -79 0
-7204 12 0
-7204 80 0
7204 -12 -80 0
-7205 40 0
-7205 67 0
7205 -40 -67 0
-7206 40 0
-7206 72 0
7206 -40 -72 0
-7207 40 0
-7207 77 0
7207 -40 -77 0
-7208 40 0
-7208 78 0
7208 -40 -78 0
-7209 40 0
-7209 79 0
7209 -40 -79 0
-7210 40 0
-7210 80 0
7210 -40 -80 0
-7211 67 0
-7211 72 0
7211 -67 -72 0
-7212 67 0
-7212 77 0
7212 -67 -77 0
-7213 67 0
-7213 78 0
7213 -67 -78 0
-7214 67 0
-7214 79 0
7214 -67 -79 0
-7215 67 0
-7215 80 0
7215 -67 -80 0
-7216 72 0
-7216 77 0
7216 -72 -77 0
-7217 72 0
-7217 78 0
7217 -72 -78 0
-7218 72 0
-7218 79 0
7218 -72 -79 0
-7219 72 0
-7219 80 0
7219 -72 -80 0
-7220 77 0
-7220 78 0
7220 -77 -78 0
-7221 77 0
-7221 79 0
7221 -77 -79 0
-7222 77 0
-7222 80 0
7222 -77 -80 0
-7223 78 0
-7223 79 0
7223 -78 -79 0
-7224 78 0
-7224 80 0
7224 -78 -80 0
-7225 79 0
-7225 80 0
7225 -79 -80 0
-7198 7226 0
-7199 7226 0
-7200 7226 0
-7201 7226 0
-7202 7226 0
-7203 7226 0
-7204 7226 0
-7205 7226 0
-7206 7226 0
-7207 7226 0
-7208 7226 0
-7209 7226 0
-7210 7226 0
-7211 7226 0
-7212 7226 0
-7213 7226 0
-7214 7226 0
-7215 7226 0
-7216 7226 0
-7217 7226 0
-7218 7226 0
-7219 7226 0
-7220 7226 0
-7221 7226 0
-7222 7226 0
-7223 7226 0
-7224 7226 0
-7225 7226 0
-7226 7198 7199 7200 7201 7202 7203 7204 7205 7206 7207 7208 7209 7210 7211 7212 7213 7214 7215 7216 7217 7218 7219 7220 7221 7222 7223 7224 7225 0
-7227 13 0
-7227 41 0
7227 -13 -41 0
-7228 13 0
-7228 68 0
7228 -13 -68 0
-7229 13 0
-7229 73 0
7229 -13 -73 0
-7230 13 0
-7230 77 0
7230 -13 -77 0
-7231 13 0
-7231 81 0
7231 -13 -81 0
-7232 13 0
-7232 82 0
7232 -13 -82 0
-7233 13 0
-7233 83 0
7233 -13 -83 0
-7234 41 0
-7234 68 0
7234 -41 -68 0
-7235 41 0
-7235 73 0
7235 -41 -73 0
-7236 41 0
-7236 77 0
7236 -41 -77 0
-7237 41 0
-7237 81 0
7237 -41 -81 0
-7238 41 0
-7238 82 0
7238 -41 -82 0
-7239 41 0
-7239 83 0
7239 -41 -83 0
-7240 68 0
-7240 73 0
7240 -68 -73 0
-7241 68 0
-7241 77 0
7241 -68 -77 0
-7242 68 0
-7242 81 0
7242 -68 -81 0
-7243 68 0
-7243 82 0
7243 -68 -82 0
-7244 68 0
-7244 83 0
7244 -68 -83 0
-7245 73 0
-7245 77 0
7245 -73 -77 0
-7246 73 0
-7246 81 0
7246 -73 -81 0
-7247 73 0
-7247 82 0
7247 -73 -82 0
-7248 73 0
-7248 83 0
7248 -73 -83 0
-7249 77 0
-7249 81 0
7249 -77 -81 0
-7250 77 0
-7250 82 0
7250 -77 -82 0
-7251 77 0
-7251 83 0
7251 -77 -83 0
-7252 81 0
-7252 82 0
7252 -81 -82 0
-7253 81 0
-7253 83 0
7253 -81 -83 0
-7254 82 0
-7254 83 0
7254 -82 -83 0
-7227 7255 0
-7228 7255 0
-7229 7255 0
-7230 7255 0
-7231 7255 0
-7232 7255 0
-7233 7255 0
-7234 7255 0
-7235 7255 0
-7236 7255 0
-7237 7255 0
-7238 7255 0
-7239 7255 0
-7240 7255 0
-7241 7255 0
-7242 7255 0
-7243 7255 0
-7244 7255 0
-7245 7255 0
-7246 7255 0
-7247 7255 0
-7248 7255 0
-7249 7255 0
-7250 7255 0
-7251 7255 0
-7252 7255 0
-7253 7255 0
-7254 7255 0
-7255 7227 7228 7229 7230 7231 7232 7233 7234 7235 7236 7237 7238 7239 7240 7241 7242 7243 7244 7245 7246 7247 7248 7249 7250 7251 7252 7253 7254 0
-7256 14 0
-7256 42 0
7256 -14 -42 0
-7257 14 0
-7257 69 0
7257 -14 -69 0
-7258 14 0
-7258 74 0
7258 -14 -74 0
-7259 14 0
-7259 78 0
7259 -14 -78 0
-7260 14 0
-7260 81 0
7260 -14 -81 0
-7261 14 0
-7261 84 0
7261 -14 -84 0
-7262 14 0
-7262 85 0
7262 -14 -85 0
-7263 42 0
-7263 69 0
7263 -42 -69 0
-7264 42 0
-7264 74 0
7264 -42 -74 0
-7265 42 0
-7265 78 0
7265 -42 -78 0
-7266 42 0
-7266 81 0
7266 -42 -81 0
-7267 42 0
-7267 84 0
7267 -42 -84 0
-7268 42 0
-7268 85 0
7268 -42 -85 0
-7269 69 0
-7269 74 0
7269 -69 -74 0
-7270 69 0
-7270 78 0
7270 -69 -78 0
-7271 69 0
-7271 81 0
7271 -69 -81 0
-7272 69 0
-7272 84 0
7272 -69 -84 0
-7273 69 0
-7273 85 0
7273 -69 -85 0
-7274 74 0
-7274 78 0
7274 -74 -78 0
-7275 74 0
-7275 81 0
7275 -74 -81 0
-7276 74 0
-7276 84 0
7276 -74 -84 0
-7277 74 0
-7277 85 0
7277 -74 -85 0
-7278 78 0
-7278 81 0
7278 -78 -81 0
-7279 78 0
-7279 84 0
7279 -78 -84 0
-7280 78 0
-7280 85 0
7280 -78 -85 0
-7281 81 0
-7281 84 0
7281 -81 -84 0
-7282 81 0
-7282 85 0
7282 -81 -85 0
-7283 84 0
-7283 85 0
7283 -84 -85 0
-7256 7284 0
-7257 7284 0
-7258 7284 0
-7259 7284 0
-7260 7284 0
-7261 7284 0
-7262 7284 0
-7263 7284 0
-7264 7284 0
-7265 7284 0
-7266 7284 0
-7267 7284 0
-7268 7284 0
-7269 7284 0
-7270 7284 0
-7271 7284 0
-7272 7284 0
-7273 7284 0
-7274 7284 0
-7275 7284 0
-7276 7284 0
-7277 7284 0
-7278 7284 0
-7279 7284 0
-7280 7284 0
-7281 7284 0
-7282 7284 0
-7283 7284 0
-7284 7256 7257 7258 7259 7260 7261 7262 7263 7264 7265 7266 7267 7268 7269 7270 7271 7272 7273 7274 7275 7276 7277 7278 7279 7280 7281 7282 7283 0
-7285 15 0
-7285 43 0
7285 -15 -43 0
-7286 15 0
-7286 70 0
7286 -15 -70 0
-7287 15 0
-7287 75 0
7287 -15 -75 0
-7288 15 0
-7288 79 0
7288 -15 -79 0
-7289 15 0
-7289 82 0
7289 -15 -82 0
-7290 15 0
-7290 84 0
7290 -15 -84 0
-7291 15 0
-7291 86 0
7291 -15 -86 0
-7292 43 0
-7292 70 0
7292 -43 -70 0
-7293 43 0
-7293 75 0
7293 -43 -75 0
-7294 43 0
-7294 79 0
7294 -43 -79 0
-7295 43 0
-7295 82 0
7295 -43 -82 0
-7296 43 0
-7296 84 0
7296 -43 -84 0
-7297 43 0
-7297 86 0
7297 -43 -86 0
-7298 70 0
-7298 75 0
7298 -70 -75 0
-7299 70 0
-7299 79 0
7299 -70 -79 0
-7300 70 0
-7300 82 0
7300 -70 -82 0
-7301 70 0
-7301 84 0
7301 -70 -84 0
-7302 70 0
-7302 86 0
7302 -70 -86 0
-7303 75 0
-7303 79 0
7303 -75 -79 0
-7304 75 0
-7304 82 0
7304 -75 -82 0
-7305 75 0
-7305 84 0
7305 -75 -84 0
-7306 75 0
-7306 86 0
7306 -75 -86 0
-7307 79 0
-7307 82 0
7307 -79 -82 0
-7308 79 0
-7308 84 0
7308 -79 -84 0
-7309 79 0
-7309 86 0
7309 -79 -86 0
-7310 82 0
-7310 84 0
7310 -82 -84 0
-7311 82 0
-7311 86 0
7311 -82 -86 0
-7312 84 0
-7312 86 0
7312 -84 -86 0
-7285 7313 0
-7286 7313 0
-7287 7313 0
-7288 7313 0
-7289 7313 0
-7290 7313 0
-7291 7313 0
-7292 7313 0
-7293 7313 0
-7294 7313 0
-7295 7313 0
-7296 7313 0
-7297 7313 0
-7298 7313 0
-7299 7313 0
-7300 7313 0
-7301 7313 0
-7302 7313 0
-7303 7313 0
-7304 7313 0
-7305 7313 0
-7306 7313 0
-7307 7313 0
-7308 7313 0
-7309 7313 0
-7310 7313 0
-7311 7313 0
-7312 7313 0
-7313 7285 7286 7287 7288 7289 7290 7291 7292 7293 7294 7295 7296 7297 7298 7299 7300 7301 7302 7303 7304 7305 7306 7307 7308 7309 7310 7311 7312 0
-7314 16 0
-7314 44 0
7314 -16 -44 0
-7315 16 0
-7315 71 0
7315 -16 -71 0
-7316 16 0
-7316 76 0
7316 -16 -76 0
-7317 16 0
-7317 80 0
7317 -16 -80 0
-7318 16 0
-7318 83 0
7318 -16 -83 0
-7319 16 0
-7319 85 0
7319 -16 -85 0
-7320 16 0
-7320 86 0
7320 -16 -86 0
-7321 44 0
-7321 71 0
7321 -44 -71 0
-7322 44 0
-7322 76 0
7322 -44 -76 0
-7323 44 0
-7323 80 0
7323 -44 -80 0
-7324 44 0
-7324 83 0
7324 -44 -83 0
-7325 44 0
-7325 85 0
7325 -44 -85 0
-7326 44 0
-7326 86 0
7326 -44 -86 0
-7327 71 0
-7327 76 0
7327 -71 -76 0
-7328 71 0
-7328 80 0
7328 -71 -80 0
-7329 71 0
-7329 83 0
7329 -71 -83 0
-7330 71 0
-7330 85 0
7330 -71 -85 0
-7331 71 0
-7331 86 0
7331 -71 -86 0
-7332 76 0
-7332 80 0
7332 -76 -80 0
-7333 76 0
-7333 83 0
7333 -76 -83 0
-7334 76 0
-7334 85 0
7334 -76 -85 0
-7335 76 0
-7335 86 0
7335 -76 -86 0
-7336 80 0
-7336 83 0
7336 -80 -83 0
-7337 80 0
-7337 85 0
7337 -80 -85 0
-7338 80 0
-7338 86 0
7338 -80 -86 0
-7339 83 0
-7339 85 0
7339 -83 -85 0
-7340 83 0
-7340 86 0
7340 -83 -86 0
-7341 85 0
-7341 86 0
7341 -85 -86 0
-7314 7342 0
-7315 7342 0
-7316 7342 0
-7317 7342 0
-7318 7342 0
-7319 7342 0
-7320 7342 0
-7321 7342 0
-7322 7342 0
-7323 7342 0
-7324 7342 0
-7325 7342 0
-7326 7342 0
-7327 7342 0
-7328 7342 0
-7329 7342 0
-7330 7342 0
-7331 7342 0
-7332 7342 0
-7333 7342 0
-7334 7342 0
-7335 7342 0
-7336 7342 0
-7337 7342 0
-7338 7342 0
-7339 7342 0
-7340 7342 0
-7341 7342 0
-7342 7314 7315 7316 7317 7318 7319 7320 7321 7322 7323 7324 7325 7326 7327 7328 7329 7330 7331 7332 7333 7334 7335 7336 7337 7338 7339 7340 7341 0
-7343 17 0
-7343 45 0
7343 -17 -45 0
-7344 17 0
-7344 66 0
7344 -17 -66 0
-7345 17 0
-7345 87 0
7345 -17 -87 0
-7346 17 0
-7346 88 0
7346 -17 -88 0
-7347 17 0
-7347 89 0
7347 -17 -89 0
-7348 17 0
-7348 90 0
7348 -17 -90 0
-7349 17 0
-7349 91 0
7349 -17 -91 0
-7350 45 0
-7350 66 0
7350 -45 -66 0
-7351 45 0
-7351 87 0
7351 -45 -87 0
-7352 45 0
-7352 88 0
7352 -45 -88 0
-7353 45 0
-7353 89 0
7353 -45 -89 0
-7354 45 0
-7354 90 0
7354 -45 -90 0
-7355 45 0
-7355 91 0
7355 -45 -91 0
-7356 66 0
-7356 87 0
7356 -66 -87 0
-7357 66 0
-7357 88 0
7357 -66 -88 0
-7358 66 0
-7358 89 0
7358 -66 -89 0
-7359 66 0
-7359 90 0
7359 -66 -90 0
-7360 66 0
-7360 91 0
7360 -66 -91 0
-7361 87 0
-7361 88 0
7361 -87 -88 0
-7362 87 0
-7362 89 0
7362 -87 -89 0
-7363 87 0
-7363 90 0
7363 -87 -90 0
-7364 87 0
-7364 91 0
7364 -87 -91 0
-7365 88 0
-7365 89 0
7365 -88 -89 0
-7366 88 0
-7366 90 0
7366 -88 -90 0
-7367 88 0
-7367 91 0
7367 -88 -91 0
-7368 89 0
-7368 90 0
7368 -89 -90 0
-7369 89 0
-7369 91 0
7369 -89 -91 0
-7370 90 0
-7370 91 0
7370 -90 -91 0
-7343 7371 0
-7344 7371 0
-7345 7371 0
-7346 7371 0
-7347 7371 0
-7348 7371 0
-7349 7371 0
-7350 7371 0
-7351 7371 0
-7352 7371 0
-7353 7371 0
-7354 7371 0
-7355 7371 0
-7356 7371 0
-7357 7371 0
-7358 7371 0
-7359 7371 0
-7360 7371 0
-7361 7371 0
-7362 7371 0
-7363 7371 0
-7364 7371 0
-7365 7371 0
-7366 7371 0
-7367 7371 0
-7368 7371 0
-7369 7371 0
-7370 7371 0
-7371 7343 7344 7345 7346 7347 7348 7349 7350 7351 7352 7353 7354 7355 7356 7357 7358 7359 7360 7361 7362 7363 7364 7365 7366 7367 7368 7369 7370 0
-7372 18 0
-7372 46 0
7372 -18 -46 0
-7373 18 0
-7373 67 0
7373 -18 -67 0
-7374 18 0
-7374 87 0
7374 -18 -87 0
-7375 18 0
-7375 92 0
7375 -18 -92 0
-7376 18 0
-7376 93 0
7376 -18 -93 0
-7377 18 0
-7377 94 0
7377 -18 -94 0
-7378 18 0
-7378 95 0
7378 -18 -95 0
-7379 46 0
-7379 67 0
7379 -46 -67 0
-7380 46 0
-7380 87 0
7380 -46 -87 0
-7381 46 0
-7381 92 0
7381 -46 -92 0
-7382 46 0
-7382 93 0
7382 -46 -93 0
-7383 46 0
-7383 94 0
7383 -46 -94 0
-7384 46 0
-7384 95 0
7384 -46 -95 0
-7385 67 0
-7385 87 0
7385 -67 -87 0
-7386 67 0
-7386 92 0
7386 -67 -92 0
-7387 67 0
-7387 93 0
7387 -67 -93 0
-7388 67 0
-7388 94 0
7388 -67 -94 0
-7389 67 0
-7389 95 0
7389 -67 -95 0
-7390 87 0
-7390 92 0
7390 -87 -92 0
-7391 87 0
-7391 93 0
7391 -87 -93 0
-7392 87 0
-7392 94 0
7392 -87 -94 0
-7393 87 0
-7393 95 0
7393 -87 -95 0
-7394 92 0
-7394 93 0
7394 -92 -93 0
-7395 92 0
-7395 94 0
7395 -92 -94 0
-7396 92 0
-7396 95 0
7396 -92 -95 0
-7397 93 0
-7397 94 0
7397 -93 -94 0
-7398 93 0
-7398 95 0
7398 -93 -95 0
-7399 94 0
-7399 95 0
7399 -94 -95 0
-7372 7400 0
-7373 7400 0
-7374 7400 0
-7375 7400 0
-7376 7400 0
-7377 7400 0
-7378 7400 0
-7379 7400 0
-7380 7400 0
-7381 7400 0
-7382 7400 0
-7383 7400 0
-7384 7400 0
-7385 7400 0
-7386 7400 0
-7387 7400 0
-7388 7400 0
-7389 7400 0
-7390 7400 0
-7391 7400 0
-7392 7400 0
-7393 7400 0
-7394 7400 0
-7395 7400 0
-7396 7400 0
-7397 7400 0
-7398 7400 0
-7399 7400 0
-7400 7372 7373 7374 7375 7376 7377 7378 7379 7380 7381 7382 7383 7384 7385 7386 7387 7388 7389 7390 7391 7392 7393 7394 7395 7396 7397 7398 7399 0
-7401 19 0
-7401 47 0
7401 -19 -47 0
-7402 19 0
-7402 68 0
7402 -19 -68 0
-7403 19 0
-7403 88 0
7403 -19 -88 0
-7404 19 0
-7404 92 0
7404 -19 -92 0
-7405 19 0
-7405 96 0
7405 -19 -96 0
-7406 19 0
-7406 97 0
7406 -19 -97 0
-7407 19 0
-7407 98 0
7407 -19 -98 0
-7408 47 0
-7408 68 0
7408 -47 -68 0
-7409 47 0
-7409 88 0
7409 -47 -88 0
-7410 47 0
-7410 92 0
7410 -47 -92 0
-7411 47 0
-7411 96 0
7411 -47 -96 0
-7412 47 0
-7412 97 0
7412 -47 -97 0
-7413 47 0
-7413 98 0
7413 -47 -98 0
-7414 68 0
-7414 88 0
7414 -68 -88 0
-7415 68 0
-7415 92 0
7415 -68 -92 0
-7416 68 0
-7416 96 0
7416 -68 -96 0
-7417 68 0
-7417 97 0
7417 -68 -97 0
-7418 68 0
-7418 98 0
7418 -68 -98 0
-7419 88 0
-7419 92 0
7419 -88 -92 0
-7420 88 0
-7420 96 0
7420 -88 -96 0
-7421 88 0
-7421 97 0
7421 -88 -97 0
-7422 88 0
-7422 98 0
7422 -88 -98 0
-7423 92 0
-7423 96 0
7423 -92 -96 0
-7424 92 0
-7424 97 0
7424 -92 -97 0
-7425 92 0
-7425 98 0
7425 -92 -98 0
-7426 96 0
-7426 97 0
7426 -96 -97 0
-7427 96 0
-7427 98 0
7427 -96 -98 0
-7428 97 0
-7428 98 0
7428 -97 -98 0
-7401 7429 0
-7402 7429 0
-7403 7429 0
-7404 7429 0
-7405 7429 0
-7406 7429 0
-7407 7429 0
-7408 7429 0
-7409 7429 0
-7410 7429 0
-7411 7429 0
-7412 7429 0
-7413 7429 0
-7414 7429 0
-7415 7429 0
-7416 7429 0
-7417 7429 0
-7418 7429 0
-7419 7429 0
-7420 7429 0
-7421 7429 0
-7422 7429 0
-7423 7429 0
-7424 7429 0
-7425 7429 0
-7426 7429 0
-7427 7429 0
-7428 7429 0
-7429 7401 7402 7403 7404 7405 7406 7407 7408 7409 7410 7411 7412 7413 7414 7415 7416 7417 7418 7419 7420 7421 7422 7423 7424 7425 7426 7427 7428 0
-7430 20 0
-7430 48 0
7430 -20 -48 0
-7431 20 0
-7431 69 0
7431 -20 -69 0
-7432 20 0
-7432 89 0
7432 -20 -89 0
-7433 20 0
-7433 93 0
7433 -20 -93 0
-7434 20 0
-7434 96 0
7434 -20 -96 0
-7435 20 0
-7435 99 0
7435 -20 -99 0
-7436 20 0
-7436 100 0
7436 -20 -100 0
-7437 48 0
-7437 69 0
7437 -48 -69 0
-7438 48 0
-7438 89 0
7438 -48 -89 0
-7439 48 0
-7439 93 0
7439 -48 -93 0
-7440 48 0
-7440 96 0
7440 -48 -96 0
-7441 48 0
-7441 99 0
7441 -48 -99 0
-7442 48 0
-7442 100 0
7442 -48 -100 0
-7443 69 0
-7443 89 0
7443 -69 -89 0
-7444 69 0
-7444 93 0
7444 -69 -93 0
-7445 69 0
-7445 96 0
7445 -69 -96 0
-7446 69 0
-7446 99 0
7446 -69 -99 0
-7447 69 0
-7447 100 0
7447 -69 -100 0
-7448 89 0
-7448 93 0
7448 -89 -93 0
-7449 89 0
-7449 96 0
7449 -89 -96 0
-7450 89 0
-7450 99 0
7450 -89 -99 0
-7451 89 0
-7451 100 0
7451 -89 -100 0
-7452 93 0
-7452 96 0
7452 -93 -96 0
-7453 93 0
-7453 99 0
7453 -93 -99 0
-7454 93 0
-7454 100 0
7454 -93 -100 0
-7455 96 0
-7455 99 0
7455 -96 -99 0
-7456 96 0
-7456 100 0
7456 -96 -100 0
-7457 99 0
-7457 100 0
7457 -99 -100 0
-7430 7458 0
-7431 7458 0
-7432 7458 0
-7433 7458 0
-7434 7458 0
-7435 7458 0
-7436 7458 0
-7437 7458 0
-7438 7458 0
-7439 7458 0
-7440 7458 0
-7441 7458 0
-7442 7458 0
-7443 7458 0
-7444 7458 0
-7445 7458 0
-7446 7458 0
-7447 7458 0
-7448 7458 0
-7449 7458 0
-7450 7458 0
-7451 7458 0
-7452 7458 0
-7453 7458 0
-7454 7458 0
-7455 7458 0
-7456 7458 0
-7457 7458 0
-7458 7430 7431 7432 7433 7434 7435 7436 7437 7438 7439 7440 7441 7442 7443 7444 7445 7446 7447 7448 7449 7450 7451 7452 7453 7454 7455 7456 7457 0
-7459 21 0
-7459 49 0
7459 -21 -49 0
-7460 21 0
-7460 70 0
7460 -21 -70 0
-7461 21 0
-7461 90 0
7461 -21 -90 0
-7462 21 0
-7462 94 0
7462 -21 -94 0
-7463 21 0
-7463 97 0
7463 -21 -97 0
-7464 21 0
-7464 99 0
7464 -21 -99 0
-7465 21 0
-7465 101 0
7465 -21 -101 0
-7466 49 0
-7466 70 0
7466 -49 -70 0
-7467 49 0
-7467 90 0
7467 -49 -90 0
-7468 49 0
-7468 94 0
7468 -49 -94 0
-7469 49 0
-7469 97 0
7469 -49 -97 0
-7470 49 0
-7470 99 0
7470 -49 -99 0
-7471 49 0
-7471 101 0
7471 -49 -101 0
-7472 70 0
-7472 90 0
7472 -70 -90 0
-7473 70 0
-7473 94 0
7473 -70 -94 0
-7474 70 0
-7474 97 0
7474 -70 -97 0
-7475 70 0
-7475 99 0
7475 -70 -99 0
-7476 70 0
-7476 101 0
7476 -70 -101 0
-7477 90 0
-7477 94 0
7477 -90 -94 0
-7478 90 0
-7478 97 0
7478 -90 -97 0
-7479 90 0
-7479 99 0
7479 -90 -99 0
-7480 90 0
-7480 101 0
7480 -90 -101 0
-7481 94 0
-7481 97 0
7481 -94 -97 0
-7482 94 0
-7482 99 0
7482 -94 -99 0
-7483 94 0
-7483 101 0
7483 -94 -101 0
-7484 97 0
-7484 99 0
7484 -97 -99 0
-7485 97 0
-7485 101 0
7485 -97 -101 0
-7486 99 0
-7486 101 0
7486 -99 -101 0
-7459 7487 0
-7460 7487 0
-7461 7487 0
-7462 7487 0
-7463 7487 0
-7464 7487 0
-7465 7487 0
-7466 7487 0
-7467 7487 0
-7468 7487 0
-7469 7487 0
-7470 7487 0
-7471 7487 0
-7472 7487 0
-7473 7487 0
-7474 7487 0
-7475 7487 0
-7476 7487 0
-7477 7487 0
-7478 7487 0
-7479 7487 0
-7480 7487 0
-7481 7487 0
-7482 7487 0
-7483 7487 0
-7484 7487 0
-7485 7487 0
-7486 7487 0
-7487 7459 7460 7461 7462 7463 7464 7465 7466 7467 7468 7469 7470 7471 7472 7473 7474 7475 7476 7477 7478 7479 7480 7481 7482 7483 7484 7485 7486 0
-7488 22 0
-7488 50 0
7488 -22 -50 0
-7489 22 0
-7489 71 0
7489 -22 -71 0
-7490 22 0
-7490 91 0
7490 -22 -91 0
-7491 22 0
-7491 95 0
7491 -22 -95 0
-7492 22 0
-7492 98 0
7492 -22 -98 0
-7493 22 0
-7493 100 0
7493 -22 -100 0
-7494 22 0
-7494 101 0
7494 -22 -101 0
-7495 50 0
-7495 71 0
7495 -50 -71 0
-7496 50 0
-7496 91 0
7496 -50 -91 0
-7497 50 0
-7497 95 0
7497 -50 -95 0
-7498 50 0
-7498 98 0
7498 -50 -98 0
-7499 50 0
-7499 100 0
7499 -50 -100 0
-7500 50 0
-7500 101 0
7500 -50 -101 0
-7501 71 0
-7501 91 0
7501 -71 -91 0
-7502 71 0
-7502 95 0
7502 -71 -95 0
-7503 71 0
-7503 98 0
7503 -71 -98 0
-7504 71 0
-7504 100 0
7504 -71 -100 0
-7505 71 0
-7505 101 0
7505 -71 -101 0
-7506 91 0
-7506 95 0
7506 -91 -95 0
-7507 91 0
-7507 98 0
7507 -91 -98 0
-7508 91 0
-7508 100 0
7508 -91 -100 0
-7509 91 0
-7509 101 0
7509 -91 -101 0
-7510 95 0
-7510 98 0
7510 -95 -98 0
-7511 95 0
-7511 100 0
7511 -95 -100 0
-7512 95 0
-7512 101 0
7512 -95 -101 0
-7513 98 0
-7513 100 0
7513 -98 -100 0
-7514 98 0
-7514 101 0
7514 -98 -101 0
-7515 100 0
-7515 101 0
7515 -100 -101 0
-7488 7516 0
-7489 7516 0
-7490 7516 0
-7491 7516 0
-7492 7516 0
-7493 7516 0
-7494 7516 0
-7495 7516 0
-7496 7516 0
-7497 7516 0
-7498 7516 0
-7499 7516 0
-7500 7516 0
-7501 7516 0
-7502 7516 0
-7503 7516 0
-7504 7516 0
-7505 7516 0
-7506 7516 0
-7507 7516 0
-7508 7516 0
-7509 7516 0
-7510 7516 0
-7511 7516 0
-7512 7516 0
-7513 7516 0
-7514 7516 0
-7515 7516 0
-7516 7488 7489 7490 7491 7492 7493 7494 7495 7496 7497 7498 7499 7500 7501 7502 7503 7504 7505 7506 7507 7508 7509 7510 7511 7512 7513 7514 7515 0
-7517 23 0
-7517 51 0
7517 -23 -51 0
-7518 23 0
-7518 72 0
7518 -23 -72 0
-7519 23 0
-7519 87 0
7519 -23 -87 0
-7520 23 0
-7520 102 0
7520 -23 -102 0
-7521 23 0
-7521 103 0
7521 -23 -103 0
-7522 23 0
-7522 104 0
7522 -23 -104 0
-7523 23 0
-7523 105 0
7523 -23 -105 0
-7524 51 0
-7524 72 0
7524 -51 -72 0
-7525 51 0
-7525 87 0
7525 -51 -87 0
-7526 51 0
-7526 102 0
7526 -51 -102 0
-7527 51 0
-7527 103 0
7527 -51 -103 0
-7528 51 0
-7528 104 0
7528 -51 -104 0
-7529 51 0
-7529 105 0
7529 -51 -105 0
-7530 72 0
-7530 87 0
7530 -72 -87 0
-7531 72 0
-7531 102 0
7531 -72 -102 0
-7532 72 0
-7532 103 0
7532 -72 -103 0
-7533 72 0
-7533 104 0
7533 -72 -104 0
-7534 72 0
-7534 105 0
7534 -72 -105 0
-7535 87 0
-7535 102 0
7535 -87 -102 0
-7536 87 0
-7536 103 0
7536 -87 -103 0
-7537 87 0
-7537 104 0
7537 -87 -104 0
-7538 87 0
-7538 105 0
7538 -87 -105 0
-7539 102 0
-7539 103 0
7539 -102 -103 0
-7540 102 0
-7540 104 0
7540 -102 -104 0
-7541 102 0
-7541 105 0
7541 -102 -105 0
-7542 103 0
-7542 104 0
7542 -103 -104 0
-7543 103 0
-7543 105 0
7543 -103 -105 0
-7544 104 0
-7544 105 0
7544 -104 -105 0
-7517 7545 0
-7518 7545 0
-7519 7545 0
-7520 7545 0
-7521 7545 0
-7522 7545 0
-7523 7545 0
-7524 7545 0
-7525 7545 0
-7526 7545 0
-7527 7545 0
-7528 7545 0
-7529 7545 0
-7530 7545 0
-7531 7545 0
-7532 7545 0
-7533 7545 0
-7534 7545 0
-7535 7545 0
-7536 7545 0
-7537 7545 0
-7538 7545 0
-7539 7545 0
-7540 7545 0
-7541 7545 0
-7542 7545 0
-7543 7545 0
-7544 7545 0
-7545 7517 7518 7519 7520 7521 7522 7523 7524 7525 7526 7527 7528 7529 7530 7531 7532 7533 7534 7535 7536 7537 7538 7539 7540 7541 7542 7543 7544 0
-7546 24 0
-7546 52 0
7546 -24 -52 0
-7547 24 0
-7547 73 0
7547 -24 -73 0
-7548 24 0
-7548 88 0
7548 -24 -88 0
-7549 24 0
-7549 102 0
7549 -24 -102 0
-7550 24 0
-7550 106 0
7550 -24 -106 0
-7551 24 0
-7551 107 0
7551 -24 -107 0
-7552 24 0
-7552 108 0
7552 -24 -108 0
-7553 52 0
-7553 73 0
7553 -52 -73 0
-7554 52 0
-7554 88 0
7554 -52 -88 0
-7555 52 0
-7555 102 0
7555 -52 -102 0
-7556 52 0
-7556 106 0
7556 -52 -106 0
-7557 52 0
-7557 107 0
7557 -52 -107 0
-7558 52 0
-7558 108 0
7558 -52 -108 0
-7559 73 0
-7559 88 0
7559 -73 -88 0
-7560 73 0
-7560 102 0
7560 -73 -102 0
-7561 73 0
-7561 106 0
7561 -73 -106 0
-7562 73 0
-7562 107 0
7562 -73 -107 0
-7563 73 0
-7563 108 0
7563 -73 -108 0
-7564 88 0
-7564 102 0
7564 -88 -102 0
-7565 88 0
-7565 106 0
7565 -88 -106 0
-7566 88 0
-7566 107 0
7566 -88 -107 0
-7567 88 0
-7567 108 0
7567 -88 -108 0
-7568 102 0
-7568 106 0
7568 -102 -106 0
-7569 102 0
-7569 107 0
7569 -102 -107 0
-7570 102 0
-7570 108 0
7570 -102 -108 0
-7571 106 0
-7571 107 0
7571 -106 -107 0
-7572 106 0
-7572 108 0
7572 -106 -108 0
-7573 107 0
-7573 108 0
7573 -107 -108 0
-7546 7574 0
-7547 7574 0
-7548 7574 0
-7549 7574 0
-7550 7574 0
-7551 7574 0
-7552 7574 0
-7553 7574 0
-7554 7574 0
-7555 7574 0
-7556 7574 0
-7557 7574 0
-7558 7574 0
-7559 7574 0
-7560 7574 0
-7561 7574 0
-7562 7574 0
-7563 7574 0
-7564 7574 0
-7565 7574 0
-7566 7574 0
-7567 7574 0
-7568 7574 0
-7569 7574 0
-7570 7574 0
-7571 7574 0
-7572 7574 0
-7573 7574 0
-7574 7546 7547 7548 7549 7550 7551 7552 7553 7554 7555 7556 7557 7558 7559 7560 7561 7562 7563 7564 7565 7566 7567 7568 7569 7570 7571 7572 7573 0
-7575 25 0
-7575 53 0
7575 -25 -53 0
-7576 25 0
-7576 74 0
7576 -25 -74 0
-7577 25 0
-7577 89 0
7577 -25 -89 0
-7578 25 0
-7578 103 0
7578 -25 -103 0
-7579 25 0
-7579 106 0
7579 -25 -106 0
-7580 25 0
-7580 109 0
7580 -25 -109 0
-7581 25 0
-7581 110 0
7581 -25 -110 0
-7582 53 0
-7582 74 0
7582 -53 -74 0
-7583 53 0
-7583 89 0
7583 -53 -89 0
-7584 53 0
-7584 103 0
7584 -53 -103 0
-7585 53 0
-7585 106 0
7585 -53 -106 0
-7586 53 0
-7586 109 0
7586 -53 -109 0
-7587 53 0
-7587 110 0
7587 -53 -110 0
-7588 74 0
-7588 89 0
7588 -74 -89 0
-7589 74 0
-7589 103 0
7589 -74 -103 0
-7590 74 0
-7590 106 0
7590 -74 -106 0
-7591 74 0
-7591 109 0
7591 -74 -109 0
-7592 74 0
-7592 110 0
7592 -74 -110 0
-7593 89 0
-7593 103 0
7593 -89 -103 0
-7594 89 0
-7594 106 0
7594 -89 -106 0
-7595 89 0
-7595 109 0
7595 -89 -109 0
-7596 89 0
-7596 110 0
7596 -89 -110 0
-7597 103 0
-7597 106 0
7597 -103 -106 0
-7598 103 0
-7598 109 0
7598 -103 -109 0
-7599 103 0
-7599 110 0
7599 -103 -110 0
-7600 106 0
-7600 109 0
7600 -106 -109 0
-7601 106 0
-7601 110 0
7601 -106 -110 0
-7602 109 0
-7602 110 0
7602 -109 -110 0
-7575 7603 0
-7576 7603 0
-7577 7603 0
-7578 7603 0
-7579 7603 0
-7580 7603 0
-7581 7603 0
-7582 7603 0
-7583 7603 0
-7584 7603 0
-7585 7603 0
-7586 7603 0
-7587 7603 0
-7588 7603 0
-7589 7603 0
-7590 7603 0
-7591 7603 0
-7592 7603 0
-7593 7603 0
-7594 7603 0
-7595 7603 0
-7596 7603 0
-7597 7603 0
-7598 7603 0
-7599 7603 0
-7600 7603 0
-7601 7603 0
-7602 7603 0
-7603 7575 7576 7577 7578 7579 7580 7581 7582 7583 7584 7585 7586 7587 7588 7589 7590 7591 7592 7593 7594 7595 7596 7597 7598 7599 7600 7601 7602 0
-7604 26 0
-7604 54 0
7604 -26 -54 0
-7605 26 0
-7605 75 0
7605 -26 -75 0
-7606 26 0
-7606 90 0
7606 -26 -90 0
-7607 26 0
-7607 104 0
7607 -26 -104 0
-7608 26 0
-7608 107 0
7608 -26 -107 0
-7609 26 0
-7609 109 0
7609 -26 -109 0
-7610 26 0
-7610 111 0
7610 -26 -111 0
-7611 54 0
-7611 75 0
7611 -54 -75 0
-7612 54 0
-7612 90 0
7612 -54 -90 0
-7613 54 0
-7613 104 0
7613 -54 -104 0
-7614 54 0
-7614 107 0
7614 -54 -107 0
-7615 54 0
-7615 109 0
7615 -54 -109 0
-7616 54 0
-7616 111 0
7616 -54 -111 0
-7617 75 0
-7617 90 0
7617 -75 -90 0
-7618 75 0
-7618 104 0
7618 -75 -104 0
-7619 75 0
-7619 107 0
7619 -75 -107 0
-7620 75 0
-7620 109 0
7620 -75 -109 0
-7621 75 0
-7621 111 0
7621 -75 -111 0
-7622 90 0
-7622 104 0
7622 -90 -104 0
-7623 90 0
-7623 107 0
7623 -90 -107 0
-7624 90 0
-7624 109 0
7624 -90 -109 0
-7625 90 0
-7625 111 0
7625 -90 -111 0
-7626 104 0
-7626 107 0
7626 -104 -107 0
-7627 104 0
-7627 109 0
7627 -104 -109 0
-7628 104 0
-7628 111 0
7628 -104 -111 0
-7629 107 0
-7629 109 0
7629 -107 -109 0
-7630 107 0
-7630 111 0
7630 -107 -111 0
-7631 109 0
-7631 111 0
7631 -109 -111 0
-7604 7632 0
-7605 7632 0
-7606 7632 0
-7607 7632 0
-7608 7632 0
-7609 7632 0
-7610 7632 0
-7611 7632 0
-7612 7632 0
-7613 7632 0
-7614 7632 0
-7615 7632 0
-7616 7632 0
-7617 7632 0
-7618 7632 0
-7619 7632 0
-7620 7632 0
-7621 7632 0
-7622 7632 0
-7623 7632 0
-7624 7632 0
-7625 7632 0
-7626 7632 0
-7627 7632 0
-7628 7632 0
-7629 7632 0
-7630 7632 0
-7631 7632 0
-7632 7604 7605 7606 7607 7608 7609 7610 7611 7612 7613 7614 7615 7616 7617 7618 7619 7620 7621 7622 7623 7624 7625 7626 7627 7628 7629 7630 7631 0
-7633 27 0
-7633 55 0
7633 -27 -55 0
-7634 27 0
-7634 76 0
7634 -27 -76 0
-7635 27 0
-7635 91 0
7635 -27 -91 0
-7636 27 0
-7636 105 0
7636 -27 -105 0
-7637 27 0
-7637 108 0
7637 -27 -108 0
-7638 27 0
-7638 110 0
7638 -27 -110 0
-7639 27 0
-7639 111 0
7639 -27 -111 0
-7640 55 0
-7640 76 0
7640 -55 -76 0
-7641 55 0
-7641 91 0
7641 -55 -91 0
-7642 55 0
-7642 105 0
7642 -55 -105 0
-7643 55 0
-7643 108 0
7643 -55 -108 0
-7644 55 0
-7644 110 0
7644 -55 -110 0
-7645 55 0
-7645 111 0
7645 -55 -111 0
-7646 76 0
-7646 91 0
7646 -76 -91 0
-7647 76 0
-7647 105 0
7647 -76 -105 0
-7648 76 0
-7648 108 0
7648 -76 -108 0
-7649 76 0
-7649 110 0
7649 -76 -110 0
-7650 76 0
-7650 111 0
7650 -76 -111 0
-7651 91 0
-7651 105 0
7651 -91 -105 0
-7652 91 0
-7652 108 0
7652 -91 -108 0
-7653 91 0
-7653 110 0
7653 -91 -110 0
-7654 91 0
-7654 111 0
7654 -91 -111 0
-7655 105 0
-7655 108 0
7655 -105 -108 0
-7656 105 0
-7656 110 0
7656 -105 -110 0
-7657 105 0
-7657 111 0
7657 -105 -111 0
-7658 108 0
-7658 110 0
7658 -108 -110 0
-7659 108 0
-7659 111 0
7659 -108 -111 0
-7660 110 0
-7660 111 0
7660 -110 -111 0
-7633 7661 0
-7634 7661 0
-7635 7661 0
-7636 7661 0
-7637 7661 0
-7638 7661 0
-7639 7661 0
-7640 7661 0
-7641 7661 0
-7642 7661 0
-7643 7661 0
-7644 7661 0
-7645 7661 0
-7646 7661 0
-7647 7661 0
-7648 7661 0
-7649 7661 0
-7650 7661 0
-7651 7661 0
-7652 7661 0
-7653 7661 0
-7654 7661 0
-7655 7661 0
-7656 7661 0
-7657 7661 0
-7658 7661 0
-7659 7661 0
-7660 7661 0
-7661 7633 7634 7635 7636 7637 7638 7639 7640 7641 7642 7643 7644 7645 7646 7647 7648 7649 7650 7651 7652 7653 7654 7655 7656 7657 7658 7659 7660 0
-7662 28 0
-7662 56 0
7662 -28 -56 0
-7663 28 0
-7663 77 0
7663 -28 -77 0
-7664 28 0
-7664 92 0
7664 -28 -92 0
-7665 28 0
-7665 102 0
7665 -28 -102 0
-7666 28 0
-7666 112 0
7666 -28 -112 0
-7667 28 0
-7667 113 0
7667 -28 -113 0
-7668 28 0
-7668 114 0
7668 -28 -114 0
-7669 56 0
-7669 77 0
7669 -56 -77 0
-7670 56 0
-7670 92 0
7670 -56 -92 0
-7671 56 0
-7671 102 0
7671 -56 -102 0
-7672 56 0
-7672 112 0
7672 -56 -112 0
-7673 56 0
-7673 113 0
7673 -56 -113 0
-7674 56 0
-7674 114 0
7674 -56 -114 0
-7675 77 0
-7675 92 0
7675 -77 -92 0
-7676 77 0
-7676 102 0
7676 -77 -102 0
-7677 77 0
-7677 112 0
7677 -77 -112 0
-7678 77 0
-7678 113 0
7678 -77 -113 0
-7679 77 0
-7679 114 0
7679 -77 -114 0
-7680 92 0
-7680 102 0
7680 -92 -102 0
-7681 92 0
-7681 112 0
7681 -92 -112 0
-7682 92 0
-7682 113 0
7682 -92 -113 0
-7683 92 0
-7683 114 0
7683 -92 -114 0
-7684 102 0
-7684 112 0
7684 -102 -112 0
-7685 102 0
-7685 113 0
7685 -102 -113 0
-7686 102 0
-7686 114 0
7686 -102 -114 0
-7687 112 0
-7687 113 0
7687 -112 -113 0
-7688 112 0
-7688 114 0
7688 -112 -114 0
-7689 113 0
-7689 114 0
7689 -113 -114 0
-7662 7690 0
-7663 7690 0
-7664 7690 0
-7665 7690 0
-7666 7690 0
-7667 7690 0
-7668 7690 0
-7669 7690 0
-7670 7690 0
-7671 7690 0
-7672 7690 0
-7673 7690 0
-7674 7690 0
-7675 7690 0
-7676 7690 0
-7677 7690 0
-7678 7690 0
-7679 7690 0
-7680 7690 0
-7681 7690 0
-7682 7690 0
-7683 7690 0
-7684 7690 0
-7685 7690 0
-7686 7690 0
-7687 7690 0
-7688 7690 0
-7689 7690 0
-7690 7662 7663 7664 7665 7666 7667 7668 7669 7670 7671 7672 7673 7674 7675 7676 7677 7678 7679 7680 7681 7682 7683 7684 7685 7686 7687 7688 7689 0
-7691 29 0
-7691 57 0
7691 -29 -57 0
-7692 29 0
-7692 78 0
7692 -29 -78 0
-7693 29 0
-7693 93 0
7693 -29 -93 0
-7694 29 0
-7694 103 0
7694 -29 -103 0
-7695 29 0
-7695 112 0
7695 -29 -112 0
-7696 29 0
-7696 115 0
7696 -29 -115 0
-7697 29 0
-7697 116 0
7697 -29 -116 0
-7698 57 0
-7698 78 0
7698 -57 -78 0
-7699 57 0
-7699 93 0
7699 -57 -93 0
-7700 57 0
-7700 103 0
7700 -57 -103 0
-7701 57 0
-7701 112 0
7701 -57 -112 0
-7702 57 0
-7702 115 0
7702 -57 -115 0
-7703 57 0
-7703 116 0
7703 -57 -116 0
-7704 78 0
-7704 93 0
7704 -78 -93 0
-7705 78 0
-7705 103 0
7705 -78 -103 0
-7706 78 0
-7706 112 0
7706 -78 -112 0
-7707 78 0
-7707 115 0
7707 -78 -115 0
-7708 78 0
-7708 116 0
7708 -78 -116 0
-7709 93 0
-7709 103 0
7709 -93 -103 0
-7710 93 0
-7710 112 0
7710 -93 -112 0
-7711 93 0
-7711 115 0
7711 -93 -115 0
-7712 93 0
-7712 116 0
7712 -93 -116 0
-7713 103 0
-7713 112 0
7713 -103 -112 0
-7714 103 0
-7714 115 0
7714 -103 -115 0
-7715 103 0
-7715 116 0
7715 -103 -116 0
-7716 112 0
-7716 115 0
7716 -112 -115 0
-7717 112 0
-7717 116 0
7717 -112 -116 0
-7718 115 0
-7718 116 0
7718 -115 -116 0
-7691 7719 0
-7692 7719 0
-7693 7719 0
-7694 7719 0
-7695 7719 0
-7696 7719 0
-7697 7719 0
-7698 7719 0
-7699 7719 0
-7700 7719 0
-7701 7719 0
-7702 7719 0
-7703 7719 0
-7704 7719 0
-7705 7719 0
-7706 7719 0
-7707 7719 0
-7708 7719 0
-7709 7719 0
-7710 7719 0
-7711 7719 0
-7712 7719 0
-7713 7719 0
-7714 7719 0
-7715 7719 0
-7716 7719 0
-7717 7719 0
-7718 7719 0
-7719 7691 7692 7693 7694 7695 7696 7697 7698 7699 7700 7701 7702 7703 7704 7705 7706 7707 7708 7709 7710 7711 7712 7713 7714 7715 7716 7717 7718 0
-7720 30 0
-7720 58 0
7720 -30 -58 0
-7721 30 0
-7721 79 0
7721 -30 -79 0
-7722 30 0
-7722 94 0
7722 -30 -94 0
-7723 30 0
-7723 104 0
7723 -30 -104 0
-7724 30 0
-7724 113 0
7724 -30 -113 0
-7725 30 0
-7725 115 0
7725 -30 -115 0
-7726 30 0
-7726 117 0
7726 -30 -117 0
-7727 58 0
-7727 79 0
7727 -58 -79 0
-7728 58 0
-7728 94 0
7728 -58 -94 0
-7729 58 0
-7729 104 0
7729 -58 -104 0
-7730 58 0
-7730 113 0
7730 -58 -113 0
-7731 58 0
-7731 115 0
7731 -58 -115 0
-7732 58 0
-7732 117 0
7732 -58 -117 0
-7733 79 0
-7733 94 0
7733 -79 -94 0
-7734 79 0
-7734 104 0
7734 -79 -104 0
-7735 79 0
-7735 113 0
7735 -79 -113 0
-7736 79 0
-7736 115 0
7736 -79 -115 0
-7737 79 0
-7737 117 0
7737 -79 -117 0
-7738 94 0
-7738 104 0
7738 -94 -104 0
-7739 94 0
-7739 113 0
7739 -94 -113 0
-7740 94 0
-7740 115 0
7740 -94 -115 0
-7741 94 0
-7741 117 0
7741 -94 -117 0
-7742 104 0
-7742 113 0
7742 -104 -113 0
-7743 104 0
-7743 115 0
7743 -104 -115 0
-7744 104 0
-7744 117 0
7744 -104 -117 0
-7745 113 0
-7745 115 0
7745 -113 -115 0
-7746 113 0
-7746 117 0
7746 -113 -117 0
-7747 115 0
-7747 117 0
7747 -115 -117 0
-7720 7748 0
-7721 7748 0
-7722 7748 0
-7723 7748 0
-7724 7748 0
-7725 7748 0
-7726 7748 0
-7727 7748 0
-7728 7748 0
-7729 7748 0
-7730 7748 0
-7731 7748 0
-7732 7748 0
-7733 7748 0
-7734 7748 0
-7735 7748 0
-7736 7748 0
-7737 7748 0
-7738 7748 0
-7739 7748 0
-7740 7748 0
-7741 7748 0
-7742 7748 0
-7743 7748 0
-7744 7748 0
-7745 7748 0
-7746 7748 0
-7747 7748 0
-7748 7720 7721 7722 7723 7724 7725 7726 7727 7728 7729 7730 7731 7732 7733 7734 7735 7736 7737 7738 7739 7740 7741 7742 7743 7744 7745 7746 7747 0
-7749 31 0
-7749 59 0
7749 -31 -59 0
-7750 31 0
-7750 80 0
7750 -31 -80 0
-7751 31 0
-7751 95 0
7751 -31 -95 0
-7752 31 0
-7752 105 0
7752 -31 -105 0
-7753 31 0
-7753 114 0
7753 -31 -114 0
-7754 31 0
-7754 116 0
7754 -31 -116 0
-7755 31 0
-7755 117 0
7755 -31 -117 0
-7756 59 0
-7756 80 0
7756 -59 -80 0
-7757 59 0
-7757 95 0
7757 -59 -95 0
-7758 59 0
-7758 105 0
7758 -59 -105 0
-7759 59 0
-7759 114 0
7759 -59 -114 0
-7760 59 0
-7760 116 0
7760 -59 -116 0
-7761 59 0
-7761 117 0
7761 -59 -117 0
-7762 80 0
-7762 95 0
7762 -80 -95 0
-7763 80 0
-7763 105 0
7763 -80 -105 0
-7764 80 0
-7764 114 0
7764 -80 -114 0
-7765 80 0
-7765 116 0
7765 -80 -116 0
-7766 80 0
-7766 117 0
7766 -80 -117 0
-7767 95 0
-7767 105 0
7767 -95 -105 0
-7768 95 0
-7768 114 0
7768 -95 -114 0
-7769 95 0
-7769 116 0
7769 -95 -116 0
-7770 95 0
-7770 117 0
7770 -95 -117 0
-7771 105 0
-7771 114 0
7771 -105 -114 0
-7772 105 0
-7772 116 0
7772 -105 -116 0
-7773 105 0
-7773 117 0
7773 -105 -117 0
-7774 114 0
-7774 116 0
7774 -114 -116 0
-7775 114 0
-7775 117 0
7775 -114 -117 0
-7776 116 0
-7776 117 0
7776 -116 -117 0
-7749 7777 0
-7750 7777 0
-7751 7777 0
-7752 7777 0
-7753 7777 0
-7754 7777 0
-7755 7777 0
-7756 7777 0
-7757 7777 0
-7758 7777 0
-7759 7777 0
-7760 7777 0
-7761 7777 0
-7762 7777 0
-7763 7777 0
-7764 7777 0
-7765 7777 0
-7766 7777 0
-7767 7777 0
-7768 7777 0
-7769 7777 0
-7770 7777 0
-7771 7777 0
-7772 7777 0
-7773 7777 0
-7774 7777 0
-7775 7777 0
-7776 7777 0
-7777 7749 7750 7751 7752 7753 7754 7755 7756 7757 7758 7759 7760 7761 7762 7763 7764 7765 7766 7767 7768 7769 7770 7771 7772 7773 7774 7775 7776 0
-7778 32 0
-7778 60 0
7778 -32 -60 0
-7779 32 0
-7779 81 0
7779 -32 -81 0
-7780 32 0
-7780 96 0
7780 -32 -96 0
-7781 32 0
-7781 106 0
7781 -32 -106 0
-7782 32 0
-7782 112 0
7782 -32 -112 0
-7783 32 0
-7783 118 0
7783 -32 -118 0
-7784 32 0
-7784 119 0
7784 -32 -119 0
-7785 60 0
-7785 81 0
7785 -60 -81 0
-7786 60 0
-7786 96 0
7786 -60 -96 0
-7787 60 0
-7787 106 0
7787 -60 -106 0
-7788 60 0
-7788 112 0
7788 -60 -112 0
-7789 60 0
-7789 118 0
7789 -60 -118 0
-7790 60 0
-7790 119 0
7790 -60 -119 0
-7791 81 0
-7791 96 0
7791 -81 -96 0
-7792 81 0
-7792 106 0
7792 -81 -106 0
-7793 81 0
-7793 112 0
7793 -81 -112 0
-7794 81 0
-7794 118 0
7794 -81 -118 0
-7795 81 0
-7795 119 0
7795 -81 -119 0
-7796 96 0
-7796 106 0
7796 -96 -106 0
-7797 96 0
-7797 112 0
7797 -96 -112 0
-7798 96 0
-7798 118 0
7798 -96 -118 0
-7799 96 0
-7799 119 0
7799 -96 -119 0
-7800 106 0
-7800 112 0
7800 -106 -112 0
-7801 106 0
-7801 118 0
7801 -106 -118 0
-7802 106 0
-7802 119 0
7802 -106 -119 0
-7803 112 0
-7803 118 0
7803 -112 -118 0
-7804 112 0
-7804 119 0
7804 -112 -119 0
-7805 118 0
-7805 119 0
7805 -118 -119 0
-7778 7806 0
-7779 7806 0
-7780 7806 0
-7781 7806 0
-7782 7806 0
-7783 7806 0
-7784 7806 0
-7785 7806 0
-7786 7806 0
-7787 7806 0
-7788 7806 0
-7789 7806 0
-7790 7806 0
-7791 7806 0
-7792 7806 0
-7793 7806 0
-7794 7806 0
-7795 7806 0
-7796 7806 0
-7797 7806 0
-7798 7806 0
-7799 7806 0
-7800 7806 0
-7801 7806 0
-7802 7806 0
-7803 7806 0
-7804 7806 0
-7805 7806 0
-7806 7778 7779 7780 7781 7782 7783 7784 7785 7786 7787 7788 7789 7790 7791 7792 7793 7794 7795 7796 7797 7798 7799 7800 7801 7802 7803 7804 7805 0
-7807 33 0
-7807 61 0
7807 -33 -61 0
-7808 33 0
-7808 82 0
7808 -33 -82 0
-7809 33 0
-7809 97 0
7809 -33 -97 0
-7810 33 0
-7810 107 0
7810 -33 -107 0
-7811 33 0
-7811 113 0
7811 -33 -113 0
-7812 33 0
-7812 118 0
7812 -33 -118 0
-7813 33 0
-7813 120 0
7813 -33 -120 0
-7814 61 0
-7814 82 0
7814 -61 -82 0
-7815 61 0
-7815 97 0
7815 -61 -97 0
-7816 61 0
-7816 107 0
7816 -61 -107 0
-7817 61 0
-7817 113 0
7817 -61 -113 0
-7818 61 0
-7818 118 0
7818 -61 -118 0
-7819 61 0
-7819 120 0
7819 -61 -120 0
-7820 82 0
-7820 97 0
7820 -82 -97 0
-7821 82 0
-7821 107 0
7821 -82 -107 0
-7822 82 0
-7822 113 0
7822 -82 -113 0
-7823 82 0
-7823 118 0
7823 -82 -118 0
-7824 82 0
-7824 120 0
7824 -82 -120 0
-7825 97 0
-7825 107 0
7825 -97 -107 0
-7826 97 0
-7826 113 0
7826 -97 -113 0
-7827 97 0
-7827 118 0
7827 -97 -118 0
-7828 97 0
-7828 120 0
7828 -97 -120 0
-7829 107 0
-7829 113 0
7829 -107 -113 0
-7830 107 0
-7830 118 0
7830 -107 -118 0
-7831 107 0
-7831 120 0
7831 -107 -120 0
-7832 113 0
-7832 118 0
7832 -113 -118 0
-7833 113 0
-7833 120 0
7833 -113 -120 0
-7834 118 0
-7834 120 0
7834 -118 -120 0
-7807 7835 0
-7808 7835 0
-7809 7835 0
-7810 7835 0
-7811 7835 0
-7812 7835 0
-7813 7835 0
-7814 7835 0
-7815 7835 0
-7816 7835 0
-7817 7835 0
-7818 7835 0
-7819 7835 0
-7820 7835 0
-7821 7835 0
-7822 7835 0
-7823 7835 0
-7824 7835 0
-7825 7835 0
-7826 7835 0
-7827 7835 0
-7828 7835 0
-7829 7835 0
-7830 7835 0
-7831 7835 0
-7832 7835 0
-7833 7835 0
-7834 7835 0
-7835 7807 7808 7809 7810 7811 7812 7813 7814 7815 7816 7817 7818 7819 7820 7821 7822 7823 7824 7825 7826 7827 7828 7829 7830 7831 7832 7833 7834 0
-7836 34 0
-7836 62 0
7836 -34 -62 0
-7837 34 0
-7837 83 0
7837 -34 -83 0
-7838 34 0
-7838 98 0
7838 -34 -98 0
-7839 34 0
-7839 108 0
7839 -34 -108 0
-7840 34 0
-7840 114 0
7840 -34 -114 0
-7841 34 0
-7841 119 0
7841 -34 -119 0
-7842 34 0
-7842 120 0
7842 -34 -120 0
-7843 62 0
-7843 83 0
7843 -62 -83 0
-7844 62 0
-7844 98 0
7844 -62 -98 0
-7845 62 0
-7845 108 0
7845 -62 -108 0
-7846 62 0
-7846 114 0
7846 -62 -114 0
-7847 62 0
-7847 119 0
7847 -62 -119 0
-7848 62 0
-7848 120 0
7848 -62 -120 0
-7849 83 0
-7849 98 0
7849 -83 -98 0
-7850 83 0
-7850 108 0
7850 -83 -108 0
-7851 83 0
-7851 114 0
7851 -83 -114 0
-7852 83 0
-7852 119 0
7852 -83 -119 0
-7853 83 0
-7853 120 0
7853 -83 -120 0
-7854 98 0
-7854 108 0
7854 -98 -108 0
-7855 98 0
-7855 114 0
7855 -98 -114 0
-7856 98 0
-7856 119 0
7856 -98 -119 0
-7857 98 0
-7857 120 0
7857 -98 -120 0
-7858 108 0
-7858 114 0
7858 -108 -114 0
-7859 108 0
-7859 119 0
7859 -108 -119 0
-7860 108 0
-7860 120 0
7860 -108 -120 0
-7861 114 0
-7861 119 0
7861 -114 -119 0
-7862 114 0
-7862 120 0
7862 -114 -120 0
-7863 119 0
-7863 120 0
7863 -119 -120 0
-7836 7864 0
-7837 7864 0
-7838 7864 0
-7839 7864 0
-7840 7864 0
-7841 7864 0
-7842 7864 0
-7843 7864 0
-7844 7864 0
-7845 7864 0
-7846 7864 0
-7847 7864 0
-7848 7864 0
-7849 7864 0
-7850 7864 0
-7851 7864 0
-7852 7864 0
-7853 7864 0
-7854 7864 0
-7855 7864 0
-7856 7864 0
-7857 7864 0
-7858 7864 0
-7859 7864 0
-7860 7864 0
-7861 7864 0
-7862 7864 0
-7863 7864 0
-7864 7836 7837 7838 7839 7840 7841 7842 7843 7844 7845 7846 7847 7848 7849 7850 7851 7852 7853 7854 7855 7856 7857 7858 7859 7860 7861 7862 7863 0
-7865 35 0
-7865 63 0
7865 -35 -63 0
-7866 35 0
-7866 84 0
7866 -35 -84 0
-7867 35 0
-7867 99 0
7867 -35 -99 0
-7868 35 0
-7868 109 0
7868 -35 -109 0
-7869 35 0
-7869 115 0
7869 -35 -115 0
-7870 35 0
-7870 118 0
7870 -35 -118 0
-7871 35 0
-7871 121 0
7871 -35 -121 0
-7872 63 0
-7872 84 0
7872 -63 -84 0
-7873 63 0
-7873 99 0
7873 -63 -99 0
-7874 63 0
-7874 109 0
7874 -63 -109 0
-7875 63 0
-7875 115 0
7875 -63 -115 0
-7876 63 0
-7876 118 0
7876 -63 -118 0
-7877 63 0
-7877 121 0
7877 -63 -121 0
-7878 84 0
-7878 99 0
7878 -84 -99 0
-7879 84 0
-7879 109 0
7879 -84 -109 0
-7880 84 0
-7880 115 0
7880 -84 -115 0
-7881 84 0
-7881 118 0
7881 -84 -118 0
-7882 84 0
-7882 121 0
7882 -84 -121 0
-7883 99 0
-7883 109 0
7883 -99 -109 0
-7884 99 0
-7884 115 0
7884 -99 -115 0
-7885 99 0
-7885 118 0
7885 -99 -118 0
-7886 99 0
-7886 121 0
7886 -99 -121 0
-7887 109 0
-7887 115 0
7887 -109 -115 0
-7888 109 0
-7888 118 0
7888 -109 -118 0
-7889 109 0
-7889 121 0
7889 -109 -121 0
-7890 115 0
-7890 118 0
7890 -115 -118 0
-7891 115 0
-7891 121 0
7891 -115 -121 0
-7892 118 0
-7892 121 0
7892 -118 -121 0
-7865 7893 0
-7866 7893 0
-7867 7893 0
-7868 7893 0
-7869 7893 0
-7870 7893 0
-7871 7893 0
-7872 7893 0
-7873 7893 0
-7874 7893 0
-7875 7893 0
-7876 7893 0
-7877 7893 0
-7878 7893 0
-7879 7893 0
-7880 7893 0
-7881 7893 0
-7882 7893 0
-7883 7893 0
-7884 7893 0
-7885 7893 0
-7886 7893 0
-7887 7893 0
-7888 7893 0
-7889 7893 0
-7890 7893 0
-7891 7893 0
-7892 7893 0
-7893 7865 7866 7867 7868 7869 7870 7871 7872 7873 7874 7875 7876 7877 7878 7879 7880 7881 7882 7883 7884 7885 7886 7887 7888 7889 7890 7891 7892 0
-7894 36 0
-7894 64 0
7894 -36 -64 0
-7895 36 0
-7895 85 0
7895 -36 -85 0
-7896 36 0
-7896 100 0
7896 -36 -100 0
-7897 36 0
-7897 110 0
7897 -36 -110 0
-7898 36 0
-7898 116 0
7898 -36 -116 0
-7899 36 0
-7899 119 0
7899 -36 -119 0
-7900 36 0
-7900 121 0
7900 -36 -121 0
-7901 64 0
-7901 85 0
7901 -64 -85 0
-7902 64 0
-7902 100 0
7902 -64 -100 0
-7903 64 0
-7903 110 0
7903 -64 -110 0
-7904 64 0
-7904 116 0
7904 -64 -116 0
-7905 64 0
-7905 119 0
7905 -64 -119 0
-7906 64 0
-7906 121 0
7906 -64 -121 0
-7907 85 0
-7907 100 0
7907 -85 -100 0
-7908 85 0
-7908 110 0
7908 -85 -110 0
-7909 85 0
-7909 116 0
7909 -85 -116 0
-7910 85 0
-7910 119 0
7910 -85 -119 0
-7911 85 0
-7911 121 0
7911 -85 -121 0
-7912 100 0
-7912 110 0
7912 -100 -110 0
-7913 100 0
-7913 116 0
7913 -100 -116 0
-7914 100 0
-7914 119 0
7914 -100 -119 0
-7915 100 0
-7915 121 0
7915 -100 -121 0
-7916 110 0
-7916 116 0
7916 -110 -116 0
-7917 110 0
-7917 119 0
7917 -110 -119 0
-7918 110 0
-7918 121 0
7918 -110 -121 0
-7919 116 0
-7919 119 0
7919 -116 -119 0
-7920 116 0
-7920 121 0
7920 -116 -121 0
-7921 119 0
-7921 121 0
7921 -119 -121 0
-7894 7922 0
-7895 7922 0
-7896 7922 0
-7897 7922 0
-7898 7922 0
-7899 7922 0
-7900 7922 0
-7901 7922 0
-7902 7922 0
-7903 7922 0
-7904 7922 0
-7905 7922 0
-7906 7922 0
-7907 7922 0
-7908 7922 0
-7909 7922 0
-7910 7922 0
-7911 7922 0
-7912 7922 0
-7913 7922 0
-7914 7922 0
-7915 7922 0
-7916 7922 0
-7917 7922 0
-7918 7922 0
-7919 7922 0
-7920 7922 0
-7921 7922 0
-7922 7894 7895 7896 7897 7898 7899 7900 7901 7902 7903 7904 7905 7906 7907 7908 7909 7910 7911 7912 7913 7914 7915 7916 7917 7918 7919 7920 7921 0
-7923 37 0
-7923 65 0
7923 -37 -65 0
-7924 37 0
-7924 86 0
7924 -37 -86 0
-7925 37 0
-7925 101 0
7925 -37 -101 0
-7926 37 0
-7926 111 0
7926 -37 -111 0
-7927 37 0
-7927 117 0
7927 -37 -117 0
-7928 37 0
-7928 120 0
7928 -37 -120 0
-7929 37 0
-7929 121 0
7929 -37 -121 0
-7930 65 0
-7930 86 0
7930 -65 -86 0
-7931 65 0
-7931 101 0
7931 -65 -101 0
-7932 65 0
-7932 111 0
7932 -65 -111 0
-7933 65 0
-7933 117 0
7933 -65 -117 0
-7934 65 0
-7934 120 0
7934 -65 -120 0
-7935 65 0
-7935 121 0
7935 -65 -121 0
-7936 86 0
-7936 101 0
7936 -86 -101 0
-7937 86 0
-7937 111 0
7937 -86 -111 0
-7938 86 0
-7938 117 0
7938 -86 -117 0
-7939 86 0
-7939 120 0
7939 -86 -120 0
-7940 86 0
-7940 121 0
7940 -86 -121 0
-7941 101 0
-7941 111 0
7941 -101 -111 0
-7942 101 0
-7942 117 0
7942 -101 -117 0
-7943 101 0
-7943 120 0
7943 -101 -120 0
-7944 101 0
-7944 121 0
7944 -101 -121 0
-7945 111 0
-7945 117 0
7945 -111 -117 0
-7946 111 0
-7946 120 0
7946 -111 -120 0
-7947 111 0
-7947 121 0
7947 -111 -121 0
-7948 117 0
-7948 120 0
7948 -117 -120 0
-7949 117 0
-7949 121 0
7949 -117 -121 0
-7950 120 0
-7950 121 0
7950 -120 -121 0
-7923 7951 0
-7924 7951 0
-7925 7951 0
-7926 7951 0
-7927 7951 0
-7928 7951 0
-7929 7951 0
-7930 7951 0
-7931 7951 0
-7932 7951 0
-7933 7951 0
-7934 7951 0
-7935 7951 0
-7936 7951 0
-7937 7951 0
-7938 7951 0
-7939 7951 0
-7940 7951 0
-7941 7951 0
-7942 7951 0
-7943 7951 0
-7944 7951 0
-7945 7951 0
-7946 7951 0
-7947 7951 0
-7948 7951 0
-7949 7951 0
-7950 7951 0
-7951 7923 7924 7925 7926 7927 7928 7929 7930 7931 7932 7933 7934 7935 7936 7937 7938 7939 7940 7941 7942 7943 7944 7945 7946 7947 7948 7949 7950 0
-7952 -7961 0
-7952 -7970 0
-7961 -7970 0
-7953 -7962 0
-7953 -7971 0
-7962 -7971 0
-7954 -7963 0
-7954 -7972 0
-7963 -7972 0
-7955 -7964 0
-7955 -7973 0
-7964 -7973 0
-7956 -7965 0
-7956 -7974 0
-7965 -7974 0
-7957 -7966 0
-7957 -7975 0
-7966 -7975 0
-7958 -7967 0
-7958 -7976 0
-7967 -7976 0
-7959 -7968 0
-7959 -7977 0
-7968 -7977 0
-7960 -7969 0
-7960 -7978 0
-7969 -7978 0
-7952 -7953 -7954 0
-7952 -7953 -7955 0
-7952 -7953 -7956 0
-7952 -7953 -7957 0
-7952 -7953 -7958 0
-7952 -7953 -7959 0
-7952 -7953 -7960 0
-7952 -7954 -7955 0
-7952 -7954 -7956 0
-7952 -7954 -7957 0
-7952 -7954 -7958 0
-7952 -7954 -7959 0
-7952 -7954 -7960 0
-7952 -7955 -7956 0
-7952 -7955 -7957 0
-7952 -7955 -7958 0
-7952 -7955 -7959 0
-7952 -7955 -7960 0
-7952 -7956 -7957 0
-7952 -7956 -7958 0
-7952 -7956 -7959 0
-7952 -7956 -7960 0
-7952 -7957 -7958 0
-7952 -7957 -7959 0
-7952 -7957 -7960 0
-7952 -7958 -7959 0
-7952 -7958 -7960 0
-7952 -7959 -7960 0
-7953 -7954 -7955 0
-7953 -7954 -7956 0
-7953 -7954 -7957 0
-7953 -7954 -7958 0
-7953 -7954 -7959 0
-7953 -7954 -7960 0
-7953 -7955 -7956 0
-7953 -7955 -7957 0
-7953 -7955 -7958 0
-7953 -7955 -7959 0
-7953 -7955 -7960 0
-7953 -7956 -7957 0
-7953 -7956 -7958 0
-7953 -7956 -7959 0
-7953 -7956 -7960 0
-7953 -7957 -7958 0
-7953 -7957 -7959 0
-7953 -7957 -7960 0
-7953 -7958 -7959 0
-7953 -7958 -7960 0
-7953 -7959 -7960 0
-7954 -7955 -7956 0
-7954 -7955 -7957 0
-7954 -7955 -7958 0
-7954 -7955 -7959 0
-7954 -7955 -7960 0
-7954 -7956 -7957 0
-7954 -7956 -7958 0
-7954 -7956 -7959 0
-7954 -7956 -7960 0
-7954 -7957 -7958 0
-7954 -7957 -7959 0
-7954 -7957 -7960 0
-7954 -7958 -7959 0
-7954 -7958 -7960 0
-7954 -7959 -7960 0
-7955 -7956 -7957 0
-7955 -7956 -7958 0
-7955 -7956 -7959 0
-7955 -7956 -7960 0
-7955 -7957 -7958 0
-7955 -7957 -7959 0
-7955 -7957 -7960 0
-7955 -7958 -7959 0
-7955 -7958 -7960 0
-7955 -7959 -7960 0
-7956 -7957 -7958 0
-7956 -7957 -7959 0
-7956 -7957 -7960 0
-7956 -7958 -7959 0
-7956 -7958 -7960 0
-7956 -7959 -7960 0
-7957 -7958 -7959 0
-7957 -7958 -7960 0
-7957 -7959 -7960 0
-7958 -7959 -7960 0
7952 7953 7954 7955 7956 7957 7958 7959 0
7952 7953 7954 7955 7956 7957 7958 7960 0
7952 7953 7954 7955 7956 7957 7959 7960 0
7952 7953 7954 7955 7956 7958 7959 7960 0
7952 7953 7954 7955 7957 7958 7959 7960 0
7952 7953 7954 7956 7957 7958 7959 7960 0
7952 7953 7955 7956 7957 7958 7959 7960 0
7952 7954 7955 7956 7957 7958 7959 7960 0
7953 7954 7955 7956 7957 7958 7959 7960 0
-7952 -7953 2 0
-7952 -7954 3 0
-7952 -7955 4 0
-7952 -7956 5 0
-7952 -7957 6 0
-7952 -7958 7 0
-7952 -7959 8 0
-7952 -7960 9 0
-7953 -7954 10 0
-7953 -7955 11 0
-7953 -7956 12 0
-7953 -7957 13 0
-7953 -7958 14 0
-7953 -7959 15 0
-7953 -7960 16 0
-7954 -7955 17 0
-7954 -7956 18 0
-7954 -7957 19 0
-7954 -7958 20 0
-7954 -7959 21 0
-7954 -7960 22 0
-7955 -7956 23 0
-7955 -7957 24 0
-7955 -7958 25 0
-7955 -7959 26 0
-7955 -7960 27 0
-7956 -7957 28 0
-7956 -7958 29 0
-7956 -7959 30 0
-7956 -7960 31 0
-7957 -7958 32 0
-7957 -7959 33 0
-7957 -7960 34 0
-7958 -7959 35 0
-7958 -7960 36 0
-7959 -7960 37 0
-7961 -7962 0
-7961 -7963 0
-7961 -7964 0
-7961 -7965 0
-7961 -7966 0
-7961 -7967 0
-7961 -7968 0
-7961 -7969 0
-7962 -7963 0
-7962 -7964 0
-7962 -7965 0
-7962 -7966 0
-7962 -7967 0
-7962 -7968 0
-7962 -7969 0
-7963 -7964 0
-7963 -7965 0
-7963 -7966 0
-7963 -7967 0
-7963 -7968 0
-7963 -7969 0
-7964 -7965 0
-7964 -7966 0
-7964 -7967 0
-7964 -7968 0
-7964 -7969 0
-7965 -7966 0
-7965 -7967 0
-7965 -7968 0
-7965 -7969 0
-7966 -7967 0
-7966 -7968 0
-7966 -7969 0
-7967 -7968 0
-7967 -7969 0
-7968 -7969 0
7961 7962 7963 7964 7965 7966 7967 7968 7969 0
-7961 -6602 0
-7962 -6603 0
-7963 -6604 0
-7964 -6605 0
-7965 -6606 0
-7966 -6607 0
-7967 -6608 0
-7968 -6609 0
-7969 -6610 0
-7970 -7971 -7972 0
-7970 -7971 -7973 0
-7970 -7971 -7974 0
-7970 -7971 -7975 0
-7970 -7971 -7976 0
-7970 -7971 -7977 0
-7970 -7971 -7978 0
-7970 -7972 -7973 0
-7970 -7972 -7974 0
-7970 -7972 -7975 0
-7970 -7972 -7976 0
-7970 -7972 -7977 0
-7970 -7972 -7978 0
-7970 -7973 -7974 0
-7970 -7973 -7975 0
-7970 -7973 -7976 0
-7970 -7973 -7977 0
-7970 -7973 -7978 0
-7970 -7974 -7975 0
-7970 -7974 -7976 0
-7970 -7974 -7977 0
-7970 -7974 -7978 0
-7970 -7975 -7976 0
-7970 -7975 -7977 0
-7970 -7975 -7978 0
-7970 -7976 -7977 0
-7970 -7976 -7978 0
-7970 -7977 -7978 0
-7971 -7972 -7973 0
-7971 -7972 -7974 0
-7971 -7972 -7975 0
-7971 -7972 -7976 0
-7971 -7972 -7977 0
-7971 -7972 -7978 0
-7971 -7973 -7974 0
-7971 -7973 -7975 0
-7971 -7973 -7976 0
-7971 -7973 -7977 0
-7971 -7973 -7978 0
-7971 -7974 -7975 0
-7971 -7974 -7976 0
-7971 -7974 -7977 0
-7971 -7974 -7978 0
-7971 -7975 -7976 0
-7971 -7975 -7977 0
-7971 -7975 -7978 0
-7971 -7976 -7977 0
-7971 -7976 -7978 0
-7971 -7977 -7978 0
-7972 -7973 -7974 0
-7972 -7973 -7975 0
-7972 -7973 -7976 0
-7972 -7973 -7977 0
-7972 -7973 -7978 0
-7972 -7974 -7975 0
-7972 -7974 -7976 0
-7972 -7974 -7977 0
-7972 -7974 -7978 0
-7972 -7975 -7976 0
-7972 -7975 -7977 0
-7972 -7975 -7978 0
-7972 -7976 -7977 0
-7972 -7976 -7978 0
-7972 -7977 -7978 0
-7973 -7974 -7975 0
-7973 -7974 -7976 0
-7973 -7974 -7977 0
-7973 -7974 -7978 0
-7973 -7975 -7976 0
-7973 -7975 -7977 0
-7973 -7975 -7978 0
-7973 -7976 -7977 0
-7973 -7976 -7978 0
-7973 -7977 -7978 0
-7974 -7975 -7976 0
-7974 -7975 -7977 0
-7974 -7975 -7978 0
-7974 -7976 -7977 0
-7974 -7976 -7978 0
-7974 -7977 -7978 0
-7975 -7976 -7977 0
-7975 -7976 -7978 0
-7975 -7977 -7978 0
-7976 -7977 -7978 0
7970 7971 7972 7973 7974 7975 7976 7977 0
7970 7971 7972 7973 7974 7975 7976 7978 0
7970 7971 7972 7973 7974 7975 7977 7978 0
7970 7971 7972 7973 7974 7976 7977 7978 0
7970 7971 7972 7973 7975 7976 7977 7978 0
7970 7971 7972 7974 7975 7976 7977 7978 0
7970 7971 7973 7974 7975 7976 7977 7978 0
7970 7972 7973 7974 7975 7976 7977 7978 0
7971 7972 7973 7974 7975 7976 7977 7978 0
-7970 -7971 2 0
-7970 -7972 3 0
-7970 -7973 4 0
-7970 -7974 5 0
-7970 -7975 6 0
-7970 -7976 7 0
-7970 -7977 8 0
-7970 -7978 9 0
-7971 -7972 10 0
-7971 -7973 11 0
-7971 -7974 12 0
-7971 -7975 13 0
-7971 -7976 14 0
-7971 -7977 15 0
-7971 -7978 16 0
-7972 -7973 17 0
-7972 -7974 18 0
-7972 -7975 19 0
-7972 -7976 20 0
-7972 -7977 21 0
-7972 -7978 22 0
-7973 -7974 23 0
-7973 -7975 24 0
-7973 -7976 25 0
-7973 -7977 26 0
-7973 -7978 27 0
-7974 -7975 28 0
-7974 -7976 29 0
-7974 -7977 30 0
-7974 -7978 31 0
-7975 -7976 32 0
-7975 -7977 33 0
-7975 -7978 34 0
-7976 -7977 35 0
-7976 -7978 36 0
-7977 -7978 37 0
-7979 7952 0
-7979 7962 0
-7979 362 0
7979 -7952 -7962 -362 0
-7980 7952 0
-7980 7963 0
-7980 363 0
7980 -7952 -7963 -363 0
-7981 7952 0
-7981 7964 0
-7981 364 0
7981 -7952 -7964 -364 0
-7982 7952 0
-7982 7965 0
-7982 365 0
7982 -7952 -7965 -365 0
-7983 7952 0
-7983 7966 0
-7983 366 0
7983 -7952 -7966 -366 0
-7984 7952 0
-7984 7967 0
-7984 367 0
7984 -7952 -7967 -367 0
-7985 7952 0
-7985 7968 0
-7985 368 0
7985 -7952 -7968 -368 0
-7986 7952 0
-7986 7969 0
-7986 369 0
7986 -7952 -7969 -369 0
-7987 7953 0
-7987 7961 0
-7987 370 0
7987 -7953 -7961 -370 0
-7988 7953 0
-7988 7963 0
-7988 371 0
7988 -7953 -7963 -371 0
-7989 7953 0
-7989 7964 0
-7989 372 0
7989 -7953 -7964 -372 0
-7990 7953 0
-7990 7965 0
-7990 373 0
7990 -7953 -7965 -373 0
-7991 7953 0
-7991 7966 0
-7991 374 0
7991 -7953 -7966 -374 0
-7992 7953 0
-7992 7967 0
-7992 375 0
7992 -7953 -7967 -375 0
-7993 7953 0
-7993 7968 0
-7993 376 0
7993 -7953 -7968 -376 0
-7994 7953 0
-7994 7969 0
-7994 377 0
7994 -7953 -7969 -377 0
-7995 7954 0
-7995 7961 0
-7995 378 0
7995 -7954 -7961 -378 0
-7996 7954 0
-7996 7962 0
-7996 379 0
7996 -7954 -7962 -379 0
-7997 7954 0
-7997 7964 0
-7997 380 0
7997 -7954 -7964 -380 0
-7998 7954 0
-7998 7965 0
-7998 381 0
7998 -7954 -7965 -381 0
-7999 7954 0
-7999 7966 0
-7999 382 0
7999 -7954 -7966 -382 0
-8000 7954 0
-8000 7967 0
-8000 383 0
8000 -7954 -7967 -383 0
-8001 7954 0
-8001 7968 0
-8001 384 0
8001 -7954 -7968 -384 0
-8002 7954 0
-8002 7969 0
-8002 385 0
8002 -7954 -7969 -385 0
-8003 7955 0
-8003 7961 0
-8003 386 0
8003 -7955 -7961 -386 0
-8004 7955 0
-8004 7962 0
-8004 387 0
8004 -7955 -7962 -387 0
-8005 7955 0
-8005 7963 0
-8005 388 0
8005 -7955 -7963 -388 0
-8006 7955 0
-8006 7965 0
-8006 389 0
8006 -7955 -7965 -389 0
-8007 7955 0
-8007 7966 0
-8007 390 0
8007 -7955 -7966 -390 0
-8008 7955 0
-8008 7967 0
-8008 391 0
8008 -7955 -7967 -391 0
-8009 7955 0
-8009 7968 0
-8009 392 0
8009 -7955 -7968 -392 0
-8010 7955 0
-8010 7969 0
-8010 393 0
8010 -7955 -7969 -393 0
-8011 7956 0
-8011 7961 0
-8011 394 0
8011 -7956 -7961 -394 0
-8012 7956 0
-8012 7962 0
-8012 395 0
8012 -7956 -7962 -395 0
-8013 7956 0
-8013 7963 0
-8013 396 0
8013 -7956 -7963 -396 0
-8014 7956 0
-8014 7964 0
-8014 397 0
8014 -7956 -7964 -397 0
-8015 7956 0
-8015 7966 0
-8015 398 0
8015 -7956 -7966 -398 0
-8016 7956 0
-8016 7967 0
-8016 399 0
8016 -7956 -7967 -399 0
-8017 7956 0
-8017 7968 0
-8017 400 0
8017 -7956 -7968 -400 0
-8018 7956 0
-8018 7969 0
-8018 401 0
8018 -7956 -7969 -401 0
-8019 7957 0
-8019 7961 0
-8019 402 0
8019 -7957 -7961 -402 0
-8020 7957 0
-8020 7962 0
-8020 403 0
8020 -7957 -7962 -403 0
-8021 7957 0
-8021 7963 0
-8021 404 0
8021 -7957 -7963 -404 0
-8022 7957 0
-8022 7964 0
-8022 405 0
8022 -7957 -7964 -405 0
-8023 7957 0
-8023 7965 0
-8023 406 0
8023 -7957 -7965 -406 0
-8024 7957 0
-8024 7967 0
-8024 407 0
8024 -7957 -7967 -407 0
-8025 7957 0
-8025 7968 0
-8025 408 0
8025 -7957 -7968 -408 0
-8026 7957 0
-8026 7969 0
-8026 409 0
8026 -7957 -7969 -409 0
-8027 7958 0
-8027 7961 0
-8027 410 0
8027 -7958 -7961 -410 0
-8028 7958 0
-8028 7962 0
-8028 411 0
8028 -7958 -7962 -411 0
-8029 7958 0
-8029 7963 0
-8029 412 0
8029 -7958 -7963 -412 0
-8030 7958 0
-8030 7964 0
-8030 413 0
8030 -7958 -7964 -413 0
-8031 7958 0
-8031 7965 0
-8031 414 0
8031 -7958 -7965 -414 0
-8032 7958 0
-8032 7966 0
-8032 415 0
8032 -7958 -7966 -415 0
-8033 7958 0
-8033 7968 0
-8033 416 0
8033 -7958 -7968 -416 0
-8034 7958 0
-8034 7969 0
-8034 417 0
8034 -7958 -7969 -417 0
-8035 7959 0
-8035 7961 0
-8035 418 0
8035 -7959 -7961 -418 0
-8036 7959 0
-8036 7962 0
-8036 419 0
8036 -7959 -7962 -419 0
-8037 7959 0
-8037 7963 0
-8037 420 0
8037 -7959 -7963 -420 0
-8038 7959 0
-8038 7964 0
-8038 421 0
8038 -7959 -7964 -421 0
-8039 7959 0
-8039 7965 0
-8039 422 0
8039 -7959 -7965 -422 0
-8040 7959 0
-8040 7966 0
-8040 423 0
8040 -7959 -7966 -423 0
-8041 7959 0
-8041 7967 0
-8041 424 0
8041 -7959 -7967 -424 0
-8042 7959 0
-8042 7969 0
-8042 425 0
8042 -7959 -7969 -425 0
-8043 7960 0
-8043 7961 0
-8043 426 0
8043 -7960 -7961 -426 0
-8044 7960 0
-8044 7962 0
-8044 427 0
8044 -7960 -7962 -427 0
-8045 7960 0
-8045 7963 0
-8045 428 0
8045 -7960 -7963 -428 0
-8046 7960 0
-8046 7964 0
-8046 429 0
8046 -7960 -7964 -429 0
-8047 7960 0
-8047 7965 0
-8047 430 0
8047 -7960 -7965 -430 0
-8048 7960 0
-8048 7966 0
-8048 431 0
8048 -7960 -7966 -431 0
-8049 7960 0
-8049 7967 0
-8049 432 0
8049 -7960 -7967 -432 0
-8050 7960 0
-8050 7968 0
-8050 433 0
8050 -7960 -7968 -433 0
7979 7980 7981 7982 7983 7984 7985 7986 7987 7988 7989 7990 7991 7992 7993 7994 7995 7996 7997 7998 7999 8000 8001 8002 8003 8004 8005 8006 8007 8008 8009 8010 8011 8012 8013 8014 8015 8016 8017 8018 8019 8020 8021 8022 8023 8024 8025 8026 8027 8028 8029 8030 8031 8032 8033 8034 8035 8036 8037 8038 8039 8040 8041 8042 8043 8044 8045 8046 8047 8048 8049 8050 0
-8051 7961 0
-8051 7971 0
-8051 362 0
8051 -7961 -7971 -362 0
-8052 7961 0
-8052 7972 0
-8052 363 0
8052 -7961 -7972 -363 0
-8053 7961 0
-8053 7973 0
-8053 364 0
8053 -7961 -7973 -364 0
-8054 7961 0
-8054 7974 0
-8054 365 0
8054 -7961 -7974 -365 0
-8055 7961 0
-8055 7975 0
-8055 366 0
8055 -7961 -7975 -366 0
-8056 7961 0
-8056 7976 0
-8056 367 0
8056 -7961 -7976 -367 0
-8057 7961 0
-8057 7977 0
-8057 368 0
8057 -7961 -7977 -368 0
-8058 7961 0
-8058 7978 0
-8058 369 0
8058 -7961 -7978 -369 0
-8059 7962 0
-8059 7970 0
-8059 370 0
8059 -7962 -7970 -370 0
-8060 7962 0
-8060 7972 0
-8060 371 0
8060 -7962 -7972 -371 0
-8061 7962 0
-8061 7973 0
-8061 372 0
8061 -7962 -7973 -372 0
-8062 7962 0
-8062 7974 0
-8062 373 0
8062 -7962 -7974 -373 0
-8063 7962 0
-8063 7975 0
-8063 374 0
8063 -7962 -7975 -374 0
-8064 7962 0
-8064 7976 0
-8064 375 0
8064 -7962 -7976 -375 0
-8065 7962 0
-8065 7977 0
-8065 376 0
8065 -7962 -7977 -376 0
-8066 7962 0
-8066 7978 0
-8066 377 0
8066 -7962 -7978 -377 0
-8067 7963 0
-8067 7970 0
-8067 378 0
8067 -7963 -7970 -378 0
-8068 7963 0
-8068 7971 0
-8068 379 0
8068 -7963 -7971 -379 0
-8069 7963 0
-8069 7973 0
-8069 380 0
8069 -7963 -7973 -380 0
-8070 7963 0
-8070 7974 0
-8070 381 0
8070 -7963 -7974 -381 0
-8071 7963 0
-8071 7975 0
-8071 382 0
8071 -7963 -7975 -382 0
-8072 7963 0
-8072 7976 0
-8072 383 0
8072 -7963 -7976 -383 0
-8073 7963 0
-8073 7977 0
-8073 384 0
8073 -7963 -7977 -384 0
-8074 7963 0
-8074 7978 0
-8074 385 0
8074 -7963 -7978 -385 0
-8075 7964 0
-8075 7970 0
-8075 386 0
8075 -7964 -7970 -386 0
-8076 7964 0
-8076 7971 0
-8076 387 0
8076 -7964 -7971 -387 0
-8077 7964 0
-8077 7972 0
-8077 388 0
8077 -7964 -7972 -388 0
-8078 7964 0
-8078 7974 0
-8078 389 0
8078 -7964 -7974 -389 0
-8079 7964 0
-8079 7975 0
-8079 390 0
8079 -7964 -7975 -390 0
-8080 7964 0
-8080 7976 0
-8080 391 0
8080 -7964 -7976 -391 0
-8081 7964 0
-8081 7977 0
-8081 392 0
8081 -7964 -7977 -392 0
-8082 7964 0
-8082 7978 0
-8082 393 0
8082 -7964 -7978 -393 0
-8083 7965 0
-8083 7970 0
-8083 394 0
8083 -7965 -7970 -394 0
-8084 7965 0
-8084 7971 0
-8084 395 0
8084 -7965 -7971 -395 0
-8085 7965 0
-8085 7972 0
-8085 396 0
8085 -7965 -7972 -396 0
-8086 7965 0
-8086 7973 0
-8086 397 0
8086 -7965 -7973 -397 0
-8087 7965 0
-8087 7975 0
-8087 398 0
8087 -7965 -7975 -398 0
-8088 7965 0
-8088 7976 0
-8088 399 0
8088 -7965 -7976 -399 0
-8089 7965 0
-8089 7977 0
-8089 400 0
8089 -7965 -7977 -400 0
-8090 7965 0
-8090 7978 0
-8090 401 0
8090 -7965 -7978 -401 0
-8091 7966 0
-8091 7970 0
-8091 402 0
8091 -7966 -7970 -402 0
-8092 7966 0
-8092 7971 0
-8092 403 0
8092 -7966 -7971 -403 0
-8093 7966 0
-8093 7972 0
-8093 404 0
8093 -7966 -7972 -404 0
-8094 7966 0
-8094 7973 0
-8094 405 0
8094 -7966 -7973 -405 0
-8095 7966 0
-8095 7974 0
-8095 406 0
8095 -7966 -7974 -406 0
-8096 7966 0
-8096 7976 0
-8096 407 0
8096 -7966 -7976 -407 0
-8097 7966 0
-8097 7977 0
-8097 408 0
8097 -7966 -7977 -408 0
-8098 7966 0
-8098 7978 0
-8098 409 0
8098 -7966 -7978 -409 0
-8099 7967 0
-8099 7970 0
-8099 410 0
8099 -7967 -7970 -410 0
-8100 7967 0
-8100 7971 0
-8100 411 0
8100 -7967 -7971 -411 0
-8101 7967 0
-8101 7972 0
-8101 412 0
8101 -7967 -7972 -412 0
-8102 7967 0
-8102 7973 0
-8102 413 0
8102 -7967 -7973 -413 0
-8103 7967 0
-8103 7974 0
-8103 414 0
8103 -7967 -7974 -414 0
-8104 7967 0
-8104 7975 0
-8104 415 0
8104 -7967 -7975 -415 0
-8105 7967 0
-8105 7977 0
-8105 416 0
8105 -7967 -7977 -416 0
-8106 7967 0
-8106 7978 0
-8106 417 0
8106 -7967 -7978 -417 0
-8107 7968 0
-8107 7970 0
-8107 418 0
8107 -7968 -7970 -418 0
-8108 7968 0
-8108 7971 0
-8108 419 0
8108 -7968 -7971 -419 0
-8109 7968 0
-8109 7972 0
-8109 420 0
8109 -7968 -7972 -420 0
-8110 7968 0
-8110 7973 0
-8110 421 0
8110 -7968 -7973 -421 0
-8111 7968 0
-8111 7974 0
-8111 422 0
8111 -7968 -7974 -422 0
-8112 7968 0
-8112 7975 0
-8112 423 0
8112 -7968 -7975 -423 0
-8113 7968 0
-8113 7976 0
-8113 424 0
8113 -7968 -7976 -424 0
-8114 7968 0
-8114 7978 0
-8114 425 0
8114 -7968 -7978 -425 0
-8115 7969 0
-8115 7970 0
-8115 426 0
8115 -7969 -7970 -426 0
-8116 7969 0
-8116 7971 0
-8116 427 0
8116 -7969 -7971 -427 0
-8117 7969 0
-8117 7972 0
-8117 428 0
8117 -7969 -7972 -428 0
-8118 7969 0
-8118 7973 0
-8118 429 0
8118 -7969 -7973 -429 0
-8119 7969 0
-8119 7974 0
-8119 430 0
8119 -7969 -7974 -430 0
-8120 7969 0
-8120 7975 0
-8120 431 0
8120 -7969 -7975 -431 0
-8121 7969 0
-8121 7976 0
-8121 432 0
8121 -7969 -7976 -432 0
-8122 7969 0
-8122 7977 0
-8122 433 0
8122 -7969 -7977 -433 0
8051 8052 8053 8054 8055 8056 8057 8058 8059 8060 8061 8062 8063 8064 8065 8066 8067 8068 8069 8070 8071 8072 8073 8074 8075 8076 8077 8078 8079 8080 8081 8082 8083 8084 8085 8086 8087 8088 8089 8090 8091 8092 8093 8094 8095 8096 8097 8098 8099 8100 8101 8102 8103 8104 8105 8106 8107 8108 8109 8110 8111 8112 8113 8114 8115 8116 8117 8118 8119 8120 8121 8122 0
-8123 7952 0
-8123 7962 0
-8123 6482 0
-8123 242 0
8123 -7952 -7962 -6482 -242 0
-8124 7952 0
-8124 7963 0
-8124 6483 0
-8124 243 0
8124 -7952 -7963 -6483 -243 0
-8125 7952 0
-8125 7964 0
-8125 6484 0
-8125 244 0
8125 -7952 -7964 -6484 -244 0
-8126 7952 0
-8126 7965 0
-8126 6485 0
-8126 245 0
8126 -7952 -7965 -6485 -245 0
-8127 7952 0
-8127 7966 0
-8127 6486 0
-8127 246 0
8127 -7952 -7966 -6486 -246 0
-8128 7952 0
-8128 7967 0
-8128 6487 0
-8128 247 0
8128 -7952 -7967 -6487 -247 0
-8129 7952 0
-8129 7968 0
-8129 6488 0
-8129 248 0
8129 -7952 -7968 -6488 -248 0
-8130 7952 0
-8130 7969 0
-8130 6489 0
-8130 249 0
8130 -7952 -7969 -6489 -249 0
-8131 7953 0
-8131 7961 0
-8131 6482 0
-8131 242 0
8131 -7953 -7961 -6482 -242 0
-8132 7953 0
-8132 7963 0
-8132 6490 0
-8132 250 0
8132 -7953 -7963 -6490 -250 0
-8133 7953 0
-8133 7964 0
-8133 6491 0
-8133 251 0
8133 -7953 -7964 -6491 -251 0
-8134 7953 0
-8134 7965 0
-8134 6492 0
-8134 252 0
8134 -7953 -7965 -6492 -252 0
-8135 7953 0
-8135 7966 0
-8135 6493 0
-8135 253 0
8135 -7953 -7966 -6493 -253 0
-8136 7953 0
-8136 7967 0
-8136 6494 0
-8136 254 0
8136 -7953 -7967 -6494 -254 0
-8137 7953 0
-8137 7968 0
-8137 6495 0
-8137 255 0
8137 -7953 -7968 -6495 -255 0
-8138 7953 0
-8138 7969 0
-8138 6496 0
-8138 256 0
8138 -7953 -7969 -6496 -256 0
-8139 7954 0
-8139 7961 0
-8139 6483 0
-8139 243 0
8139 -7954 -7961 -6483 -243 0
-8140 7954 0
-8140 7962 0
-8140 6490 0
-8140 250 0
8140 -7954 -7962 -6490 -250 0
-8141 7954 0
-8141 7964 0
-8141 6497 0
-8141 257 0
8141 -7954 -7964 -6497 -257 0
-8142 7954 0
-8142 7965 0
-8142 6498 0
-8142 258 0
8142 -7954 -7965 -6498 -258 0
-8143 7954 0
-8143 7966 0
-8143 6499 0
-8143 259 0
8143 -7954 -7966 -6499 -259 0
-8144 7954 0
-8144 7967 0
-8144 6500 0
-8144 260 0
8144 -7954 -7967 -6500 -260 0
-8145 7954 0
-8145 7968 0
-8145 6501 0
-8145 261 0
8145 -7954 -7968 -6501 -261 0
-8146 7954 0
-8146 7969 0
-8146 6502 0
-8146 262 0
8146 -7954 -7969 -6502 -262 0
-8147 7955 0
-8147 7961 0
-8147 6484 0
-8147 244 0
8147 -7955 -7961 -6484 -244 0
-8148 7955 0
-8148 7962 0
-8148 6491 0
-8148 251 0
8148 -7955 -7962 -6491 -251 0
-8149 7955 0
-8149 7963 0
-8149 6497 0
-8149 257 0
8149 -7955 -7963 -6497 -257 0
-8150 7955 0
-8150 7965 0
-8150 6503 0
-8150 263 0
8150 -7955 -7965 -6503 -263 0
-8151 7955 0
-8151 7966 0
-8151 6504 0
-8151 264 0
8151 -7955 -7966 -6504 -264 0
-8152 7955 0
-8152 7967 0
-8152 6505 0
-8152 265 0
8152 -7955 -7967 -6505 -265 0
-8153 7955 0
-8153 7968 0
-8153 6506 0
-8153 266 0
8153 -7955 -7968 -6506 -266 0
-8154 7955 0
-8154 7969 0
-8154 6507 0
-8154 267 0
8154 -7955 -7969 -6507 -267 0
-8155 7956 0
-8155 7961 0
-8155 6485 0
-8155 245 0
8155 -7956 -7961 -6485 -245 0
-8156 7956 0
-8156 7962 0
-8156 6492 0
-8156 252 0
8156 -7956 -7962 -6492 -252 0
-8157 7956 0
-8157 7963 0
-8157 6498 0
-8157 258 0
8157 -7956 -7963 -6498 -258 0
-8158 7956 0
-8158 7964 0
-8158 6503 0
-8158 263 0
8158 -7956 -7964 -6503 -263 0
-8159 7956 0
-8159 7966 0
-8159 6508 0
-8159 268 0
8159 -7956 -7966 -6508 -268 0
-8160 7956 0
-8160 7967 0
-8160 6509 0
-8160 269 0
8160 -7956 -7967 -6509 -269 0
-8161 7956 0
-8161 7968 0
-8161 6510 0
-8161 270 0
8161 -7956 -7968 -6510 -270 0
-8162 7956 0
-8162 7969 0
-8162 6511 0
-8162 271 0
8162 -7956 -7969 -6511 -271 0
-8163 7957 0
-8163 7961 0
-8163 6486 0
-8163 246 0
8163 -7957 -7961 -6486 -246 0
-8164 7957 0
-8164 7962 0
-8164 6493 0
-8164 253 0
8164 -7957 -7962 -6493 -253 0
-8165 7957 0
-8165 7963 0
-8165 6499 0
-8165 259 0
8165 -7957 -7963 -6499 -259 0
-8166 7957 0
-8166 7964 0
-8166 6504 0
-8166 264 0
8166 -7957 -7964 -6504 -264 0
-8167 7957 0
-8167 7965 0
-8167 6508 0
-8167 268 0
8167 -7957 -7965 -6508 -268 0
-8168 7957 0
-8168 7967 0
-8168 6512 0
-8168 272 0
8168 -7957 -7967 -6512 -272 0
-8169 7957 0
-8169 7968 0
-8169 6513 0
-8169 273 0
8169 -7957 -7968 -6513 -273 0
-8170 7957 0
-8170 7969 0
-8170 6514 0
-8170 274 0
8170 -7957 -7969 -6514 -274 0
-8171 7958 0
-8171 7961 0
-8171 6487 0
-8171 247 0
8171 -7958 -7961 -6487 -247 0
-8172 7958 0
-8172 7962 0
-8172 6494 0
-8172 254 0
8172 -7958 -7962 -6494 -254 0
-8173 7958 0
-8173 7963 0
-8173 6500 0
-8173 260 0
8173 -7958 -7963 -6500 -260 0
-8174 7958 0
-8174 7964 0
-8174 6505 0
-8174 265 0
8174 -7958 -7964 -6505 -265 0
-8175 7958 0
-8175 7965 0
-8175 6509 0
-8175 269 0
8175 -7958 -7965 -6509 -269 0
-8176 7958 0
-8176 7966 0
-8176 6512 0
-8176 272 0
8176 -7958 -7966 -6512 -272 0
-8177 7958 0
-8177 7968 0
-8177 6515 0
-8177 275 0
8177 -7958 -7968 -6515 -275 0
-8178 7958 0
-8178 7969 0
-8178 6516 0
-8178 276 0
8178 -7958 -7969 -6516 -276 0
-8179 7959 0
-8179 7961 0
-8179 6488 0
-8179 248 0
8179 -7959 -7961 -6488 -248 0
-8180 7959 0
-8180 7962 0
-8180 6495 0
-8180 255 0
8180 -7959 -7962 -6495 -255 0
-8181 7959 0
-8181 7963 0
-8181 6501 0
-8181 261 0
8181 -7959 -7963 -6501 -261 0
-8182 7959 0
-8182 7964 0
-8182 6506 0
-8182 266 0
8182 -7959 -7964 -6506 -266 0
-8183 7959 0
-8183 7965 0
-8183 6510 0
-8183 270 0
8183 -7959 -7965 -6510 -270 0
-8184 7959 0
-8184 7966 0
-8184 6513 0
-8184 273 0
8184 -7959 -7966 -6513 -273 0
-8185 7959 0
-8185 7967 0
-8185 6515 0
-8185 275 0
8185 -7959 -7967 -6515 -275 0
-8186 7959 0
-8186 7969 0
-8186 6517 0
-8186 277 0
8186 -7959 -7969 -6517 -277 0
-8187 7960 0
-8187 7961 0
-8187 6489 0
-8187 249 0
8187 -7960 -7961 -6489 -249 0
-8188 7960 0
-8188 7962 0
-8188 6496 0
-8188 256 0
8188 -7960 -7962 -6496 -256 0
-8189 7960 0
-8189 7963 0
-8189 6502 0
-8189 262 0
8189 -7960 -7963 -6502 -262 0
-8190 7960 0
-8190 7964 0
-8190 6507 0
-8190 267 0
8190 -7960 -7964 -6507 -267 0
-8191 7960 0
-8191 7965 0
-8191 6511 0
-8191 271 0
8191 -7960 -7965 -6511 -271 0
-8192 7960 0
-8192 7966 0
-8192 6514 0
-8192 274 0
8192 -7960 -7966 -6514 -274 0
-8193 7960 0
-8193 7967 0
-8193 6516 0
-8193 276 0
8193 -7960 -7967 -6516 -276 0
-8194 7960 0
-8194 7968 0
-8194 6517 0
-8194 277 0
8194 -7960 -7968 -6517 -277 0
-8195 7952 0
-8195 7962 0
-8195 6482 0
-8195 122 0
8195 -7952 -7962 -6482 -122 0
-8196 7952 0
-8196 7963 0
-8196 6483 0
-8196 123 0
8196 -7952 -7963 -6483 -123 0
-8197 7952 0
-8197 7964 0
-8197 6484 0
-8197 124 0
8197 -7952 -7964 -6484 -124 0
-8198 7952 0
-8198 7965 0
-8198 6485 0
-8198 125 0
8198 -7952 -7965 -6485 -125 0
-8199 7952 0
-8199 7966 0
-8199 6486 0
-8199 126 0
8199 -7952 -7966 -6486 -126 0
-8200 7952 0
-8200 7967 0
-8200 6487 0
-8200 127 0
8200 -7952 -7967 -6487 -127 0
-8201 7952 0
-8201 7968 0
-8201 6488 0
-8201 128 0
8201 -7952 -7968 -6488 -128 0
-8202 7952 0
-8202 7969 0
-8202 6489 0
-8202 129 0
8202 -7952 -7969 -6489 -129 0
-8203 7953 0
-8203 7961 0
-8203 6482 0
-8203 122 0
8203 -7953 -7961 -6482 -122 0
-8204 7953 0
-8204 7963 0
-8204 6490 0
-8204 130 0
8204 -7953 -7963 -6490 -130 0
-8205 7953 0
-8205 7964 0
-8205 6491 0
-8205 131 0
8205 -7953 -7964 -6491 -131 0
-8206 7953 0
-8206 7965 0
-8206 6492 0
-8206 132 0
8206 -7953 -7965 -6492 -132 0
-8207 7953 0
-8207 7966 0
-8207 6493 0
-8207 133 0
8207 -7953 -7966 -6493 -133 0
-8208 7953 0
-8208 7967 0
-8208 6494 0
-8208 134 0
8208 -7953 -7967 -6494 -134 0
-8209 7953 0
-8209 7968 0
-8209 6495 0
-8209 135 0
8209 -7953 -7968 -6495 -135 0
-8210 7953 0
-8210 7969 0
-8210 6496 0
-8210 136 0
8210 -7953 -7969 -6496 -136 0
-8211 7954 0
-8211 7961 0
-8211 6483 0
-8211 123 0
8211 -7954 -7961 -6483 -123 0
-8212 7954 0
-8212 7962 0
-8212 6490 0
-8212 130 0
8212 -7954 -7962 -6490 -130 0
-8213 7954 0
-8213 7964 0
-8213 6497 0
-8213 137 0
8213 -7954 -7964 -6497 -137 0
-8214 7954 0
-8214 7965 0
-8214 6498 0
-8214 138 0
8214 -7954 -7965 -6498 -138 0
-8215 7954 0
-8215 7966 0
-8215 6499 0
-8215 139 0
8215 -7954 -7966 -6499 -139 0
-8216 7954 0
-8216 7967 0
-8216 6500 0
-8216 140 0
8216 -7954 -7967 -6500 -140 0
-8217 7954 0
-8217 7968 0
-8217 6501 0
-8217 141 0
8217 -7954 -7968 -6501 -141 0
-8218 7954 0
-8218 7969 0
-8218 6502 0
-8218 142 0
8218 -7954 -7969 -6502 -142 0
-8219 7955 0
-8219 7961 0
-8219 6484 0
-8219 124 0
8219 -7955 -7961 -6484 -124 0
-8220 7955 0
-8220 7962 0
-8220 6491 0
-8220 131 0
8220 -7955 -7962 -6491 -131 0
-8221 7955 0
-8221 7963 0
-8221 6497 0
-8221 137 0
8221 -7955 -7963 -6497 -137 0
-8222 7955 0
-8222 7965 0
-8222 6503 0
-8222 143 0
8222 -7955 -7965 -6503 -143 0
-8223 7955 0
-8223 7966 0
-8223 6504 0
-8223 144 0
8223 -7955 -7966 -6504 -144 0
-8224 7955 0
-8224 7967 0
-8224 6505 0
-8224 145 0
8224 -7955 -7967 -6505 -145 0
-8225 7955 0
-8225 7968 0
-8225 6506 0
-8225 146 0
8225 -7955 -7968 -6506 -146 0
-8226 7955 0
-8226 7969 0
-8226 6507 0
-8226 147 0
8226 -7955 -7969 -6507 -147 0
-8227 7956 0
-8227 7961 0
-8227 6485 0
-8227 125 0
8227 -7956 -7961 -6485 -125 0
-8228 7956 0
-8228 7962 0
-8228 6492 0
-8228 132 0
8228 -7956 -7962 -6492 -132 0
-8229 7956 0
-8229 7963 0
-8229 6498 0
-8229 138 0
8229 -7956 -7963 -6498 -138 0
-8230 7956 0
-8230 7964 0
-8230 6503 0
-8230 143 0
8230 -7956 -7964 -6503 -143 0
-8231 7956 0
-8231 7966 0
-8231 6508 0
-8231 148 0
8231 -7956 -7966 -6508 -148 0
-8232 7956 0
-8232 7967 0
-8232 6509 0
-8232 149 0
8232 -7956 -7967 -6509 -149 0
-8233 7956 0
-8233 7968 0
-8233 6510 0
-8233 150 0
8233 -7956 -7968 -6510 -150 0
-8234 7956 0
-8234 7969 0
-8234 6511 0
-8234 151 0
8234 -7956 -7969 -6511 -151 0
-8235 7957 0
-8235 7961 0
-8235 6486 0
-8235 126 0
8235 -7957 -7961 -6486 -126 0
-8236 7957 0
-8236 7962 0
-8236 6493 0
-8236 133 0
8236 -7957 -7962 -6493 -133 0
-8237 7957 0
-8237 7963 0
-8237 6499 0
-8237 139 0
8237 -7957 -7963 -6499 -139 0
-8238 7957 0
-8238 7964 0
-8238 6504 0
-8238 144 0
8238 -7957 -7964 -6504 -144 0
-8239 7957 0
-8239 7965 0
-8239 6508 0
-8239 148 0
8239 -7957 -7965 -6508 -148 0
-8240 7957 0
-8240 7967 0
-8240 6512 0
-8240 152 0
8240 -7957 -7967 -6512 -152 0
-8241 7957 0
-8241 7968 0
-8241 6513 0
-8241 153 0
8241 -7957 -7968 -6513 -153 0
-8242 7957 0
-8242 7969 0
-8242 6514 0
-8242 154 0
8242 -7957 -7969 -6514 -154 0
-8243 7958 0
-8243 7961 0
-8243 6487 0
-8243 127 0
8243 -7958 -7961 -6487 -127 0
-8244 7958 0
-8244 7962 0
-8244 6494 0
-8244 134 0
8244 -7958 -7962 -6494 -134 0
-8245 7958 0
-8245 7963 0
-8245 6500 0
-8245 140 0
8245 -7958 -7963 -6500 -140 0
-8246 7958 0
-8246 7964 0
-8246 6505 0
-8246 145 0
8246 -7958 -7964 -6505 -145 0
-8247 7958 0
-8247 7965 0
-8247 6509 0
-8247 149 0
8247 -7958 -7965 -6509 -149 0
-8248 7958 0
-8248 7966 0
-8248 6512 0
-8248 152 0
8248 -7958 -7966 -6512 -152 0
-8249 7958 0
-8249 7968 0
-8249 6515 0
-8249 155 0
8249 -7958 -7968 -6515 -155 0
-8250 7958 0
-8250 7969 0
-8250 6516 0
-8250 156 0
8250 -7958 -7969 -6516 -156 0
-8251 7959 0
-8251 7961 0
-8251 6488 0
-8251 128 0
8251 -7959 -7961 -6488 -128 0
-8252 7959 0
-8252 7962 0
-8252 6495 0
-8252 135 0
8252 -7959 -7962 -6495 -135 0
-8253 7959 0
-8253 7963 0
-8253 6501 0
-8253 141 0
8253 -7959 -7963 -6501 -141 0
-8254 7959 0
-8254 7964 0
-8254 6506 0
-8254 146 0
8254 -7959 -7964 -6506 -146 0
-8255 7959 0
-8255 7965 0
-8255 6510 0
-8255 150 0
8255 -7959 -7965 -6510 -150 0
-8256 7959 0
-8256 7966 0
-8256 6513 0
-8256 153 0
8256 -7959 -7966 -6513 -153 0
-8257 7959 0
-8257 7967 0
-8257 6515 0
-8257 155 0
8257 -7959 -7967 -6515 -155 0
-8258 7959 0
-8258 7969 0
-8258 6517 0
-8258 157 0
8258 -7959 -7969 -6517 -157 0
-8259 7960 0
-8259 7961 0
-8259 6489 0
-8259 129 0
8259 -7960 -7961 -6489 -129 0
-8260 7960 0
-8260 7962 0
-8260 6496 0
-8260 136 0
8260 -7960 -7962 -6496 -136 0
-8261 7960 0
-8261 7963 0
-8261 6502 0
-8261 142 0
8261 -7960 -7963 -6502 -142 0
-8262 7960 0
-8262 7964 0
-8262 6507 0
-8262 147 0
8262 -7960 -7964 -6507 -147 0
-8263 7960 0
-8263 7965 0
-8263 6511 0
-8263 151 0
8263 -7960 -7965 -6511 -151 0
-8264 7960 0
-8264 7966 0
-8264 6514 0
-8264 154 0
8264 -7960 -7966 -6514 -154 0
-8265 7960 0
-8265 7967 0
-8265 6516 0
-8265 156 0
8265 -7960 -7967 -6516 -156 0
-8266 7960 0
-8266 7968 0
-8266 6517 0
-8266 157 0
8266 -7960 -7968 -6517 -157 0
-8267 7961 0
-8267 7971 0
-8267 6482 0
-8267 242 0
8267 -7961 -7971 -6482 -242 0
-8268 7961 0
-8268 7972 0
-8268 6483 0
-8268 243 0
8268 -7961 -7972 -6483 -243 0
-8269 7961 0
-8269 7973 0
-8269 6484 0
-8269 244 0
8269 -7961 -7973 -6484 -244 0
-8270 7961 0
-8270 7974 0
-8270 6485 0
-8270 245 0
8270 -7961 -7974 -6485 -245 0
-8271 7961 0
-8271 7975 0
-8271 6486 0
-8271 246 0
8271 -7961 -7975 -6486 -246 0
-8272 7961 0
-8272 7976 0
-8272 6487 0
-8272 247 0
8272 -7961 -7976 -6487 -247 0
-8273 7961 0
-8273 7977 0
-8273 6488 0
-8273 248 0
8273 -7961 -7977 -6488 -248 0
-8274 7961 0
-8274 7978 0
-8274 6489 0
-8274 249 0
8274 -7961 -7978 -6489 -249 0
-8275 7962 0
-8275 7970 0
-8275 6482 0
-8275 242 0
8275 -7962 -7970 -6482 -242 0
-8276 7962 0
-8276 7972 0
-8276 6490 0
-8276 250 0
8276 -7962 -7972 -6490 -250 0
-8277 7962 0
-8277 7973 0
-8277 6491 0
-8277 251 0
8277 -7962 -7973 -6491 -251 0
-8278 7962 0
-8278 7974 0
-8278 6492 0
-8278 252 0
8278 -7962 -7974 -6492 -252 0
-8279 7962 0
-8279 7975 0
-8279 6493 0
-8279 253 0
8279 -7962 -7975 -6493 -253 0
-8280 7962 0
-8280 7976 0
-8280 6494 0
-8280 254 0
8280 -7962 -7976 -6494 -254 0
-8281 7962 0
-8281 7977 0
-8281 6495 0
-8281 255 0
8281 -7962 -7977 -6495 -255 0
-8282 7962 0
-8282 7978 0
-8282 6496 0
-8282 256 0
8282 -7962 -7978 -6496 -256 0
-8283 7963 0
-8283 7970 0
-8283 6483 0
-8283 243 0
8283 -7963 -7970 -6483 -243 0
-8284 7963 0
-8284 7971 0
-8284 6490 0
-8284 250 0
8284 -7963 -7971 -6490 -250 0
-8285 7963 0
-8285 7973 0
-8285 6497 0
-8285 257 0
8285 -7963 -7973 -6497 -257 0
-8286 7963 0
-8286 7974 0
-8286 6498 0
-8286 258 0
8286 -7963 -7974 -6498 -258 0
-8287 7963 0
-8287 7975 0
-8287 6499 0
-8287 259 0
8287 -7963 -7975 -6499 -259 0
-8288 7963 0
-8288 7976 0
-8288 6500 0
-8288 260 0
8288 -7963 -7976 -6500 -260 0
-8289 7963 0
-8289 7977 0
-8289 6501 0
-8289 261 0
8289 -7963 -7977 -6501 -261 0
-8290 7963 0
-8290 7978 0
-8290 6502 0
-8290 262 0
8290 -7963 -7978 -6502 -262 0
-8291 7964 0
-8291 7970 0
-8291 6484 0
-8291 244 0
8291 -7964 -7970 -6484 -244 0
-8292 7964 0
-8292 7971 0
-8292 6491 0
-8292 251 0
8292 -7964 -7971 -6491 -251 0
-8293 7964 0
-8293 7972 0
-8293 6497 0
-8293 257 0
8293 -7964 -7972 -6497 -257 0
-8294 7964 0
-8294 7974 0
-8294 6503 0
-8294 263 0
8294 -7964 -7974 -6503 -263 0
-8295 7964 0
-8295 7975 0
-8295 6504 0
-8295 264 0
8295 -7964 -7975 -6504 -264 0
-8296 7964 0
-8296 7976 0
-8296 6505 0
-8296 265 0
8296 -7964 -7976 -6505 -265 0
-8297 7964 0
-8297 7977 0
-8297 6506 0
-8297 266 0
8297 -7964 -7977 -6506 -266 0
-8298 7964 0
-8298 7978 0
-8298 6507 0
-8298 267 0
8298 -7964 -7978 -6507 -267 0
-8299 7965 0
-8299 7970 0
-8299 6485 0
-8299 245 0
8299 -7965 -7970 -6485 -245 0
-8300 7965 0
-8300 7971 0
-8300 6492 0
-8300 252 0
8300 -7965 -7971 -6492 -252 0
-8301 7965 0
-8301 7972 0
-8301 6498 0
-8301 258 0
8301 -7965 -7972 -6498 -258 0
-8302 7965 0
-8302 7973 0
-8302 6503 0
-8302 263 0
8302 -7965 -7973 -6503 -263 0
-8303 7965 0
-8303 7975 0
-8303 6508 0
-8303 268 0
8303 -7965 -7975 -6508 -268 0
-8304 7965 0
-8304 7976 0
-8304 6509 0
-8304 269 0
8304 -7965 -7976 -6509 -269 0
-8305 7965 0
-8305 7977 0
-8305 6510 0
-8305 270 0
8305 -7965 -7977 -6510 -270 0
-8306 7965 0
-8306 7978 0
-8306 6511 0
-8306 271 0
8306 -7965 -7978 -6511 -271 0
-8307 7966 0
-8307 7970 0
-8307 6486 0
-8307 246 0
8307 -7966 -7970 -6486 -246 0
-8308 7966 0
-8308 7971 0
-8308 6493 0
-8308 253 0
8308 -7966 -7971 -6493 -253 0
-8309 7966 0
-8309 7972 0
-8309 6499 0
-8309 259 0
8309 -7966 -7972 -6499 -259 0
-8310 7966 0
-8310 7973 0
-8310 6504 0
-8310 264 0
8310 -7966 -7973 -6504 -264 0
-8311 7966 0
-8311 7974 0
-8311 6508 0
-8311 268 0
8311 -7966 -7974 -6508 -268 0
-8312 7966 0
-8312 7976 0
-8312 6512 0
-8312 272 0
8312 -7966 -7976 -6512 -272 0
-8313 7966 0
-8313 7977 0
-8313 6513 0
-8313 273 0
8313 -7966 -7977 -6513 -273 0
-8314 7966 0
-8314 7978 0
-8314 6514 0
-8314 274 0
8314 -7966 -7978 -6514 -274 0
-8315 7967 0
-8315 7970 0
-8315 6487 0
-8315 247 0
8315 -7967 -7970 -6487 -247 0
-8316 7967 0
-8316 7971 0
-8316 6494 0
-8316 254 0
8316 -7967 -7971 -6494 -254 0
-8317 7967 0
-8317 7972 0
-8317 6500 0
-8317 260 0
8317 -7967 -7972 -6500 -260 0
-8318 7967 0
-8318 7973 0
-8318 6505 0
-8318 265 0
8318 -7967 -7973 -6505 -265 0
-8319 7967 0
-8319 7974 0
-8319 6509 0
-8319 269 0
8319 -7967 -7974 -6509 -269 0
-8320 7967 0
-8320 7975 0
-8320 6512 0
-8320 272 0
8320 -7967 -7975 -6512 -272 0
-8321 7967 0
-8321 7977 0
-8321 6515 0
-8321 275 0
8321 -7967 -7977 -6515 -275 0
-8322 7967 0
-8322 7978 0
-8322 6516 0
-8322 276 0
8322 -7967 -7978 -6516 -276 0
-8323 7968 0
-8323 7970 0
-8323 6488 0
-8323 248 0
8323 -7968 -7970 -6488 -248 0
-8324 7968 0
-8324 7971 0
-8324 6495 0
-8324 255 0
8324 -7968 -7971 -6495 -255 0
-8325 7968 0
-8325 7972 0
-8325 6501 0
-8325 261 0
8325 -7968 -7972 -6501 -261 0
-8326 7968 0
-8326 7973 0
-8326 6506 0
-8326 266 0
8326 -7968 -7973 -6506 -266 0
-8327 7968 0
-8327 7974 0
-8327 6510 0
-8327 270 0
8327 -7968 -7974 -6510 -270 0
-8328 7968 0
-8328 7975 0
-8328 6513 0
-8328 273 0
8328 -7968 -7975 -6513 -273 0
-8329 7968 0
-8329 7976 0
-8329 6515 0
-8329 275 0
8329 -7968 -7976 -6515 -275 0
-8330 7968 0
-8330 7978 0
-8330 6517 0
-8330 277 0
8330 -7968 -7978 -6517 -277 0
-8331 7969 0
-8331 7970 0
-8331 6489 0
-8331 249 0
8331 -7969 -7970 -6489 -249 0
-8332 7969 0
-8332 7971 0
-8332 6496 0
-8332 256 0
8332 -7969 -7971 -6496 -256 0
-8333 7969 0
-8333 7972 0
-8333 6502 0
-8333 262 0
8333 -7969 -7972 -6502 -262 0
-8334 7969 0
-8334 7973 0
-8334 6507 0
-8334 267 0
8334 -7969 -7973 -6507 -267 0
-8335 7969 0
-8335 7974 0
-8335 6511 0
-8335 271 0
8335 -7969 -7974 -6511 -271 0
-8336 7969 0
-8336 7975 0
-8336 6514 0
-8336 274 0
8336 -7969 -7975 -6514 -274 0
-8337 7969 0
-8337 7976 0
-8337 6516 0
-8337 276 0
8337 -7969 -7976 -6516 -276 0
-8338 7969 0
-8338 7977 0
-8338 6517 0
-8338 277 0
8338 -7969 -7977 -6517 -277 0
-8339 7961 0
-8339 7971 0
-8339 6482 0
-8339 122 0
8339 -7961 -7971 -6482 -122 0
-8340 7961 0
-8340 7972 0
-8340 6483 0
-8340 123 0
8340 -7961 -7972 -6483 -123 0
-8341 7961 0
-8341 7973 0
-8341 6484 0
-8341 124 0
8341 -7961 -7973 -6484 -124 0
-8342 7961 0
-8342 7974 0
-8342 6485 0
-8342 125 0
8342 -7961 -7974 -6485 -125 0
-8343 7961 0
-8343 7975 0
-8343 6486 0
-8343 126 0
8343 -7961 -7975 -6486 -126 0
-8344 7961 0
-8344 7976 0
-8344 6487 0
-8344 127 0
8344 -7961 -7976 -6487 -127 0
-8345 7961 0
-8345 7977 0
-8345 6488 0
-8345 128 0
8345 -7961 -7977 -6488 -128 0
-8346 7961 0
-8346 7978 0
-8346 6489 0
-8346 129 0
8346 -7961 -7978 -6489 -129 0
-8347 7962 0
-8347 7970 0
-8347 6482 0
-8347 122 0
8347 -7962 -7970 -6482 -122 0
-8348 7962 0
-8348 7972 0
-8348 6490 0
-8348 130 0
8348 -7962 -7972 -6490 -130 0
-8349 7962 0
-8349 7973 0
-8349 6491 0
-8349 131 0
8349 -7962 -7973 -6491 -131 0
-8350 7962 0
-8350 7974 0
-8350 6492 0
-8350 132 0
8350 -7962 -7974 -6492 -132 0
-8351 7962 0
-8351 7975 0
-8351 6493 0
-8351 133 0
8351 -7962 -7975 -6493 -133 0
-8352 7962 0
-8352 7976 0
-8352 6494 0
-8352 134 0
8352 -7962 -7976 -6494 -134 0
-8353 7962 0
-8353 7977 0
-8353 6495 0
-8353 135 0
8353 -7962 -7977 -6495 -135 0
-8354 7962 0
-8354 7978 0
-8354 6496 0
-8354 136 0
8354 -7962 -7978 -6496 -136 0
-8355 7963 0
-8355 7970 0
-8355 6483 0
-8355 123 0
8355 -7963 -7970 -6483 -123 0
-8356 7963 0
-8356 7971 0
-8356 6490 0
-8356 130 0
8356 -7963 -7971 -6490 -130 0
-8357 7963 0
-8357 7973 0
-8357 6497 0
-8357 137 0
8357 -7963 -7973 -6497 -137 0
-8358 7963 0
-8358 7974 0
-8358 6498 0
-8358 138 0
8358 -7963 -7974 -6498 -138 0
-8359 7963 0
-8359 7975 0
-8359 6499 0
-8359 139 0
8359 -7963 -7975 -6499 -139 0
-8360 7963 0
-8360 7976 0
-8360 6500 0
-8360 140 0
8360 -7963 -7976 -6500 -140 0
-8361 7963 0
-8361 7977 0
-8361 6501 0
-8361 141 0
8361 -7963 -7977 -6501 -141 0
-8362 7963 0
-8362 7978 0
-8362 6502 0
-8362 142 0
8362 -7963 -7978 -6502 -142 0
-8363 7964 0
-8363 7970 0
-8363 6484 0
-8363 124 0
8363 -7964 -7970 -6484 -124 0
-8364 7964 0
-8364 7971 0
-8364 6491 0
-8364 131 0
8364 -7964 -7971 -6491 -131 0
-8365 7964 0
-8365 7972 0
-8365 6497 0
-8365 137 0
8365 -7964 -7972 -6497 -137 0
-8366 7964 0
-8366 7974 0
-8366 6503 0
-8366 143 0
8366 -7964 -7974 -6503 -143 0
-8367 7964 0
-8367 7975 0
-8367 6504 0
-8367 144 0
8367 -7964 -7975 -6504 -144 0
-8368 7964 0
-8368 7976 0
-8368 6505 0
-8368 145 0
8368 -7964 -7976 -6505 -145 0
-8369 7964 0
-8369 7977 0
-8369 6506 0
-8369 146 0
8369 -7964 -7977 -6506 -146 0
-8370 7964 0
-8370 7978 0
-8370 6507 0
-8370 147 0
8370 -7964 -7978 -6507 -147 0
-8371 7965 0
-8371 7970 0
-8371 6485 0
-8371 125 0
8371 -7965 -7970 -6485 -125 0
-8372 7965 0
-8372 7971 0
-8372 6492 0
-8372 132 0
8372 -7965 -7971 -6492 -132 0
-8373 7965 0
-8373 7972 0
-8373 6498 0
-8373 138 0
8373 -7965 -7972 -6498 -138 0
-8374 7965 0
-8374 7973 0
-8374 6503 0
-8374 143 0
8374 -7965 -7973 -6503 -143 0
-8375 7965 0
-8375 7975 0
-8375 6508 0
-8375 148 0
8375 -7965 -7975 -6508 -148 0
-8376 7965 0
-8376 7976 0
-8376 6509 0
-8376 149 0
8376 -7965 -7976 -6509 -149 0
-8377 7965 0
-8377 7977 0
-8377 6510 0
-8377 150 0
8377 -7965 -7977 -6510 -150 0
-8378 7965 0
-8378 7978 0
-8378 6511 0
-8378 151 0
8378 -7965 -7978 -6511 -151 0
-8379 7966 0
-8379 7970 0
-8379 6486 0
-8379 126 0
8379 -7966 -7970 -6486 -126 0
-8380 7966 0
-8380 7971 0
-8380 6493 0
-8380 133 0
8380 -7966 -7971 -6493 -133 0
-8381 7966 0
-8381 7972 0
-8381 6499 0
-8381 139 0
8381 -7966 -7972 -6499 -139 0
-8382 7966 0
-8382 7973 0
-8382 6504 0
-8382 144 0
8382 -7966 -7973 -6504 -144 0
-8383 7966 0
-8383 7974 0
-8383 6508 0
-8383 148 0
8383 -7966 -7974 -6508 -148 0
-8384 7966 0
-8384 7976 0
-8384 6512 0
-8384 152 0
8384 -7966 -7976 -6512 -152 0
-8385 7966 0
-8385 7977 0
-8385 6513 0
-8385 153 0
8385 -7966 -7977 -6513 -153 0
-8386 7966 0
-8386 7978 0
-8386 6514 0
-8386 154 0
8386 -7966 -7978 -6514 -154 0
-8387 7967 0
-8387 7970 0
-8387 6487 0
-8387 127 0
8387 -7967 -7970 -6487 -127 0
-8388 7967 0
-8388 7971 0
-8388 6494 0
-8388 134 0
8388 -7967 -7971 -6494 -134 0
-8389 7967 0
-8389 7972 0
-8389 6500 0
-8389 140 0
8389 -7967 -7972 -6500 -140 0
-8390 7967 0
-8390 7973 0
-8390 6505 0
-8390 145 0
8390 -7967 -7973 -6505 -145 0
-8391 7967 0
-8391 7974 0
-8391 6509 0
-8391 149 0
8391 -7967 -7974 -6509 -149 0
-8392 7967 0
-8392 7975 0
-8392 6512 0
-8392 152 0
8392 -7967 -7975 -6512 -152 0
-8393 7967 0
-8393 7977 0
-8393 6515 0
-8393 155 0
8393 -7967 -7977 -6515 -155 0
-8394 7967 0
-8394 7978 0
-8394 6516 0
-8394 156 0
8394 -7967 -7978 -6516 -156 0
-8395 7968 0
-8395 7970 0
-8395 6488 0
-8395 128 0
8395 -7968 -7970 -6488 -128 0
-8396 7968 0
-8396 7971 0
-8396 6495 0
-8396 135 0
8396 -7968 -7971 -6495 -135 0
-8397 7968 0
-8397 7972 0
-8397 6501 0
-8397 141 0
8397 -7968 -7972 -6501 -141 0
-8398 7968 0
-8398 7973 0
-8398 6506 0
-8398 146 0
8398 -7968 -7973 -6506 -146 0
-8399 7968 0
-8399 7974 0
-8399 6510 0
-8399 150 0
8399 -7968 -7974 -6510 -150 0
-8400 7968 0
-8400 7975 0
-8400 6513 0
-8400 153 0
8400 -7968 -7975 -6513 -153 0
-8401 7968 0
-8401 7976 0
-8401 6515 0
-8401 155 0
8401 -7968 -7976 -6515 -155 0
-8402 7968 0
-8402 7978 0
-8402 6517 0
-8402 157 0
8402 -7968 -7978 -6517 -157 0
-8403 7969 0
-8403 7970 0
-8403 6489 0
-8403 129 0
8403 -7969 -7970 -6489 -129 0
-8404 7969 0
-8404 7971 0
-8404 6496 0
-8404 136 0
8404 -7969 -7971 -6496 -136 0
-8405 7969 0
-8405 7972 0
-8405 6502 0
-8405 142 0
8405 -7969 -7972 -6502 -142 0
-8406 7969 0
-8406 7973 0
-8406 6507 0
-8406 147 0
8406 -7969 -7973 -6507 -147 0
-8407 7969 0
-8407 7974 0
-8407 6511 0
-8407 151 0
8407 -7969 -7974 -6511 -151 0
-8408 7969 0
-8408 7975 0
-8408 6514 0
-8408 154 0
8408 -7969 -7975 -6514 -154 0
-8409 7969 0
-8409 7976 0
-8409 6516 0
-8409 156 0
8409 -7969 -7976 -6516 -156 0
-8410 7969 0
-8410 7977 0
-8410 6517 0
-8410 157 0
8410 -7969 -7977 -6517 -157 0
-8411 8123 8124 8125 8126 8127 8128 8129 8130 8131 8132 8133 8134 8135 8136 8137 8138 8139 8140 8141 8142 8143 8144 8145 8146 8147 8148 8149 8150 8151 8152 8153 8154 8155 8156 8157 8158 8159 8160 8161 8162 8163 8164 8165 8166 8167 8168 8169 8170 8171 8172 8173 8174 8175 8176 8177 8178 8179 8180 8181 8182 8183 8184 8185 8186 8187 8188 8189 8190 8191 8192 8193 8194 0
-8413 8123 0
-8413 6611 0
-8413 -6936 0
8413 -8123 -6611 6936 0
-8414 8124 0
-8414 6612 0
-8414 -6965 0
8414 -8124 -6612 6965 0
-8415 8125 0
-8415 6613 0
-8415 -6994 0
8415 -8125 -6613 6994 0
-8416 8126 0
-8416 6614 0
-8416 -7023 0
8416 -8126 -6614 7023 0
-8417 8127 0
-8417 6615 0
-8417 -7052 0
8417 -8127 -6615 7052 0
-8418 8128 0
-8418 6616 0
-8418 -7081 0
8418 -8128 -6616 7081 0
-8419 8129 0
-8419 6617 0
-8419 -7110 0
8419 -8129 -6617 7110 0
-8420 8130 0
-8420 6618 0
-8420 -7139 0
8420 -8130 -6618 7139 0
-8421 8131 0
-8421 6611 0
-8421 -6936 0
8421 -8131 -6611 6936 0
-8422 8132 0
-8422 6619 0
-8422 -7168 0
8422 -8132 -6619 7168 0
-8423 8133 0
-8423 6620 0
-8423 -7197 0
8423 -8133 -6620 7197 0
-8424 8134 0
-8424 6621 0
-8424 -7226 0
8424 -8134 -6621 7226 0
-8425 8135 0
-8425 6622 0
-8425 -7255 0
8425 -8135 -6622 7255 0
-8426 8136 0
-8426 6623 0
-8426 -7284 0
8426 -8136 -6623 7284 0
-8427 8137 0
-8427 6624 0
-8427 -7313 0
8427 -8137 -6624 7313 0
-8428 8138 0
-8428 6625 0
-8428 -7342 0
8428 -8138 -6625 7342 0
-8429 8139 0
-8429 6612 0
-8429 -6965 0
8429 -8139 -6612 6965 0
-8430 8140 0
-8430 6619 0
-8430 -7168 0
8430 -8140 -6619 7168 0
-8431 8141 0
-8431 6626 0
-8431 -7371 0
8431 -8141 -6626 7371 0
-8432 8142 0
-8432 6627 0
-8432 -7400 0
8432 -8142 -6627 7400 0
-8433 8143 0
-8433 6628 0
-8433 -7429 0
8433 -8143 -6628 7429 0
-8434 8144 0
-8434 6629 0
-8434 -7458 0
8434 -8144 -6629 7458 0
-8435 8145 0
-8435 6630 0
-8435 -7487 0
8435 -8145 -6630 7487 0
-8436 8146 0
-8436 6631 0
-8436 -7516 0
8436 -8146 -6631 7516 0
-8437 8147 0
-8437 6613 0
-8437 -6994 0
8437 -8147 -6613 6994 0
-8438 8148 0
-8438 6620 0
-8438 -7197 0
8438 -8148 -6620 7197 0
-8439 8149 0
-8439 6626 0
-8439 -7371 0
8439 -8149 -6626 7371 0
-8440 8150 0
-8440 6632 0
-8440 -7545 0
8440 -8150 -6632 7545 0
-8441 8151 0
-8441 6633 0
-8441 -7574 0
8441 -8151 -6633 7574 0
-8442 8152 0
-8442 6634 0
-8442 -7603 0
8442 -8152 -6634 7603 0
-8443 8153 0
-8443 6635 0
-8443 -7632 0
8443 -8153 -6635 7632 0
-8444 8154 0
-8444 6636 0
-8444 -7661 0
8444 -8154 -6636 7661 0
-8445 8155 0
-8445 6614 0
-8445 -7023 0
8445 -8155 -6614 7023 0
-8446 8156 0
-8446 6621 0
-8446 -7226 0
8446 -8156 -6621 7226 0
-8447 8157 0
-8447 6627 0
-8447 -7400 0
8447 -8157 -6627 7400 0
-8448 8158 0
-8448 6632 0
-8448 -7545 0
8448 -8158 -6632 7545 0
-8449 8159 0
-8449 6637 0
-8449 -7690 0
8449 -8159 -6637 7690 0
-8450 8160 0
-8450 6638 0
-8450 -7719 0
8450 -8160 -6638 7719 0
-8451 8161 0
-8451 6639 0
-8451 -7748 0
8451 -8161 -6639 7748 0
-8452 8162 0
-8452 6640 0
-8452 -7777 0
8452 -8162 -6640 7777 0
-8453 8163 0
-8453 6615 0
-8453 -7052 0
8453 -8163 -6615 7052 0
-8454 8164 0
-8454 6622 0
-8454 -7255 0
8454 -8164 -6622 7255 0
-8455 8165 0
-8455 6628 0
-8455 -7429 0
8455 -8165 -6628 7429 0
-8456 8166 0
-8456 6633 0
-8456 -7574 0
8456 -8166 -6633 7574 0
-8457 8167 0
-8457 6637 0
-8457 -7690 0
8457 -8167 -6637 7690 0
-8458 8168 0
-8458 6641 0
-8458 -7806 0
8458 -8168 -6641 7806 0
-8459 8169 0
-8459 6642 0
-8459 -7835 0
8459 -8169 -6642 7835 0
-8460 8170 0
-8460 6643 0
-8460 -7864 0
8460 -8170 -6643 7864 0
-8461 8171 0
-8461 6616 0
-8461 -7081 0
8461 -8171 -6616 7081 0
-8462 8172 0
-8462 6623 0
-8462 -7284 0
8462 -8172 -6623 7284 0
-8463 8173 0
-8463 6629 0
-8463 -7458 0
8463 -8173 -6629 7458 0
-8464 8174 0
-8464 6634 0
-8464 -7603 0
8464 -8174 -6634 7603 0
-8465 8175 0
-8465 6638 0
-8465 -7719 0
8465 -8175 -6638 7719 0
-8466 8176 0
-8466 6641 0
-8466 -7806 0
8466 -8176 -6641 7806 0
-8467 8177 0
-8467 6644 0
-8467 -7893 0
8467 -8177 -6644 7893 0
-8468 8178 0
-8468 6645 0
-8468 -7922 0
8468 -8178 -6645 7922 0
-8469 8179 0
-8469 6617 0
-8469 -7110 0
8469 -8179 -6617 7110 0
-8470 8180 0
-8470 6624 0
-8470 -7313 0
8470 -8180 -6624 7313 0
-8471 8181 0
-8471 6630 0
-8471 -7487 0
8471 -8181 -6630 7487 0
-8472 8182 0
-8472 6635 0
-8472 -7632 0
8472 -8182 -6635 7632 0
-8473 8183 0
-8473 6639 0
-8473 -7748 0
8473 -8183 -6639 7748 0
-8474 8184 0
-8474 6642 0
-8474 -7835 0
8474 -8184 -6642 7835 0
-8475 8185 0
-8475 6644 0
-8475 -7893 0
8475 -8185 -6644 7893 0
-8476 8186 0
-8476 6646 0
-8476 -7951 0
8476 -8186 -6646 7951 0
-8477 8187 0
-8477 6618 0
-8477 -7139 0
8477 -8187 -6618 7139 0
-8478 8188 0
-8478 6625 0
-8478 -7342 0
8478 -8188 -6625 7342 0
-8479 8189 0
-8479 6631 0
-8479 -7516 0
8479 -8189 -6631 7516 0
-8480 8190 0
-8480 6636 0
-8480 -7661 0
8480 -8190 -6636 7661 0
-8481 8191 0
-8481 6640 0
-8481 -7777 0
8481 -8191 -6640 7777 0
-8482 8192 0
-8482 6643 0
-8482 -7864 0
8482 -8192 -6643 7864 0
-8483 8193 0
-8483 6645 0
-8483 -7922 0
8483 -8193 -6645 7922 0
-8484 8194 0
-8484 6646 0
-8484 -7951 0
8484 -8194 -6646 7951 0
-8412 8413 8414 8415 8416 8417 8418 8419 8420 8421 8422 8423 8424 8425 8426 8427 8428 8429 8430 8431 8432 8433 8434 8435 8436 8437 8438 8439 8440 8441 8442 8443 8444 8445 8446 8447 8448 8449 8450 8451 8452 8453 8454 8455 8456 8457 8458 8459 8460 8461 8462 8463 8464 8465 8466 8467 8468 8469 8470 8471 8472 8473 8474 8475 8476 8477 8478 8479 8480 8481 8482 8483 8484 0
-8485 8195 8196 8197 8198 8199 8200 8201 8202 8203 8204 8205 8206 8207 8208 8209 8210 8211 8212 8213 8214 8215 8216 8217 8218 8219 8220 8221 8222 8223 8224 8225 8226 8227 8228 8229 8230 8231 8232 8233 8234 8235 8236 8237 8238 8239 8240 8241 8242 8243 8244 8245 8246 8247 8248 8249 8250 8251 8252 8253 8254 8255 8256 8257 8258 8259 8260 8261 8262 8263 8264 8265 8266 0
-8487 8195 0
-8487 6611 0
-8487 -6936 0
8487 -8195 -6611 6936 0
-8488 8196 0
-8488 6612 0
-8488 -6965 0
8488 -8196 -6612 6965 0
-8489 8197 0
-8489 6613 0
-8489 -6994 0
8489 -8197 -6613 6994 0
-8490 8198 0
-8490 6614 0
-8490 -7023 0
8490 -8198 -6614 7023 0
-8491 8199 0
-8491 6615 0
-8491 -7052 0
8491 -8199 -6615 7052 0
-8492 8200 0
-8492 6616 0
-8492 -7081 0
8492 -8200 -6616 7081 0
-8493 8201 0
-8493 6617 0
-8493 -7110 0
8493 -8201 -6617 7110 0
-8494 8202 0
-8494 6618 0
-8494 -7139 0
8494 -8202 -6618 7139 0
-8495 8203 0
-8495 6611 0
-8495 -6936 0
8495 -8203 -6611 6936 0
-8496 8204 0
-8496 6619 0
-8496 -7168 0
8496 -8204 -6619 7168 0
-8497 8205 0
-8497 6620 0
-8497 -7197 0
8497 -8205 -6620 7197 0
-8498 8206 0
-8498 6621 0
-8498 -7226 0
8498 -8206 -6621 7226 0
-8499 8207 0
-8499 6622 0
-8499 -7255 0
8499 -8207 -6622 7255 0
-8500 8208 0
-8500 6623 0
-8500 -7284 0
8500 -8208 -6623 7284 0
-8501 8209 0
-8501 6624 0
-8501 -7313 0
8501 -8209 -6624 7313 0
-8502 8210 0
-8502 6625 0
-8502 -7342 0
8502 -8210 -6625 7342 0
-8503 8211 0
-8503 6612 0
-8503 -6965 0
8503 -8211 -6612 6965 0
-8504 8212 0
-8504 6619 0
-8504 -7168 0
8504 -8212 -6619 7168 0
-8505 8213 0
-8505 6626 0
-8505 -7371 0
8505 -8213 -6626 7371 0
-8506 8214 0
-8506 6627 0
-8506 -7400 0
8506 -8214 -6627 7400 0
-8507 8215 0
-8507 6628 0
-8507 -7429 0
8507 -8215 -6628 7429 0
-8508 8216 0
-8508 6629 0
-8508 -7458 0
8508 -8216 -6629 7458 0
-8509 8217 0
-8509 6630 0
-8509 -7487 0
8509 -8217 -6630 7487 0
-8510 8218 0
-8510 6631 0
-8510 -7516 0
8510 -8218 -6631 7516 0
-8511 8219 0
-8511 6613 0
-8511 -6994 0
8511 -8219 -6613 6994 0
-8512 8220 0
-8512 6620 0
-8512 -7197 0
8512 -8220 -6620 7197 0
-8513 8221 0
-8513 6626 0
-8513 -7371 0
8513 -8221 -6626 7371 0
-8514 8222 0
-8514 6632 0
-8514 -7545 0
8514 -8222 -6632 7545 0
-8515 8223 0
-8515 6633 0
-8515 -7574 0
8515 -8223 -6633 7574 0
-8516 8224 0
-8516 6634 0
-8516 -7603 0
8516 -8224 -6634 7603 0
-8517 8225 0
-8517 6635 0
-8517 -7632 0
8517 -8225 -6635 7632 0
-8518 8226 0
-8518 6636 0
-8518 -7661 0
8518 -8226 -6636 7661 0
-8519 8227 0
-8519 6614 0
-8519 -7023 0
8519 -8227 -6614 7023 0
-8520 8228 0
-8520 6621 0
-8520 -7226 0
8520 -8228 -6621 7226 0
-8521 8229 0
-8521 6627 0
-8521 -7400 0
8521 -8229 -6627 7400 0
-8522 8230 0
-8522 6632 0
-8522 -7545 0
8522 -8230 -6632 7545 0
-8523 8231 0
-8523 6637 0
-8523 -7690 0
8523 -8231 -6637 7690 0
-8524 8232 0
-8524 6638 0
-8524 -7719 0
8524 -8232 -6638 7719 0
-8525 8233 0
-8525 6639 0
-8525 -7748 0
8525 -8233 -6639 7748 0
-8526 8234 0
-8526 6640 0
-8526 -7777 0
8526 -8234 -6640 7777 0
-8527 8235 0
-8527 6615 0
-8527 -7052 0
8527 -8235 -6615 7052 0
-8528 8236 0
-8528 6622 0
-8528 -7255 0
8528 -8236 -6622 7255 0
-8529 8237 0
-8529 6628 0
-8529 -7429 0
8529 -8237 -6628 7429 0
-8530 8238 0
-8530 6633 0
-8530 -7574 0
8530 -8238 -6633 7574 0
-8531 8239 0
-8531 6637 0
-8531 -7690 0
8531 -8239 -6637 7690 0
-8532 8240 0
-8532 6641 0
-8532 -7806 0
8532 -8240 -6641 7806 0
-8533 8241 0
-8533 6642 0
-8533 -7835 0
8533 -8241 -6642 7835 0
-8534 8242 0
-8534 6643 0
-8534 -7864 0
8534 -8242 -6643 7864 0
-8535 8243 0
-8535 6616 0
-8535 -7081 0
8535 -8243 -6616 7081 0
-8536 8244 0
-8536 6623 0
-8536 -7284 0
8536 -8244 -6623 7284 0
-8537 8245 0
-8537 6629 0
-8537 -7458 0
8537 -8245 -6629 7458 0
-8538 8246 0
-8538 6634 0
-8538 -7603 0
8538 -8246 -6634 7603 0
-8539 8247 0
-8539 6638 0
-8539 -7719 0
8539 -8247 -6638 7719 0
-8540 8248 0
-8540 6641 0
-8540 -7806 0
8540 -8248 -6641 7806 0
-8541 8249 0
-8541 6644 0
-8541 -7893 0
8541 -8249 -6644 7893 0
-8542 8250 0
-8542 6645 0
-8542 -7922 0
8542 -8250 -6645 7922 0
-8543 8251 0
-8543 6617 0
-8543 -7110 0
8543 -8251 -6617 7110 0
-8544 8252 0
-8544 6624 0
-8544 -7313 0
8544 -8252 -6624 7313 0
-8545 8253 0
-8545 6630 0
-8545 -7487 0
8545 -8253 -6630 7487 0
-8546 8254 0
-8546 6635 0
-8546 -7632 0
8546 -8254 -6635 7632 0
-8547 8255 0
-8547 6639 0
-8547 -7748 0
8547 -8255 -6639 7748 0
-8548 8256 0
-8548 6642 0
-8548 -7835 0
8548 -8256 -6642 7835 0
-8549 8257 0
-8549 6644 0
-8549 -7893 0
8549 -8257 -6644 7893 0
-8550 8258 0
-8550 6646 0
-8550 -7951 0
8550 -8258 -6646 7951 0
-8551 8259 0
-8551 6618 0
-8551 -7139 0
8551 -8259 -6618 7139 0
-8552 8260 0
-8552 6625 0
-8552 -7342 0
8552 -8260 -6625 7342 0
-8553 8261 0
-8553 6631 0
-8553 -7516 0
8553 -8261 -6631 7516 0
-8554 8262 0
-8554 6636 0
-8554 -7661 0
8554 -8262 -6636 7661 0
-8555 8263 0
-8555 6640 0
-8555 -7777 0
8555 -8263 -6640 7777 0
-8556 8264 0
-8556 6643 0
-8556 -7864 0
8556 -8264 -6643 7864 0
-8557 8265 0
-8557 6645 0
-8557 -7922 0
8557 -8265 -6645 7922 0
-8558 8266 0
-8558 6646 0
-8558 -7951 0
8558 -8266 -6646 7951 0
-8486 8487 8488 8489 8490 8491 8492 8493 8494 8495 8496 8497 8498 8499 8500 8501 8502 8503 8504 8505 8506 8507 8508 8509 8510 8511 8512 8513 8514 8515 8516 8517 8518 8519 8520 8521 8522 8523 8524 8525 8526 8527 8528 8529 8530 8531 8532 8533 8534 8535 8536 8537 8538 8539 8540 8541 8542 8543 8544 8545 8546 8547 8548 8549 8550 8551 8552 8553 8554 8555 8556 8557 8558 0
-8559 8267 8268 8269 8270 8271 8272 8273 8274 8275 8276 8277 8278 8279 8280 8281 8282 8283 8284 8285 8286 8287 8288 8289 8290 8291 8292 8293 8294 8295 8296 8297 8298 8299 8300 8301 8302 8303 8304 8305 8306 8307 8308 8309 8310 8311 8312 8313 8314 8315 8316 8317 8318 8319 8320 8321 8322 8323 8324 8325 8326 8327 8328 8329 8330 8331 8332 8333 8334 8335 8336 8337 8338 0
-8561 8267 0
-8561 6611 0
-8561 -6936 0
8561 -8267 -6611 6936 0
-8562 8268 0
-8562 6612 0
-8562 -6965 0
8562 -8268 -6612 6965 0
-8563 8269 0
-8563 6613 0
-8563 -6994 0
8563 -8269 -6613 6994 0
-8564 8270 0
-8564 6614 0
-8564 -7023 0
8564 -8270 -6614 7023 0
-8565 8271 0
-8565 6615 0
-8565 -7052 0
8565 -8271 -6615 7052 0
-8566 8272 0
-8566 6616 0
-8566 -7081 0
8566 -8272 -6616 7081 0
-8567 8273 0
-8567 6617 0
-8567 -7110 0
8567 -8273 -6617 7110 0
-8568 8274 0
-8568 6618 0
-8568 -7139 0
8568 -8274 -6618 7139 0
-8569 8275 0
-8569 6611 0
-8569 -6936 0
8569 -8275 -6611 6936 0
-8570 8276 0
-8570 6619 0
-8570 -7168 0
8570 -8276 -6619 7168 0
-8571 8277 0
-8571 6620 0
-8571 -7197 0
8571 -8277 -6620 7197 0
-8572 8278 0
-8572 6621 0
-8572 -7226 0
8572 -8278 -6621 7226 0
-8573 8279 0
-8573 6622 0
-8573 -7255 0
8573 -8279 -6622 7255 0
-8574 8280 0
-8574 6623 0
-8574 -7284 0
8574 -8280 -6623 7284 0
-8575 8281 0
-8575 6624 0
-8575 -7313 0
8575 -8281 -6624 7313 0
-8576 8282 0
-8576 6625 0
-8576 -7342 0
8576 -8282 -6625 7342 0
-8577 8283 0
-8577 6612 0
-8577 -6965 0
8577 -8283 -6612 6965 0
-8578 8284 0
-8578 6619 0
-8578 -7168 0
8578 -8284 -6619 7168 0
-8579 8285 0
-8579 6626 0
-8579 -7371 0
8579 -8285 -6626 7371 0
-8580 8286 0
-8580 6627 0
-8580 -7400 0
8580 -8286 -6627 7400 0
-8581 8287 0
-8581 6628 0
-8581 -7429 0
8581 -8287 -6628 7429 0
-8582 8288 0
-8582 6629 0
-8582 -7458 0
8582 -8288 -6629 7458 0
-8583 8289 0
-8583 6630 0
-8583 -7487 0
8583 -8289 -6630 7487 0
-8584 8290 0
-8584 6631 0
-8584 -7516 0
8584 -8290 -6631 7516 0
-8585 8291 0
-8585 6613 0
-8585 -6994 0
8585 -8291 -6613 6994 0
-8586 8292 0
-8586 6620 0
-8586 -7197 0
8586 -8292 -6620 7197 0
-8587 8293 0
-8587 6626 0
-8587 -7371 0
8587 -8293 -6626 7371 0
-8588 8294 0
-8588 6632 0
-8588 -7545 0
8588 -8294 -6632 7545 0
-8589 8295 0
-8589 6633 0
-8589 -7574 0
8589 -8295 -6633 7574 0
-8590 8296 0
-8590 6634 0
-8590 -7603 0
8590 -8296 -6634 7603 0
-8591 8297 0
-8591 6635 0
-8591 -7632 0
8591 -8297 -6635 7632 0
-8592 8298 0
-8592 6636 0
-8592 -7661 0
8592 -8298 -6636 7661 0
-8593 8299 0
-8593 6614 0
-8593 -7023 0
8593 -8299 -6614 7023 0
-8594 8300 0
-8594 6621 0
-8594 -7226 0
8594 -8300 -6621 7226 0
-8595 8301 0
-8595 6627 0
-8595 -7400 0
8595 -8301 -6627 7400 0
-8596 8302 0
-8596 6632 0
-8596 -7545 0
8596 -8302 -6632 7545 0
-8597 8303 0
-8597 6637 0
-8597 -7690 0
8597 -8303 -6637 7690 0
-8598 8304 0
-8598 6638 0
-8598 -7719 0
8598 -8304 -6638 7719 0
-8599 8305 0
-8599 6639 0
-8599 -7748 0
8599 -8305 -6639 7748 0
-8600 8306 0
-8600 6640 0
-8600 -7777 0
8600 -8306 -6640 7777 0
-8601 8307 0
-8601 6615 0
-8601 -7052 0
8601 -8307 -6615 7052 0
-8602 8308 0
-8602 6622 0
-8602 -7255 0
8602 -8308 -6622 7255 0
-8603 8309 0
-8603 6628 0
-8603 -7429 0
8603 -8309 -6628 7429 0
-8604 8310 0
-8604 6633 0
-8604 -7574 0
8604 -8310 -6633 7574 0
-8605 8311 0
-8605 6637 0
-8605 -7690 0
8605 -8311 -6637 7690 0
-8606 8312 0
-8606 6641 0
-8606 -7806 0
8606 -8312 -6641 7806 0
-8607 8313 0
-8607 6642 0
-8607 -7835 0
8607 -8313 -6642 7835 0
-8608 8314 0
-8608 6643 0
-8608 -7864 0
8608 -8314 -6643 7864 0
-8609 8315 0
-8609 6616 0
-8609 -7081 0
8609 -8315 -6616 7081 0
-8610 8316 0
-8610 6623 0
-8610 -7284 0
8610 -8316 -6623 7284 0
-8611 8317 0
-8611 6629 0
-8611 -7458 0
8611 -8317 -6629 7458 0
-8612 8318 0
-8612 6634 0
-8612 -7603 0
8612 -8318 -6634 7603 0
-8613 8319 0
-8613 6638 0
-8613 -7719 0
8613 -8319 -6638 7719 0
-8614 8320 0
-8614 6641 0
-8614 -7806 0
8614 -8320 -6641 7806 0
-8615 8321 0
-8615 6644 0
-8615 -7893 0
8615 -8321 -6644 7893 0
-8616 8322 0
-8616 6645 0
-8616 -7922 0
8616 -8322 -6645 7922 0
-8617 8323 0
-8617 6617 0
-8617 -7110 0
8617 -8323 -6617 7110 0
-8618 8324 0
-8618 6624 0
-8618 -7313 0
8618 -8324 -6624 7313 0
-8619 8325 0
-8619 6630 0
-8619 -7487 0
8619 -8325 -6630 7487 0
-8620 8326 0
-8620 6635 0
-8620 -7632 0
8620 -8326 -6635 7632 0
-8621 8327 0
-8621 6639 0
-8621 -7748 0
8621 -8327 -6639 7748 0
-8622 8328 0
-8622 6642 0
-8622 -7835 0
8622 -8328 -6642 7835 0
-8623 8329 0
-8623 6644 0
-8623 -7893 0
8623 -8329 -6644 7893 0
-8624 8330 0
-8624 6646 0
-8624 -7951 0
8624 -8330 -6646 7951 0
-8625 8331 0
-8625 6618 0
-8625 -7139 0
8625 -8331 -6618 7139 0
-8626 8332 0
-8626 6625 0
-8626 -7342 0
8626 -8332 -6625 7342 0
-8627 8333 0
-8627 6631 0
-8627 -7516 0
8627 -8333 -6631 7516 0
-8628 8334 0
-8628 6636 0
-8628 -7661 0
8628 -8334 -6636 7661 0
-8629 8335 0
-8629 6640 0
-8629 -7777 0
8629 -8335 -6640 7777 0
-8630 8336 0
-8630 6643 0
-8630 -7864 0
8630 -8336 -6643 7864 0
-8631 8337 0
-8631 6645 0
-8631 -7922 0
8631 -8337 -6645 7922 0
-8632 8338 0
-8632 6646 0
-8632 -7951 0
8632 -8338 -6646 7951 0
-8560 8561 8562 8563 8564 8565 8566 8567 8568 8569 8570 8571 8572 8573 8574 8575 8576 8577 8578 8579 8580 8581 8582 8583 8584 8585 8586 8587 8588 8589 8590 8591 8592 8593 8594 8595 8596 8597 8598 8599 8600 8601 8602 8603 8604 8605 8606 8607 8608 8609 8610 8611 8612 8613 8614 8615 8616 8617 8618 8619 8620 8621 8622 8623 8624 8625 8626 8627 8628 8629 8630 8631 8632 0
-8633 8339 8340 8341 8342 8343 8344 8345 8346 8347 8348 8349 8350 8351 8352 8353 8354 8355 8356 8357 8358 8359 8360 8361 8362 8363 8364 8365 8366 8367 8368 8369 8370 8371 8372 8373 8374 8375 8376 8377 8378 8379 8380 8381 8382 8383 8384 8385 8386 8387 8388 8389 8390 8391 8392 8393 8394 8395 8396 8397 8398 8399 8400 8401 8402 8403 8404 8405 8406 8407 8408 8409 8410 0
-8635 8339 0
-8635 6611 0
-8635 -6936 0
8635 -8339 -6611 6936 0
-8636 8340 0
-8636 6612 0
-8636 -6965 0
8636 -8340 -6612 6965 0
-8637 8341 0
-8637 6613 0
-8637 -6994 0
8637 -8341 -6613 6994 0
-8638 8342 0
-8638 6614 0
-8638 -7023 0
8638 -8342 -6614 7023 0
-8639 8343 0
-8639 6615 0
-8639 -7052 0
8639 -8343 -6615 7052 0
-8640 8344 0
-8640 6616 0
-8640 -7081 0
8640 -8344 -6616 7081 0
-8641 8345 0
-8641 6617 0
-8641 -7110 0
8641 -8345 -6617 7110 0
-8642 8346 0
-8642 6618 0
-8642 -7139 0
8642 -8346 -6618 7139 0
-8643 8347 0
-8643 6611 0
-8643 -6936 0
8643 -8347 -6611 6936 0
-8644 8348 0
-8644 6619 0
-8644 -7168 0
8644 -8348 -6619 7168 0
-8645 8349 0
-8645 6620 0
-8645 -7197 0
8645 -8349 -6620 7197 0
-8646 8350 0
-8646 6621 0
-8646 -7226 0
8646 -8350 -6621 7226 0
-8647 8351 0
-8647 6622 0
-8647 -7255 0
8647 -8351 -6622 7255 0
-8648 8352 0
-8648 6623 0
-8648 -7284 0
8648 -8352 -6623 7284 0
-8649 8353 0
-8649 6624 0
-8649 -7313 0
8649 -8353 -6624 7313 0
-8650 8354 0
-8650 6625 0
-8650 -7342 0
8650 -8354 -6625 7342 0
-8651 8355 0
-8651 6612 0
-8651 -6965 0
8651 -8355 -6612 6965 0
-8652 8356 0
-8652 6619 0
-8652 -7168 0
8652 -8356 -6619 7168 0
-8653 8357 0
-8653 6626 0
-8653 -7371 0
8653 -8357 -6626 7371 0
-8654 8358 0
-8654 6627 0
-8654 -7400 0
8654 -8358 -6627 7400 0
-8655 8359 0
-8655 6628 0
-8655 -7429 0
8655 -8359 -6628 7429 0
-8656 8360 0
-8656 6629 0
-8656 -7458 0
8656 -8360 -6629 7458 0
-8657 8361 0
-8657 6630 0
-8657 -7487 0
8657 -8361 -6630 7487 0
-8658 8362 0
-8658 6631 0
-8658 -7516 0
8658 -8362 -6631 7516 0
-8659 8363 0
-8659 6613 0
-8659 -6994 0
8659 -8363 -6613 6994 0
-8660 8364 0
-8660 6620 0
-8660 -7197 0
8660 -8364 -6620 7197 0
-8661 8365 0
-8661 6626 0
-8661 -7371 0
8661 -8365 -6626 7371 0
-8662 8366 0
-8662 6632 0
-8662 -7545 0
8662 -8366 -6632 7545 0
-8663 8367 0
-8663 6633 0
-8663 -7574 0
8663 -8367 -6633 7574 0
-8664 8368 0
-8664 6634 0
-8664 -7603 0
8664 -8368 -6634 7603 0
-8665 8369 0
-8665 6635 0
-8665 -7632 0
8665 -8369 -6635 7632 0
-8666 8370 0
-8666 6636 0
-8666 -7661 0
8666 -8370 -6636 7661 0
-8667 8371 0
-8667 6614 0
-8667 -7023 0
8667 -8371 -6614 7023 0
-8668 8372 0
-8668 6621 0
-8668 -7226 0
8668 -8372 -6621 7226 0
-8669 8373 0
-8669 6627 0
-8669 -7400 0
8669 -8373 -6627 7400 0
-8670 8374 0
-8670 6632 0
-8670 -7545 0
8670 -8374 -6632 7545 0
-8671 8375 0
-8671 6637 0
-8671 -7690 0
8671 -8375 -6637 7690 0
-8672 8376 0
-8672 6638 0
-8672 -7719 0
8672 -8376 -6638 7719 0
-8673 8377 0
-8673 6639 0
-8673 -7748 0
8673 -8377 -6639 7748 0
-8674 8378 0
-8674 6640 0
-8674 -7777 0
8674 -8378 -6640 7777 0
-8675 8379 0
-8675 6615 0
-8675 -7052 0
8675 -8379 -6615 7052 0
-8676 8380 0
-8676 6622 0
-8676 -7255 0
8676 -8380 -6622 7255 0
-8677 8381 0
-8677 6628 0
-8677 -7429 0
8677 -8381 -6628 7429 0
-8678 8382 0
-8678 6633 0
-8678 -7574 0
8678 -8382 -6633 7574 0
-8679 8383 0
-8679 6637 0
-8679 -7690 0
8679 -8383 -6637 7690 0
-8680 8384 0
-8680 6641 0
-8680 -7806 0
8680 -8384 -6641 7806 0
-8681 8385 0
-8681 6642 0
-8681 -7835 0
8681 -8385 -6642 7835 0
-8682 8386 0
-8682 6643 0
-8682 -7864 0
8682 -8386 -6643 7864 0
-8683 8387 0
-8683 6616 0
-8683 -7081 0
8683 -8387 -6616 7081 0
-8684 8388 0
-8684 6623 0
-8684 -7284 0
8684 -8388 -6623 7284 0
-8685 8389 0
-8685 6629 0
-8685 -7458 0
8685 -8389 -6629 7458 0
-8686 8390 0
-8686 6634 0
-8686 -7603 0
8686 -8390 -6634 7603 0
-8687 8391 0
-8687 6638 0
-8687 -7719 0
8687 -8391 -6638 7719 0
-8688 8392 0
-8688 6641 0
-8688 -7806 0
8688 -8392 -6641 7806 0
-8689 8393 0
-8689 6644 0
-8689 -7893 0
8689 -8393 -6644 7893 0
-8690 8394 0
-8690 6645 0
-8690 -7922 0
8690 -8394 -6645 7922 0
-8691 8395 0
-8691 6617 0
-8691 -7110 0
8691 -8395 -6617 7110 0
-8692 8396 0
-8692 6624 0
-8692 -7313 0
8692 -8396 -6624 7313 0
-8693 8397 0
-8693 6630 0
-8693 -7487 0
8693 -8397 -6630 7487 0
-8694 8398 0
-8694 6635 0
-8694 -7632 0
8694 -8398 -6635 7632 0
-8695 8399 0
-8695 6639 0
-8695 -7748 0
8695 -8399 -6639 7748 0
-8696 8400 0
-8696 6642 0
-8696 -7835 0
8696 -8400 -6642 7835 0
-8697 8401 0
-8697 6644 0
-8697 -7893 0
8697 -8401 -6644 7893 0
-8698 8402 0
-8698 6646 0
-8698 -7951 0
8698 -8402 -6646 7951 0
-8699 8403 0
-8699 6618 0
-8699 -7139 0
8699 -8403 -6618 7139 0
-8700 8404 0
-8700 6625 0
-8700 -7342 0
8700 -8404 -6625 7342 0
-8701 8405 0
-8701 6631 0
-8701 -7516 0
8701 -8405 -6631 7516 0
-8702 8406 0
-8702 6636 0
-8702 -7661 0
8702 -8406 -6636 7661 0
-8703 8407 0
-8703 6640 0
-8703 -7777 0
8703 -8407 -6640 7777 0
-8704 8408 0
-8704 6643 0
-8704 -7864 0
8704 -8408 -6643 7864 0
-8705 8409 0
-8705 6645 0
-8705 -7922 0
8705 -8409 -6645 7922 0
-8706 8410 0
-8706 6646 0
-8706 -7951 0
8706 -8410 -6646 7951 0
-8634 8635 8636 8637 8638 8639 8640 8641 8642 8643 8644 8645 8646 8647 8648 8649 8650 8651 8652 8653 8654 8655 8656 8657 8658 8659 8660 8661 8662 8663 8664 8665 8666 8667 8668 8669 8670 8671 8672 8673 8674 8675 8676 8677 8678 8679 8680 8681 8682 8683 8684 8685 8686 8687 8688 8689 8690 8691 8692 8693 8694 8695 8696 8697 8698 8699 8700 8701 8702 8703 8704 8705 8706 0
-8709 7952 0
-8709 7953 0
-8709 6518 0
-8709 123 0
8709 -7952 -7953 -6518 -123 0
-8710 7952 0
-8710 7953 0
-8710 6519 0
-8710 124 0
8710 -7952 -7953 -6519 -124 0
-8711 7952 0
-8711 7953 0
-8711 6520 0
-8711 125 0
8711 -7952 -7953 -6520 -125 0
-8712 7952 0
-8712 7953 0
-8712 6521 0
-8712 126 0
8712 -7952 -7953 -6521 -126 0
-8713 7952 0
-8713 7953 0
-8713 6522 0
-8713 127 0
8713 -7952 -7953 -6522 -127 0
-8714 7952 0
-8714 7953 0
-8714 6523 0
-8714 128 0
8714 -7952 -7953 -6523 -128 0
-8715 7952 0
-8715 7953 0
-8715 6524 0
-8715 129 0
8715 -7952 -7953 -6524 -129 0
-8716 7952 0
-8716 7954 0
-8716 6518 0
-8716 122 0
8716 -7952 -7954 -6518 -122 0
-8717 7952 0
-8717 7954 0
-8717 6525 0
-8717 124 0
8717 -7952 -7954 -6525 -124 0
-8718 7952 0
-8718 7954 0
-8718 6526 0
-8718 125 0
8718 -7952 -7954 -6526 -125 0
-8719 7952 0
-8719 7954 0
-8719 6527 0
-8719 126 0
8719 -7952 -7954 -6527 -126 0
-8720 7952 0
-8720 7954 0
-8720 6528 0
-8720 127 0
8720 -7952 -7954 -6528 -127 0
-8721 7952 0
-8721 7954 0
-8721 6529 0
-8721 128 0
8721 -7952 -7954 -6529 -128 0
-8722 7952 0
-8722 7954 0
-8722 6530 0
-8722 129 0
8722 -7952 -7954 -6530 -129 0
-8723 7952 0
-8723 7955 0
-8723 6519 0
-8723 122 0
8723 -7952 -7955 -6519 -122 0
-8724 7952 0
-8724 7955 0
-8724 6525 0
-8724 123 0
8724 -7952 -7955 -6525 -123 0
-8725 7952 0
-8725 7955 0
-8725 6531 0
-8725 125 0
8725 -7952 -7955 -6531 -125 0
-8726 7952 0
-8726 7955 0
-8726 6532 0
-8726 126 0
8726 -7952 -7955 -6532 -126 0
-8727 7952 0
-8727 7955 0
-8727 6533 0
-8727 127 0
8727 -7952 -7955 -6533 -127 0
-8728 7952 0
-8728 7955 0
-8728 6534 0
-8728 128 0
8728 -7952 -7955 -6534 -128 0
-8729 7952 0
-8729 7955 0
-8729 6535 0
-8729 129 0
8729 -7952 -7955 -6535 -129 0
-8730 7952 0
-8730 7956 0
-8730 6520 0
-8730 122 0
8730 -7952 -7956 -6520 -122 0
-8731 7952 0
-8731 7956 0
-8731 6526 0
-8731 123 0
8731 -7952 -7956 -6526 -123 0
-8732 7952 0
-8732 7956 0
-8732 6531 0
-8732 124 0
8732 -7952 -7956 -6531 -124 0
-8733 7952 0
-8733 7956 0
-8733 6536 0
-8733 126 0
8733 -7952 -7956 -6536 -126 0
-8734 7952 0
-8734 7956 0
-8734 6537 0
-8734 127 0
8734 -7952 -7956 -6537 -127 0
-8735 7952 0
-8735 7956 0
-8735 6538 0
-8735 128 0
8735 -7952 -7956 -6538 -128 0
-8736 7952 0
-8736 7956 0
-8736 6539 0
-8736 129 0
8736 -7952 -7956 -6539 -129 0
-8737 7952 0
-8737 7957 0
-8737 6521 0
-8737 122 0
8737 -7952 -7957 -6521 -122 0
-8738 7952 0
-8738 7957 0
-8738 6527 0
-8738 123 0
8738 -7952 -7957 -6527 -123 0
-8739 7952 0
-8739 7957 0
-8739 6532 0
-8739 124 0
8739 -7952 -7957 -6532 -124 0
-8740 7952 0
-8740 7957 0
-8740 6536 0
-8740 125 0
8740 -7952 -7957 -6536 -125 0
-8741 7952 0
-8741 7957 0
-8741 6540 0
-8741 127 0
8741 -7952 -7957 -6540 -127 0
-8742 7952 0
-8742 7957 0
-8742 6541 0
-8742 128 0
8742 -7952 -7957 -6541 -128 0
-8743 7952 0
-8743 7957 0
-8743 6542 0
-8743 129 0
8743 -7952 -7957 -6542 -129 0
-8744 7952 0
-8744 7958 0
-8744 6522 0
-8744 122 0
8744 -7952 -7958 -6522 -122 0
-8745 7952 0
-8745 7958 0
-8745 6528 0
-8745 123 0
8745 -7952 -7958 -6528 -123 0
-8746 7952 0
-8746 7958 0
-8746 6533 0
-8746 124 0
8746 -7952 -7958 -6533 -124 0
-8747 7952 0
-8747 7958 0
-8747 6537 0
-8747 125 0
8747 -7952 -7958 -6537 -125 0
-8748 7952 0
-8748 7958 0
-8748 6540 0
-8748 126 0
8748 -7952 -7958 -6540 -126 0
-8749 7952 0
-8749 7958 0
-8749 6543 0
-8749 128 0
8749 -7952 -7958 -6543 -128 0
-8750 7952 0
-8750 7958 0
-8750 6544 0
-8750 129 0
8750 -7952 -7958 -6544 -129 0
-8751 7952 0
-8751 7959 0
-8751 6523 0
-8751 122 0
8751 -7952 -7959 -6523 -122 0
-8752 7952 0
-8752 7959 0
-8752 6529 0
-8752 123 0
8752 -7952 -7959 -6529 -123 0
-8753 7952 0
-8753 7959 0
-8753 6534 0
-8753 124 0
8753 -7952 -7959 -6534 -124 0
-8754 7952 0
-8754 7959 0
-8754 6538 0
-8754 125 0
8754 -7952 -7959 -6538 -125 0
-8755 7952 0
-8755 7959 0
-8755 6541 0
-8755 126 0
8755 -7952 -7959 -6541 -126 0
-8756 7952 0
-8756 7959 0
-8756 6543 0
-8756 127 0
8756 -7952 -7959 -6543 -127 0
-8757 7952 0
-8757 7959 0
-8757 6545 0
-8757 129 0
8757 -7952 -7959 -6545 -129 0
-8758 7952 0
-8758 7960 0
-8758 6524 0
-8758 122 0
8758 -7952 -7960 -6524 -122 0
-8759 7952 0
-8759 7960 0
-8759 6530 0
-8759 123 0
8759 -7952 -7960 -6530 -123 0
-8760 7952 0
-8760 7960 0
-8760 6535 0
-8760 124 0
8760 -7952 -7960 -6535 -124 0
-8761 7952 0
-8761 7960 0
-8761 6539 0
-8761 125 0
8761 -7952 -7960 -6539 -125 0
-8762 7952 0
-8762 7960 0
-8762 6542 0
-8762 126 0
8762 -7952 -7960 -6542 -126 0
-8763 7952 0
-8763 7960 0
-8763 6544 0
-8763 127 0
8763 -7952 -7960 -6544 -127 0
-8764 7952 0
-8764 7960 0
-8764 6545 0
-8764 128 0
8764 -7952 -7960 -6545 -128 0
-8765 7953 0
-8765 7954 0
-8765 6518 0
-8765 122 0
8765 -7953 -7954 -6518 -122 0
-8766 7953 0
-8766 7954 0
-8766 6546 0
-8766 131 0
8766 -7953 -7954 -6546 -131 0
-8767 7953 0
-8767 7954 0
-8767 6547 0
-8767 132 0
8767 -7953 -7954 -6547 -132 0
-8768 7953 0
-8768 7954 0
-8768 6548 0
-8768 133 0
8768 -7953 -7954 -6548 -133 0
-8769 7953 0
-8769 7954 0
-8769 6549 0
-8769 134 0
8769 -7953 -7954 -6549 -134 0
-8770 7953 0
-8770 7954 0
-8770 6550 0
-8770 135 0
8770 -7953 -7954 -6550 -135 0
-8771 7953 0
-8771 7954 0
-8771 6551 0
-8771 136 0
8771 -7953 -7954 -6551 -136 0
-8772 7953 0
-8772 7955 0
-8772 6519 0
-8772 122 0
8772 -7953 -7955 -6519 -122 0
-8773 7953 0
-8773 7955 0
-8773 6546 0
-8773 130 0
8773 -7953 -7955 -6546 -130 0
-8774 7953 0
-8774 7955 0
-8774 6552 0
-8774 132 0
8774 -7953 -7955 -6552 -132 0
-8775 7953 0
-8775 7955 0
-8775 6553 0
-8775 133 0
8775 -7953 -7955 -6553 -133 0
-8776 7953 0
-8776 7955 0
-8776 6554 0
-8776 134 0
8776 -7953 -7955 -6554 -134 0
-8777 7953 0
-8777 7955 0
-8777 6555 0
-8777 135 0
8777 -7953 -7955 -6555 -135 0
-8778 7953 0
-8778 7955 0
-8778 6556 0
-8778 136 0
8778 -7953 -7955 -6556 -136 0
-8779 7953 0
-8779 7956 0
-8779 6520 0
-8779 122 0
8779 -7953 -7956 -6520 -122 0
-8780 7953 0
-8780 7956 0
-8780 6547 0
-8780 130 0
8780 -7953 -7956 -6547 -130 0
-8781 7953 0
-8781 7956 0
-8781 6552 0
-8781 131 0
8781 -7953 -7956 -6552 -131 0
-8782 7953 0
-8782 7956 0
-8782 6557 0
-8782 133 0
8782 -7953 -7956 -6557 -133 0
-8783 7953 0
-8783 7956 0
-8783 6558 0
-8783 134 0
8783 -7953 -7956 -6558 -134 0
-8784 7953 0
-8784 7956 0
-8784 6559 0
-8784 135 0
8784 -7953 -7956 -6559 -135 0
-8785 7953 0
-8785 7956 0
-8785 6560 0
-8785 136 0
8785 -7953 -7956 -6560 -136 0
-8786 7953 0
-8786 7957 0
-8786 6521 0
-8786 122 0
8786 -7953 -7957 -6521 -122 0
-8787 7953 0
-8787 7957 0
-8787 6548 0
-8787 130 0
8787 -7953 -7957 -6548 -130 0
-8788 7953 0
-8788 7957 0
-8788 6553 0
-8788 131 0
8788 -7953 -7957 -6553 -131 0
-8789 7953 0
-8789 7957 0
-8789 6557 0
-8789 132 0
8789 -7953 -7957 -6557 -132 0
-8790 7953 0
-8790 7957 0
-8790 6561 0
-8790 134 0
8790 -7953 -7957 -6561 -134 0
-8791 7953 0
-8791 7957 0
-8791 6562 0
-8791 135 0
8791 -7953 -7957 -6562 -135 0
-8792 7953 0
-8792 7957 0
-8792 6563 0
-8792 136 0
8792 -7953 -7957 -6563 -136 0
-8793 7953 0
-8793 7958 0
-8793 6522 0
-8793 122 0
8793 -7953 -7958 -6522 -122 0
-8794 7953 0
-8794 7958 0
-8794 6549 0
-8794 130 0
8794 -7953 -7958 -6549 -130 0
-8795 7953 0
-8795 7958 0
-8795 6554 0
-8795 131 0
8795 -7953 -7958 -6554 -131 0
-8796 7953 0
-8796 7958 0
-8796 6558 0
-8796 132 0
8796 -7953 -7958 -6558 -132 0
-8797 7953 0
-8797 7958 0
-8797 6561 0
-8797 133 0
8797 -7953 -7958 -6561 -133 0
-8798 7953 0
-8798 7958 0
-8798 6564 0
-8798 135 0
8798 -7953 -7958 -6564 -135 0
-8799 7953 0
-8799 7958 0
-8799 6565 0
-8799 136 0
8799 -7953 -7958 -6565 -136 0
-8800 7953 0
-8800 7959 0
-8800 6523 0
-8800 122 0
8800 -7953 -7959 -6523 -122 0
-8801 7953 0
-8801 7959 0
-8801 6550 0
-8801 130 0
8801 -7953 -7959 -6550 -130 0
-8802 7953 0
-8802 7959 0
-8802 6555 0
-8802 131 0
8802 -7953 -7959 -6555 -131 0
-8803 7953 0
-8803 7959 0
-8803 6559 0
-8803 132 0
8803 -7953 -7959 -6559 -132 0
-8804 7953 0
-8804 7959 0
-8804 6562 0
-8804 133 0
8804 -7953 -7959 -6562 -133 0
-8805 7953 0
-8805 7959 0
-8805 6564 0
-8805 134 0
8805 -7953 -7959 -6564 -134 0
-8806 7953 0
-8806 7959 0
-8806 6566 0
-8806 136 0
8806 -7953 -7959 -6566 -136 0
-8807 7953 0
-8807 7960 0
-8807 6524 0
-8807 122 0
8807 -7953 -7960 -6524 -122 0
-8808 7953 0
-8808 7960 0
-8808 6551 0
-8808 130 0
8808 -7953 -7960 -6551 -130 0
-8809 7953 0
-8809 7960 0
-8809 6556 0
-8809 131 0
8809 -7953 -7960 -6556 -131 0
-8810 7953 0
-8810 7960 0
-8810 6560 0
-8810 132 0
8810 -7953 -7960 -6560 -132 0
-8811 7953 0
-8811 7960 0
-8811 6563 0
-8811 133 0
8811 -7953 -7960 -6563 -133 0
-8812 7953 0
-8812 7960 0
-8812 6565 0
-8812 134 0
8812 -7953 -7960 -6565 -134 0
-8813 7953 0
-8813 7960 0
-8813 6566 0
-8813 135 0
8813 -7953 -7960 -6566 -135 0
-8814 7954 0
-8814 7955 0
-8814 6525 0
-8814 123 0
8814 -7954 -7955 -6525 -123 0
-8815 7954 0
-8815 7955 0
-8815 6546 0
-8815 130 0
8815 -7954 -7955 -6546 -130 0
-8816 7954 0
-8816 7955 0
-8816 6567 0
-8816 138 0
8816 -7954 -7955 -6567 -138 0
-8817 7954 0
-8817 7955 0
-8817 6568 0
-8817 139 0
8817 -7954 -7955 -6568 -139 0
-8818 7954 0
-8818 7955 0
-8818 6569 0
-8818 140 0
8818 -7954 -7955 -6569 -140 0
-8819 7954 0
-8819 7955 0
-8819 6570 0
-8819 141 0
8819 -7954 -7955 -6570 -141 0
-8820 7954 0
-8820 7955 0
-8820 6571 0
-8820 142 0
8820 -7954 -7955 -6571 -142 0
-8821 7954 0
-8821 7956 0
-8821 6526 0
-8821 123 0
8821 -7954 -7956 -6526 -123 0
-8822 7954 0
-8822 7956 0
-8822 6547 0
-8822 130 0
8822 -7954 -7956 -6547 -130 0
-8823 7954 0
-8823 7956 0
-8823 6567 0
-8823 137 0
8823 -7954 -7956 -6567 -137 0
-8824 7954 0
-8824 7956 0
-8824 6572 0
-8824 139 0
8824 -7954 -7956 -6572 -139 0
-8825 7954 0
-8825 7956 0
-8825 6573 0
-8825 140 0
8825 -7954 -7956 -6573 -140 0
-8826 7954 0
-8826 7956 0
-8826 6574 0
-8826 141 0
8826 -7954 -7956 -6574 -141 0
-8827 7954 0
-8827 7956 0
-8827 6575 0
-8827 142 0
8827 -7954 -7956 -6575 -142 0
-8828 7954 0
-8828 7957 0
-8828 6527 0
-8828 123 0
8828 -7954 -7957 -6527 -123 0
-8829 7954 0
-8829 7957 0
-8829 6548 0
-8829 130 0
8829 -7954 -7957 -6548 -130 0
-8830 7954 0
-8830 7957 0
-8830 6568 0
-8830 137 0
8830 -7954 -7957 -6568 -137 0
-8831 7954 0
-8831 7957 0
-8831 6572 0
-8831 138 0
8831 -7954 -7957 -6572 -138 0
-8832 7954 0
-8832 7957 0
-8832 6576 0
-8832 140 0
8832 -7954 -7957 -6576 -140 0
-8833 7954 0
-8833 7957 0
-8833 6577 0
-8833 141 0
8833 -7954 -7957 -6577 -141 0
-8834 7954 0
-8834 7957 0
-8834 6578 0
-8834 142 0
8834 -7954 -7957 -6578 -142 0
-8835 7954 0
-8835 7958 0
-8835 6528 0
-8835 123 0
8835 -7954 -7958 -6528 -123 0
-8836 7954 0
-8836 7958 0
-8836 6549 0
-8836 130 0
8836 -7954 -7958 -6549 -130 0
-8837 7954 0
-8837 7958 0
-8837 6569 0
-8837 137 0
8837 -7954 -7958 -6569 -137 0
-8838 7954 0
-8838 7958 0
-8838 6573 0
-8838 138 0
8838 -7954 -7958 -6573 -138 0
-8839 7954 0
-8839 7958 0
-8839 6576 0
-8839 139 0
8839 -7954 -7958 -6576 -139 0
-8840 7954 0
-8840 7958 0
-8840 6579 0
-8840 141 0
8840 -7954 -7958 -6579 -141 0
-8841 7954 0
-8841 7958 0
-8841 6580 0
-8841 142 0
8841 -7954 -7958 -6580 -142 0
-8842 7954 0
-8842 7959 0
-8842 6529 0
-8842 123 0
8842 -7954 -7959 -6529 -123 0
-8843 7954 0
-8843 7959 0
-8843 6550 0
-8843 130 0
8843 -7954 -7959 -6550 -130 0
-8844 7954 0
-8844 7959 0
-8844 6570 0
-8844 137 0
8844 -7954 -7959 -6570 -137 0
-8845 7954 0
-8845 7959 0
-8845 6574 0
-8845 138 0
8845 -7954 -7959 -6574 -138 0
-8846 7954 0
-8846 7959 0
-8846 6577 0
-8846 139 0
8846 -7954 -7959 -6577 -139 0
-8847 7954 0
-8847 7959 0
-8847 6579 0
-8847 140 0
8847 -7954 -7959 -6579 -140 0
-8848 7954 0
-8848 7959 0
-8848 6581 0
-8848 142 0
8848 -7954 -7959 -6581 -142 0
-8849 7954 0
-8849 7960 0
-8849 6530 0
-8849 123 0
8849 -7954 -7960 -6530 -123 0
-8850 7954 0
-8850 7960 0
-8850 6551 0
-8850 130 0
8850 -7954 -7960 -6551 -130 0
-8851 7954 0
-8851 7960 0
-8851 6571 0
-8851 137 0
8851 -7954 -7960 -6571 -137 0
-8852 7954 0
-8852 7960 0
-8852 6575 0
-8852 138 0
8852 -7954 -7960 -6575 -138 0
-8853 7954 0
-8853 7960 0
-8853 6578 0
-8853 139 0
8853 -7954 -7960 -6578 -139 0
-8854 7954 0
-8854 7960 0
-8854 6580 0
-8854 140 0
8854 -7954 -7960 -6580 -140 0
-8855 7954 0
-8855 7960 0
-8855 6581 0
-8855 141 0
8855 -7954 -7960 -6581 -141 0
-8856 7955 0
-8856 7956 0
-8856 6531 0
-8856 124 0
8856 -7955 -7956 -6531 -124 0
-8857 7955 0
-8857 7956 0
-8857 6552 0
-8857 131 0
8857 -7955 -7956 -6552 -131 0
-8858 7955 0
-8858 7956 0
-8858 6567 0
-8858 137 0
8858 -7955 -7956 -6567 -137 0
-8859 7955 0
-8859 7956 0
-8859 6582 0
-8859 144 0
8859 -7955 -7956 -6582 -144 0
-8860 7955 0
-8860 7956 0
-8860 6583 0
-8860 145 0
8860 -7955 -7956 -6583 -145 0
-8861 7955 0
-8861 7956 0
-8861 6584 0
-8861 146 0
8861 -7955 -7956 -6584 -146 0
-8862 7955 0
-8862 7956 0
-8862 6585 0
-8862 147 0
8862 -7955 -7956 -6585 -147 0
-8863 7955 0
-8863 7957 0
-8863 6532 0
-8863 124 0
8863 -7955 -7957 -6532 -124 0
-8864 7955 0
-8864 7957 0
-8864 6553 0
-8864 131 0
8864 -7955 -7957 -6553 -131 0
-8865 7955 0
-8865 7957 0
-8865 6568 0
-8865 137 0
8865 -7955 -7957 -6568 -137 0
-8866 7955 0
-8866 7957 0
-8866 6582 0
-8866 143 0
8866 -7955 -7957 -6582 -143 0
-8867 7955 0
-8867 7957 0
-8867 6586 0
-8867 145 0
8867 -7955 -7957 -6586 -145 0
-8868 7955 0
-8868 7957 0
-8868 6587 0
-8868 146 0
8868 -7955 -7957 -6587 -146 0
-8869 7955 0
-8869 7957 0
-8869 6588 0
-8869 147 0
8869 -7955 -7957 -6588 -147 0
-8870 7955 0
-8870 7958 0
-8870 6533 0
-8870 124 0
8870 -7955 -7958 -6533 -124 0
-8871 7955 0
-8871 7958 0
-8871 6554 0
-8871 131 0
8871 -7955 -7958 -6554 -131 0
-8872 7955 0
-8872 7958 0
-8872 6569 0
-8872 137 0
8872 -7955 -7958 -6569 -137 0
-8873 7955 0
-8873 7958 0
-8873 6583 0
-8873 143 0
8873 -7955 -7958 -6583 -143 0
-8874 7955 0
-8874 7958 0
-8874 6586 0
-8874 144 0
8874 -7955 -7958 -6586 -144 0
-8875 7955 0
-8875 7958 0
-8875 6589 0
-8875 146 0
8875 -7955 -7958 -6589 -146 0
-8876 7955 0
-8876 7958 0
-8876 6590 0
-8876 147 0
8876 -7955 -7958 -6590 -147 0
-8877 7955 0
-8877 7959 0
-8877 6534 0
-8877 124 0
8877 -7955 -7959 -6534 -124 0
-8878 7955 0
-8878 7959 0
-8878 6555 0
-8878 131 0
8878 -7955 -7959 -6555 -131 0
-8879 7955 0
-8879 7959 0
-8879 6570 0
-8879 137 0
8879 -7955 -7959 -6570 -137 0
-8880 7955 0
-8880 7959 0
-8880 6584 0
-8880 143 0
8880 -7955 -7959 -6584 -143 0
-8881 7955 0
-8881 7959 0
-8881 6587 0
-8881 144 0
8881 -7955 -7959 -6587 -144 0
-8882 7955 0
-8882 7959 0
-8882 6589 0
-8882 145 0
8882 -7955 -7959 -6589 -145 0
-8883 7955 0
-8883 7959 0
-8883 6591 0
-8883 147 0
8883 -7955 -7959 -6591 -147 0
-8884 7955 0
-8884 7960 0
-8884 6535 0
-8884 124 0
8884 -7955 -7960 -6535 -124 0
-8885 7955 0
-8885 7960 0
-8885 6556 0
-8885 131 0
8885 -7955 -7960 -6556 -131 0
-8886 7955 0
-8886 7960 0
-8886 6571 0
-8886 137 0
8886 -7955 -7960 -6571 -137 0
-8887 7955 0
-8887 7960 0
-8887 6585 0
-8887 143 0
8887 -7955 -7960 -6585 -143 0
-8888 7955 0
-8888 7960 0
-8888 6588 0
-8888 144 0
8888 -7955 -7960 -6588 -144 0
-8889 7955 0
-8889 7960 0
-8889 6590 0
-8889 145 0
8889 -7955 -7960 -6590 -145 0
-8890 7955 0
-8890 7960 0
-8890 6591 0
-8890 146 0
8890 -7955 -7960 -6591 -146 0
-8891 7956 0
-8891 7957 0
-8891 6536 0
-8891 125 0
8891 -7956 -7957 -6536 -125 0
-8892 7956 0
-8892 7957 0
-8892 6557 0
-8892 132 0
8892 -7956 -7957 -6557 -132 0
-8893 7956 0
-8893 7957 0
-8893 6572 0
-8893 138 0
8893 -7956 -7957 -6572 -138 0
-8894 7956 0
-8894 7957 0
-8894 6582 0
-8894 143 0
8894 -7956 -7957 -6582 -143 0
-8895 7956 0
-8895 7957 0
-8895 6592 0
-8895 149 0
8895 -7956 -7957 -6592 -149 0
-8896 7956 0
-8896 7957 0
-8896 6593 0
-8896 150 0
8896 -7956 -7957 -6593 -150 0
-8897 7956 0
-8897 7957 0
-8897 6594 0
-8897 151 0
8897 -7956 -7957 -6594 -151 0
-8898 7956 0
-8898 7958 0
-8898 6537 0
-8898 125 0
8898 -7956 -7958 -6537 -125 0
-8899 7956 0
-8899 7958 0
-8899 6558 0
-8899 132 0
8899 -7956 -7958 -6558 -132 0
-8900 7956 0
-8900 7958 0
-8900 6573 0
-8900 138 0
8900 -7956 -7958 -6573 -138 0
-8901 7956 0
-8901 7958 0
-8901 6583 0
-8901 143 0
8901 -7956 -7958 -6583 -143 0
-8902 7956 0
-8902 7958 0
-8902 6592 0
-8902 148 0
8902 -7956 -7958 -6592 -148 0
-8903 7956 0
-8903 7958 0
-8903 6595 0
-8903 150 0
8903 -7956 -7958 -6595 -150 0
-8904 7956 0
-8904 7958 0
-8904 6596 0
-8904 151 0
8904 -7956 -7958 -6596 -151 0
-8905 7956 0
-8905 7959 0
-8905 6538 0
-8905 125 0
8905 -7956 -7959 -6538 -125 0
-8906 7956 0
-8906 7959 0
-8906 6559 0
-8906 132 0
8906 -7956 -7959 -6559 -132 0
-8907 7956 0
-8907 7959 0
-8907 6574 0
-8907 138 0
8907 -7956 -7959 -6574 -138 0
-8908 7956 0
-8908 7959 0
-8908 6584 0
-8908 143 0
8908 -7956 -7959 -6584 -143 0
-8909 7956 0
-8909 7959 0
-8909 6593 0
-8909 148 0
8909 -7956 -7959 -6593 -148 0
-8910 7956 0
-8910 7959 0
-8910 6595 0
-8910 149 0
8910 -7956 -7959 -6595 -149 0
-8911 7956 0
-8911 7959 0
-8911 6597 0
-8911 151 0
8911 -7956 -7959 -6597 -151 0
-8912 7956 0
-8912 7960 0
-8912 6539 0
-8912 125 0
8912 -7956 -7960 -6539 -125 0
-8913 7956 0
-8913 7960 0
-8913 6560 0
-8913 132 0
8913 -7956 -7960 -6560 -132 0
-8914 7956 0
-8914 7960 0
-8914 6575 0
-8914 138 0
8914 -7956 -7960 -6575 -138 0
-8915 7956 0
-8915 7960 0
-8915 6585 0
-8915 143 0
8915 -7956 -7960 -6585 -143 0
-8916 7956 0
-8916 7960 0
-8916 6594 0
-8916 148 0
8916 -7956 -7960 -6594 -148 0
-8917 7956 0
-8917 7960 0
-8917 6596 0
-8917 149 0
8917 -7956 -7960 -6596 -149 0
-8918 7956 0
-8918 7960 0
-8918 6597 0
-8918 150 0
8918 -7956 -7960 -6597 -150 0
-8919 7957 0
-8919 7958 0
-8919 6540 0
-8919 126 0
8919 -7957 -7958 -6540 -126 0
-8920 7957 0
-8920 7958 0
-8920 6561 0
-8920 133 0
8920 -7957 -7958 -6561 -133 0
-8921 7957 0
-8921 7958 0
-8921 6576 0
-8921 139 0
8921 -7957 -7958 -6576 -139 0
-8922 7957 0
-8922 7958 0
-8922 6586 0
-8922 144 0
8922 -7957 -7958 -6586 -144 0
-8923 7957 0
-8923 7958 0
-8923 6592 0
-8923 148 0
8923 -7957 -7958 -6592 -148 0
-8924 7957 0
-8924 7958 0
-8924 6598 0
-8924 153 0
8924 -7957 -7958 -6598 -153 0
-8925 7957 0
-8925 7958 0
-8925 6599 0
-8925 154 0
8925 -7957 -7958 -6599 -154 0
-8926 7957 0
-8926 7959 0
-8926 6541 0
-8926 126 0
8926 -7957 -7959 -6541 -126 0
-8927 7957 0
-8927 7959 0
-8927 6562 0
-8927 133 0
8927 -7957 -7959 -6562 -133 0
-8928 7957 0
-8928 7959 0
-8928 6577 0
-8928 139 0
8928 -7957 -7959 -6577 -139 0
-8929 7957 0
-8929 7959 0
-8929 6587 0
-8929 144 0
8929 -7957 -7959 -6587 -144 0
-8930 7957 0
-8930 7959 0
-8930 6593 0
-8930 148 0
8930 -7957 -7959 -6593 -148 0
-8931 7957 0
-8931 7959 0
-8931 6598 0
-8931 152 0
8931 -7957 -7959 -6598 -152 0
-8932 7957 0
-8932 7959 0
-8932 6600 0
-8932 154 0
8932 -7957 -7959 -6600 -154 0
-8933 7957 0
-8933 7960 0
-8933 6542 0
-8933 126 0
8933 -7957 -7960 -6542 -126 0
-8934 7957 0
-8934 7960 0
-8934 6563 0
-8934 133 0
8934 -7957 -7960 -6563 -133 0
-8935 7957 0
-8935 7960 0
-8935 6578 0
-8935 139 0
8935 -7957 -7960 -6578 -139 0
-8936 7957 0
-8936 7960 0
-8936 6588 0
-8936 144 0
8936 -7957 -7960 -6588 -144 0
-8937 7957 0
-8937 7960 0
-8937 6594 0
-8937 148 0
8937 -7957 -7960 -6594 -148 0
-8938 7957 0
-8938 7960 0
-8938 6599 0
-8938 152 0
8938 -7957 -7960 -6599 -152 0
-8939 7957 0
-8939 7960 0
-8939 6600 0
-8939 153 0
8939 -7957 -7960 -6600 -153 0
-8940 7958 0
-8940 7959 0
-8940 6543 0
-8940 127 0
8940 -7958 -7959 -6543 -127 0
-8941 7958 0
-8941 7959 0
-8941 6564 0
-8941 134 0
8941 -7958 -7959 -6564 -134 0
-8942 7958 0
-8942 7959 0
-8942 6579 0
-8942 140 0
8942 -7958 -7959 -6579 -140 0
-8943 7958 0
-8943 7959 0
-8943 6589 0
-8943 145 0
8943 -7958 -7959 -6589 -145 0
-8944 7958 0
-8944 7959 0
-8944 6595 0
-8944 149 0
8944 -7958 -7959 -6595 -149 0
-8945 7958 0
-8945 7959 0
-8945 6598 0
-8945 152 0
8945 -7958 -7959 -6598 -152 0
-8946 7958 0
-8946 7959 0
-8946 6601 0
-8946 156 0
8946 -7958 -7959 -6601 -156 0
-8947 7958 0
-8947 7960 0
-8947 6544 0
-8947 127 0
8947 -7958 -7960 -6544 -127 0
-8948 7958 0
-8948 7960 0
-8948 6565 0
-8948 134 0
8948 -7958 -7960 -6565 -134 0
-8949 7958 0
-8949 7960 0
-8949 6580 0
-8949 140 0
8949 -7958 -7960 -6580 -140 0
-8950 7958 0
-8950 7960 0
-8950 6590 0
-8950 145 0
8950 -7958 -7960 -6590 -145 0
-8951 7958 0
-8951 7960 0
-8951 6596 0
-8951 149 0
8951 -7958 -7960 -6596 -149 0
-8952 7958 0
-8952 7960 0
-8952 6599 0
-8952 152 0
8952 -7958 -7960 -6599 -152 0
-8953 7958 0
-8953 7960 0
-8953 6601 0
-8953 155 0
8953 -7958 -7960 -6601 -155 0
-8954 7959 0
-8954 7960 0
-8954 6545 0
-8954 128 0
8954 -7959 -7960 -6545 -128 0
-8955 7959 0
-8955 7960 0
-8955 6566 0
-8955 135 0
8955 -7959 -7960 -6566 -135 0
-8956 7959 0
-8956 7960 0
-8956 6581 0
-8956 141 0
8956 -7959 -7960 -6581 -141 0
-8957 7959 0
-8957 7960 0
-8957 6591 0
-8957 146 0
8957 -7959 -7960 -6591 -146 0
-8958 7959 0
-8958 7960 0
-8958 6597 0
-8958 150 0
8958 -7959 -7960 -6597 -150 0
-8959 7959 0
-8959 7960 0
-8959 6600 0
-8959 153 0
8959 -7959 -7960 -6600 -153 0
-8960 7959 0
-8960 7960 0
-8960 6601 0
-8960 155 0
8960 -7959 -7960 -6601 -155 0
-8707 8709 8710 8711 8712 8713 8714 8715 8716 8717 8718 8719 8720 8721 8722 8723 8724 8725 8726 8727 8728 8729 8730 8731 8732 8733 8734 8735 8736 8737 8738 8739 8740 8741 8742 8743 8744 8745 8746 8747 8748 8749 8750 8751 8752 8753 8754 8755 8756 8757 8758 8759 8760 8761 8762 8763 8764 8765 8766 8767 8768 8769 8770 8771 8772 8773 8774 8775 8776 8777 8778 8779 8780 8781 8782 8783 8784 8785 8786 8787 8788 8789 8790 8791 8792 8793 8794 8795 8796 8797 8798 8799 8800 8801 8802 8803 8804 8805 8806 8807 8808 8809 8810 8811 8812 8813 8814 8815 8816 8817 8818 8819 8820 8821 8822 8823 8824 8825 8826 8827 8828 8829 8830 8831 8832 8833 8834 8835 8836 8837 8838 8839 8840 8841 8842 8843 8844 8845 8846 8847 8848 8849 8850 8851 8852 8853 8854 8855 8856 8857 8858 8859 8860 8861 8862 8863 8864 8865 8866 8867 8868 8869 8870 8871 8872 8873 8874 8875 8876 8877 8878 8879 8880 8881 8882 8883 8884 8885 8886 8887 8888 8889 8890 8891 8892 8893 8894 8895 8896 8897 8898 8899 8900 8901 8902 8903 8904 8905 8906 8907 8908 8909 8910 8911 8912 8913 8914 8915 8916 8917 8918 8919 8920 8921 8922 8923 8924 8925 8926 8927 8928 8929 8930 8931 8932 8933 8934 8935 8936 8937 8938 8939 8940 8941 8942 8943 8944 8945 8946 8947 8948 8949 8950 8951 8952 8953 8954 8955 8956 8957 8958 8959 8960 0
-8961 7970 0
-8961 7971 0
-8961 6518 0
-8961 243 0
8961 -7970 -7971 -6518 -243 0
-8962 7970 0
-8962 7971 0
-8962 6519 0
-8962 244 0
8962 -7970 -7971 -6519 -244 0
-8963 7970 0
-8963 7971 0
-8963 6520 0
-8963 245 0
8963 -7970 -7971 -6520 -245 0
-8964 7970 0
-8964 7971 0
-8964 6521 0
-8964 246 0
8964 -7970 -7971 -6521 -246 0
-8965 7970 0
-8965 7971 0
-8965 6522 0
-8965 247 0
8965 -7970 -7971 -6522 -247 0
-8966 7970 0
-8966 7971 0
-8966 6523 0
-8966 248 0
8966 -7970 -7971 -6523 -248 0
-8967 7970 0
-8967 7971 0
-8967 6524 0
-8967 249 0
8967 -7970 -7971 -6524 -249 0
-8968 7970 0
-8968 7972 0
-8968 6518 0
-8968 242 0
8968 -7970 -7972 -6518 -242 0
-8969 7970 0
-8969 7972 0
-8969 6525 0
-8969 244 0
8969 -7970 -7972 -6525 -244 0
-8970 7970 0
-8970 7972 0
-8970 6526 0
-8970 245 0
8970 -7970 -7972 -6526 -245 0
-8971 7970 0
-8971 7972 0
-8971 6527 0
-8971 246 0
8971 -7970 -7972 -6527 -246 0
-8972 7970 0
-8972 7972 0
-8972 6528 0
-8972 247 0
8972 -7970 -7972 -6528 -247 0
-8973 7970 0
-8973 7972 0
-8973 6529 0
-8973 248 0
8973 -7970 -7972 -6529 -248 0
-8974 7970 0
-8974 7972 0
-8974 6530 0
-8974 249 0
8974 -7970 -7972 -6530 -249 0
-8975 7970 0
-8975 7973 0
-8975 6519 0
-8975 242 0
8975 -7970 -7973 -6519 -242 0
-8976 7970 0
-8976 7973 0
-8976 6525 0
-8976 243 0
8976 -7970 -7973 -6525 -243 0
-8977 7970 0
-8977 7973 0
-8977 6531 0
-8977 245 0
8977 -7970 -7973 -6531 -245 0
-8978 7970 0
-8978 7973 0
-8978 6532 0
-8978 246 0
8978 -7970 -7973 -6532 -246 0
-8979 7970 0
-8979 7973 0
-8979 6533 0
-8979 247 0
8979 -7970 -7973 -6533 -247 0
-8980 7970 0
-8980 7973 0
-8980 6534 0
-8980 248 0
8980 -7970 -7973 -6534 -248 0
-8981 7970 0
-8981 7973 0
-8981 6535 0
-8981 249 0
8981 -7970 -7973 -6535 -249 0
-8982 7970 0
-8982 7974 0
-8982 6520 0
-8982 242 0
8982 -7970 -7974 -6520 -242 0
-8983 7970 0
-8983 7974 0
-8983 6526 0
-8983 243 0
8983 -7970 -7974 -6526 -243 0
-8984 7970 0
-8984 7974 0
-8984 6531 0
-8984 244 0
8984 -7970 -7974 -6531 -244 0
-8985 7970 0
-8985 7974 0
-8985 6536 0
-8985 246 0
8985 -7970 -7974 -6536 -246 0
-8986 7970 0
-8986 7974 0
-8986 6537 0
-8986 247 0
8986 -7970 -7974 -6537 -247 0
-8987 7970 0
-8987 7974 0
-8987 6538 0
-8987 248 0
8987 -7970 -7974 -6538 -248 0
-8988 7970 0
-8988 7974 0
-8988 6539 0
-8988 249 0
8988 -7970 -7974 -6539 -249 0
-8989 7970 0
-8989 7975 0
-8989 6521 0
-8989 242 0
8989 -7970 -7975 -6521 -242 0
-8990 7970 0
-8990 7975 0
-8990 6527 0
-8990 243 0
8990 -7970 -7975 -6527 -243 0
-8991 7970 0
-8991 7975 0
-8991 6532 0
-8991 244 0
8991 -7970 -7975 -6532 -244 0
-8992 7970 0
-8992 7975 0
-8992 6536 0
-8992 245 0
8992 -7970 -7975 -6536 -245 0
-8993 7970 0
-8993 7975 0
-8993 6540 0
-8993 247 0
8993 -7970 -7975 -6540 -247 0
-8994 7970 0
-8994 7975 0
-8994 6541 0
-8994 248 0
8994 -7970 -7975 -6541 -248 0
-8995 7970 0
-8995 7975 0
-8995 6542 0
-8995 249 0
8995 -7970 -7975 -6542 -249 0
-8996 7970 0
-8996 7976 0
-8996 6522 0
-8996 242 0
8996 -7970 -7976 -6522 -242 0
-8997 7970 0
-8997 7976 0
-8997 6528 0
-8997 243 0
8997 -7970 -7976 -6528 -243 0
-8998 7970 0
-8998 7976 0
-8998 6533 0
-8998 244 0
8998 -7970 -7976 -6533 -244 0
-8999 7970 0
-8999 7976 0
-8999 6537 0
-8999 245 0
8999 -7970 -7976 -6537 -245 0
-9000 7970 0
-9000 7976 0
-9000 6540 0
-9000 246 0
9000 -7970 -7976 -6540 -246 0
-9001 7970 0
-9001 7976 0
-9001 6543 0
-9001 248 0
9001 -7970 -7976 -6543 -248 0
-9002 7970 0
-9002 7976 0
-9002 6544 0
-9002 249 0
9002 -7970 -7976 -6544 -249 0
-9003 7970 0
-9003 7977 0
-9003 6523 0
-9003 242 0
9003 -7970 -7977 -6523 -242 0
-9004 7970 0
-9004 7977 0
-9004 6529 0
-9004 243 0
9004 -7970 -7977 -6529 -243 0
-9005 7970 0
-9005 7977 0
-9005 6534 0
-9005 244 0
9005 -7970 -7977 -6534 -244 0
-9006 7970 0
-9006 7977 0
-9006 6538 0
-9006 245 0
9006 -7970 -7977 -6538 -245 0
-9007 7970 0
-9007 7977 0
-9007 6541 0
-9007 246 0
9007 -7970 -7977 -6541 -246 0
-9008 7970 0
-9008 7977 0
-9008 6543 0
-9008 247 0
9008 -7970 -7977 -6543 -247 0
-9009 7970 0
-9009 7977 0
-9009 6545 0
-9009 249 0
9009 -7970 -7977 -6545 -249 0
-9010 7970 0
-9010 7978 0
-9010 6524 0
-9010 242 0
9010 -7970 -7978 -6524 -242 0
-9011 7970 0
-9011 7978 0
-9011 6530 0
-9011 243 0
9011 -7970 -7978 -6530 -243 0
-9012 7970 0
-9012 7978 0
-9012 6535 0
-9012 244 0
9012 -7970 -7978 -6535 -244 0
-9013 7970 0
-9013 7978 0
-9013 6539 0
-9013 245 0
9013 -7970 -7978 -6539 -245 0
-9014 7970 0
-9014 7978 0
-9014 6542 0
-9014 246 0
9014 -7970 -7978 -6542 -246 0
-9015 7970 0
-9015 7978 0
-9015 6544 0
-9015 247 0
9015 -7970 -7978 -6544 -247 0
-9016 7970 0
-9016 7978 0
-9016 6545 0
-9016 248 0
9016 -7970 -7978 -6545 -248 0
-9017 7971 0
-9017 7972 0
-9017 6518 0
-9017 242 0
9017 -7971 -7972 -6518 -242 0
-9018 7971 0
-9018 7972 0
-9018 6546 0
-9018 251 0
9018 -7971 -7972 -6546 -251 0
-9019 7971 0
-9019 7972 0
-9019 6547 0
-9019 252 0
9019 -7971 -7972 -6547 -252 0
-9020 7971 0
-9020 7972 0
-9020 6548 0
-9020 253 0
9020 -7971 -7972 -6548 -253 0
-9021 7971 0
-9021 7972 0
-9021 6549 0
-9021 254 0
9021 -7971 -7972 -6549 -254 0
-9022 7971 0
-9022 7972 0
-9022 6550 0
-9022 255 0
9022 -7971 -7972 -6550 -255 0
-9023 7971 0
-9023 7972 0
-9023 6551 0
-9023 256 0
9023 -7971 -7972 -6551 -256 0
-9024 7971 0
-9024 7973 0
-9024 6519 0
-9024 242 0
9024 -7971 -7973 -6519 -242 0
-9025 7971 0
-9025 7973 0
-9025 6546 0
-9025 250 0
9025 -7971 -7973 -6546 -250 0
-9026 7971 0
-9026 7973 0
-9026 6552 0
-9026 252 0
9026 -7971 -7973 -6552 -252 0
-9027 7971 0
-9027 7973 0
-9027 6553 0
-9027 253 0
9027 -7971 -7973 -6553 -253 0
-9028 7971 0
-9028 7973 0
-9028 6554 0
-9028 254 0
9028 -7971 -7973 -6554 -254 0
-9029 7971 0
-9029 7973 0
-9029 6555 0
-9029 255 0
9029 -7971 -7973 -6555 -255 0
-9030 7971 0
-9030 7973 0
-9030 6556 0
-9030 256 0
9030 -7971 -7973 -6556 -256 0
-9031 7971 0
-9031 7974 0
-9031 6520 0
-9031 242 0
9031 -7971 -7974 -6520 -242 0
-9032 7971 0
-9032 7974 0
-9032 6547 0
-9032 250 0
9032 -7971 -7974 -6547 -250 0
-9033 7971 0
-9033 7974 0
-9033 6552 0
-9033 251 0
9033 -7971 -7974 -6552 -251 0
-9034 7971 0
-9034 7974 0
-9034 6557 0
-9034 253 0
9034 -7971 -7974 -6557 -253 0
-9035 7971 0
-9035 7974 0
-9035 6558 0
-9035 254 0
9035 -7971 -7974 -6558 -254 0
-9036 7971 0
-9036 7974 0
-9036 6559 0
-9036 255 0
9036 -7971 -7974 -6559 -255 0
-9037 7971 0
-9037 7974 0
-9037 6560 0
-9037 256 0
9037 -7971 -7974 -6560 -256 0
-9038 7971 0
-9038 7975 0
-9038 6521 0
-9038 242 0
9038 -7971 -7975 -6521 -242 0
-9039 7971 0
-9039 7975 0
-9039 6548 0
-9039 250 0
9039 -7971 -7975 -6548 -250 0
-9040 7971 0
-9040 7975 0
-9040 6553 0
-9040 251 0
9040 -7971 -7975 -6553 -251 0
-9041 7971 0
-9041 7975 0
-9041 6557 0
-9041 252 0
9041 -7971 -7975 -6557 -252 0
-9042 7971 0
-9042 7975 0
-9042 6561 0
-9042 254 0
9042 -7971 -7975 -6561 -254 0
-9043 7971 0
-9043 7975 0
-9043 6562 0
-9043 255 0
9043 -7971 -7975 -6562 -255 0
-9044 7971 0
-9044 7975 0
-9044 6563 0
-9044 256 0
9044 -7971 -7975 -6563 -256 0
-9045 7971 0
-9045 7976 0
-9045 6522 0
-9045 242 0
9045 -7971 -7976 -6522 -242 0
-9046 7971 0
-9046 7976 0
-9046 6549 0
-9046 250 0
9046 -7971 -7976 -6549 -250 0
-9047 7971 0
-9047 7976 0
-9047 6554 0
-9047 251 0
9047 -7971 -7976 -6554 -251 0
-9048 7971 0
-9048 7976 0
-9048 6558 0
-9048 252 0
9048 -7971 -7976 -6558 -252 0
-9049 7971 0
-9049 7976 0
-9049 6561 0
-9049 253 0
9049 -7971 -7976 -6561 -253 0
-9050 7971 0
-9050 7976 0
-9050 6564 0
-9050 255 0
9050 -7971 -7976 -6564 -255 0
-9051 7971 0
-9051 7976 0
-9051 6565 0
-9051 256 0
9051 -7971 -7976 -6565 -256 0
-9052 7971 0
-9052 7977 0
-9052 6523 0
-9052 242 0
9052 -7971 -7977 -6523 -242 0
-9053 7971 0
-9053 7977 0
-9053 6550 0
-9053 250 0
9053 -7971 -7977 -6550 -250 0
-9054 7971 0
-9054 7977 0
-9054 6555 0
-9054 251 0
9054 -7971 -7977 -6555 -251 0
-9055 7971 0
-9055 7977 0
-9055 6559 0
-9055 252 0
9055 -7971 -7977 -6559 -252 0
-9056 7971 0
-9056 7977 0
-9056 6562 0
-9056 253 0
9056 -7971 -7977 -6562 -253 0
-9057 7971 0
-9057 7977 0
-9057 6564 0
-9057 254 0
9057 -7971 -7977 -6564 -254 0
-9058 7971 0
-9058 7977 0
-9058 6566 0
-9058 256 0
9058 -7971 -7977 -6566 -256 0
-9059 7971 0
-9059 7978 0
-9059 6524 0
-9059 242 0
9059 -7971 -7978 -6524 -242 0
-9060 7971 0
-9060 7978 0
-9060 6551 0
-9060 250 0
9060 -7971 -7978 -6551 -250 0
-9061 7971 0
-9061 7978 0
-9061 6556 0
-9061 251 0
9061 -7971 -7978 -6556 -251 0
-9062 7971 0
-9062 7978 0
-9062 6560 0
-9062 252 0
9062 -7971 -7978 -6560 -252 0
-9063 7971 0
-9063 7978 0
-9063 6563 0
-9063 253 0
9063 -7971 -7978 -6563 -253 0
-9064 7971 0
-9064 7978 0
-9064 6565 0
-9064 254 0
9064 -7971 -7978 -6565 -254 0
-9065 7971 0
-9065 7978 0
-9065 6566 0
-9065 255 0
9065 -7971 -7978 -6566 -255 0
-9066 7972 0
-9066 7973 0
-9066 6525 0
-9066 243 0
9066 -7972 -7973 -6525 -243 0
-9067 7972 0
-9067 7973 0
-9067 6546 0
-9067 250 0
9067 -7972 -7973 -6546 -250 0
-9068 7972 0
-9068 7973 0
-9068 6567 0
-9068 258 0
9068 -7972 -7973 -6567 -258 0
-9069 7972 0
-9069 7973 0
-9069 6568 0
-9069 259 0
9069 -7972 -7973 -6568 -259 0
-9070 7972 0
-9070 7973 0
-9070 6569 0
-9070 260 0
9070 -7972 -7973 -6569 -260 0
-9071 7972 0
-9071 7973 0
-9071 6570 0
-9071 261 0
9071 -7972 -7973 -6570 -261 0
-9072 7972 0
-9072 7973 0
-9072 6571 0
-9072 262 0
9072 -7972 -7973 -6571 -262 0
-9073 7972 0
-9073 7974 0
-9073 6526 0
-9073 243 0
9073 -7972 -7974 -6526 -243 0
-9074 7972 0
-9074 7974 0
-9074 6547 0
-9074 250 0
9074 -7972 -7974 -6547 -250 0
-9075 7972 0
-9075 7974 0
-9075 6567 0
-9075 257 0
9075 -7972 -7974 -6567 -257 0
-9076 7972 0
-9076 7974 0
-9076 6572 0
-9076 259 0
9076 -7972 -7974 -6572 -259 0
-9077 7972 0
-9077 7974 0
-9077 6573 0
-9077 260 0
9077 -7972 -7974 -6573 -260 0
-9078 7972 0
-9078 7974 0
-9078 6574 0
-9078 261 0
9078 -7972 -7974 -6574 -261 0
-9079 7972 0
-9079 7974 0
-9079 6575 0
-9079 262 0
9079 -7972 -7974 -6575 -262 0
-9080 7972 0
-9080 7975 0
-9080 6527 0
-9080 243 0
9080 -7972 -7975 -6527 -243 0
-9081 7972 0
-9081 7975 0
-9081 6548 0
-9081 250 0
9081 -7972 -7975 -6548 -250 0
-9082 7972 0
-9082 7975 0
-9082 6568 0
-9082 257 0
9082 -7972 -7975 -6568 -257 0
-9083 7972 0
-9083 7975 0
-9083 6572 0
-9083 258 0
9083 -7972 -7975 -6572 -258 0
-9084 7972 0
-9084 7975 0
-9084 6576 0
-9084 260 0
9084 -7972 -7975 -6576 -260 0
-9085 7972 0
-9085 7975 0
-9085 6577 0
-9085 261 0
9085 -7972 -7975 -6577 -261 0
-9086 7972 0
-9086 7975 0
-9086 6578 0
-9086 262 0
9086 -7972 -7975 -6578 -262 0
-9087 7972 0
-9087 7976 0
-9087 6528 0
-9087 243 0
9087 -7972 -7976 -6528 -243 0
-9088 7972 0
-9088 7976 0
-9088 6549 0
-9088 250 0
9088 -7972 -7976 -6549 -250 0
-9089 7972 0
-9089 7976 0
-9089 6569 0
-9089 257 0
9089 -7972 -7976 -6569 -257 0
-9090 7972 0
-9090 7976 0
-9090 6573 0
-9090 258 0
9090 -7972 -7976 -6573 -258 0
-9091 7972 0
-9091 7976 0
-9091 6576 0
-9091 259 0
9091 -7972 -7976 -6576 -259 0
-9092 7972 0
-9092 7976 0
-9092 6579 0
-9092 261 0
9092 -7972 -7976 -6579 -261 0
-9093 7972 0
-9093 7976 0
-9093 6580 0
-9093 262 0
9093 -7972 -7976 -6580 -262 0
-9094 7972 0
-9094 7977 0
-9094 6529 0
-9094 243 0
9094 -7972 -7977 -6529 -243 0
-9095 7972 0
-9095 7977 0
-9095 6550 0
-9095 250 0
9095 -7972 -7977 -6550 -250 0
-9096 7972 0
-9096 7977 0
-9096 6570 0
-9096 257 0
9096 -7972 -7977 -6570 -257 0
-9097 7972 0
-9097 7977 0
-9097 6574 0
-9097 258 0
9097 -7972 -7977 -6574 -258 0
-9098 7972 0
-9098 7977 0
-9098 6577 0
-9098 259 0
9098 -7972 -7977 -6577 -259 0
-9099 7972 0
-9099 7977 0
-9099 6579 0
-9099 260 0
9099 -7972 -7977 -6579 -260 0
-9100 7972 0
-9100 7977 0
-9100 6581 0
-9100 262 0
9100 -7972 -7977 -6581 -262 0
-9101 7972 0
-9101 7978 0
-9101 6530 0
-9101 243 0
9101 -7972 -7978 -6530 -243 0
-9102 7972 0
-9102 7978 0
-9102 6551 0
-9102 250 0
9102 -7972 -7978 -6551 -250 0
-9103 7972 0
-9103 7978 0
-9103 6571 0
-9103 257 0
9103 -7972 -7978 -6571 -257 0
-9104 7972 0
-9104 7978 0
-9104 6575 0
-9104 258 0
9104 -7972 -7978 -6575 -258 0
-9105 7972 0
-9105 7978 0
-9105 6578 0
-9105 259 0
9105 -7972 -7978 -6578 -259 0
-9106 7972 0
-9106 7978 0
-9106 6580 0
-9106 260 0
9106 -7972 -7978 -6580 -260 0
-9107 7972 0
-9107 7978 0
-9107 6581 0
-9107 261 0
9107 -7972 -7978 -6581 -261 0
-9108 7973 0
-9108 7974 0
-9108 6531 0
-9108 244 0
9108 -7973 -7974 -6531 -244 0
-9109 7973 0
-9109 7974 0
-9109 6552 0
-9109 251 0
9109 -7973 -7974 -6552 -251 0
-9110 7973 0
-9110 7974 0
-9110 6567 0
-9110 257 0
9110 -7973 -7974 -6567 -257 0
-9111 7973 0
-9111 7974 0
-9111 6582 0
-9111 264 0
9111 -7973 -7974 -6582 -264 0
-9112 7973 0
-9112 7974 0
-9112 6583 0
-9112 265 0
9112 -7973 -7974 -6583 -265 0
-9113 7973 0
-9113 7974 0
-9113 6584 0
-9113 266 0
9113 -7973 -7974 -6584 -266 0
-9114 7973 0
-9114 7974 0
-9114 6585 0
-9114 267 0
9114 -7973 -7974 -6585 -267 0
-9115 7973 0
-9115 7975 0
-9115 6532 0
-9115 244 0
9115 -7973 -7975 -6532 -244 0
-9116 7973 0
-9116 7975 0
-9116 6553 0
-9116 251 0
9116 -7973 -7975 -6553 -251 0
-9117 7973 0
-9117 7975 0
-9117 6568 0
-9117 257 0
9117 -7973 -7975 -6568 -257 0
-9118 7973 0
-9118 7975 0
-9118 6582 0
-9118 263 0
9118 -7973 -7975 -6582 -263 0
-9119 7973 0
-9119 7975 0
-9119 6586 0
-9119 265 0
9119 -7973 -7975 -6586 -265 0
-9120 7973 0
-9120 7975 0
-9120 6587 0
-9120 266 0
9120 -7973 -7975 -6587 -266 0
-9121 7973 0
-9121 7975 0
-9121 6588 0
-9121 267 0
9121 -7973 -7975 -6588 -267 0
-9122 7973 0
-9122 7976 0
-9122 6533 0
-9122 244 0
9122 -7973 -7976 -6533 -244 0
-9123 7973 0
-9123 7976 0
-9123 6554 0
-9123 251 0
9123 -7973 -7976 -6554 -251 0
-9124 7973 0
-9124 7976 0
-9124 6569 0
-9124 257 0
9124 -7973 -7976 -6569 -257 0
-9125 7973 0
-9125 7976 0
-9125 6583 0
-9125 263 0
9125 -7973 -7976 -6583 -263 0
-9126 7973 0
-9126 7976 0
-9126 6586 0
-9126 264 0
9126 -7973 -7976 -6586 -264 0
-9127 7973 0
-9127 7976 0
-9127 6589 0
-9127 266 0
9127 -7973 -7976 -6589 -266 0
-9128 7973 0
-9128 7976 0
-9128 6590 0
-9128 267 0
9128 -7973 -7976 -6590 -267 0
-9129 7973 0
-9129 7977 0
-9129 6534 0
-9129 244 0
9129 -7973 -7977 -6534 -244 0
-9130 7973 0
-9130 7977 0
-9130 6555 0
-9130 251 0
9130 -7973 -7977 -6555 -251 0
-9131 7973 0
-9131 7977 0
-9131 6570 0
-9131 257 0
9131 -7973 -7977 -6570 -257 0
-9132 7973 0
-9132 7977 0
-9132 6584 0
-9132 263 0
9132 -7973 -7977 -6584 -263 0
-9133 7973 0
-9133 7977 0
-9133 6587 0
-9133 264 0
9133 -7973 -7977 -6587 -264 0
-9134 7973 0
-9134 7977 0
-9134 6589 0
-9134 265 0
9134 -7973 -7977 -6589 -265 0
-9135 7973 0
-9135 7977 0
-9135 6591 0
-9135 267 0
9135 -7973 -7977 -6591 -267 0
-9136 7973 0
-9136 7978 0
-9136 6535 0
-9136 244 0
9136 -7973 -7978 -6535 -244 0
-9137 7973 0
-9137 7978 0
-9137 6556 0
-9137 251 0
9137 -7973 -7978 -6556 -251 0
-9138 7973 0
-9138 7978 0
-9138 6571 0
-9138 257 0
9138 -7973 -7978 -6571 -257 0
-9139 7973 0
-9139 7978 0
-9139 6585 0
-9139 263 0
9139 -7973 -7978 -6585 -263 0
-9140 7973 0
-9140 7978 0
-9140 6588 0
-9140 264 0
9140 -7973 -7978 -6588 -264 0
-9141 7973 0
-9141 7978 0
-9141 6590 0
-9141 265 0
9141 -7973 -7978 -6590 -265 0
-9142 7973 0
-9142 7978 0
-9142 6591 0
-9142 266 0
9142 -7973 -7978 -6591 -266 0
-9143 7974 0
-9143 7975 0
-9143 6536 0
-9143 245 0
9143 -7974 -7975 -6536 -245 0
-9144 7974 0
-9144 7975 0
-9144 6557 0
-9144 252 0
9144 -7974 -7975 -6557 -252 0
-9145 7974 0
-9145 7975 0
-9145 6572 0
-9145 258 0
9145 -7974 -7975 -6572 -258 0
-9146 7974 0
-9146 7975 0
-9146 6582 0
-9146 263 0
9146 -7974 -7975 -6582 -263 0
-9147 7974 0
-9147 7975 0
-9147 6592 0
-9147 269 0
9147 -7974 -7975 -6592 -269 0
-9148 7974 0
-9148 7975 0
-9148 6593 0
-9148 270 0
9148 -7974 -7975 -6593 -270 0
-9149 7974 0
-9149 7975 0
-9149 6594 0
-9149 271 0
9149 -7974 -7975 -6594 -271 0
-9150 7974 0
-9150 7976 0
-9150 6537 0
-9150 245 0
9150 -7974 -7976 -6537 -245 0
-9151 7974 0
-9151 7976 0
-9151 6558 0
-9151 252 0
9151 -7974 -7976 -6558 -252 0
-9152 7974 0
-9152 7976 0
-9152 6573 0
-9152 258 0
9152 -7974 -7976 -6573 -258 0
-9153 7974 0
-9153 7976 0
-9153 6583 0
-9153 263 0
9153 -7974 -7976 -6583 -263 0
-9154 7974 0
-9154 7976 0
-9154 6592 0
-9154 268 0
9154 -7974 -7976 -6592 -268 0
-9155 7974 0
-9155 7976 0
-9155 6595 0
-9155 270 0
9155 -7974 -7976 -6595 -270 0
-9156 7974 0
-9156 7976 0
-9156 6596 0
-9156 271 0
9156 -7974 -7976 -6596 -271 0
-9157 7974 0
-9157 7977 0
-9157 6538 0
-9157 245 0
9157 -7974 -7977 -6538 -245 0
-9158 7974 0
-9158 7977 0
-9158 6559 0
-9158 252 0
9158 -7974 -7977 -6559 -252 0
-9159 7974 0
-9159 7977 0
-9159 6574 0
-9159 258 0
9159 -7974 -7977 -6574 -258 0
-9160 7974 0
-9160 7977 0
-9160 6584 0
-9160 263 0
9160 -7974 -7977 -6584 -263 0
-9161 7974 0
-9161 7977 0
-9161 6593 0
-9161 268 0
9161 -7974 -7977 -6593 -268 0
-9162 7974 0
-9162 7977 0
-9162 6595 0
-9162 269 0
9162 -7974 -7977 -6595 -269 0
-9163 7974 0
-9163 7977 0
-9163 6597 0
-9163 271 0
9163 -7974 -7977 -6597 -271 0
-9164 7974 0
-9164 7978 0
-9164 6539 0
-9164 245 0
9164 -7974 -7978 -6539 -245 0
-9165 7974 0
-9165 7978 0
-9165 6560 0
-9165 252 0
9165 -7974 -7978 -6560 -252 0
-9166 7974 0
-9166 7978 0
-9166 6575 0
-9166 258 0
9166 -7974 -7978 -6575 -258 0
-9167 7974 0
-9167 7978 0
-9167 6585 0
-9167 263 0
9167 -7974 -7978 -6585 -263 0
-9168 7974 0
-9168 7978 0
-9168 6594 0
-9168 268 0
9168 -7974 -7978 -6594 -268 0
-9169 7974 0
-9169 7978 0
-9169 6596 0
-9169 269 0
9169 -7974 -7978 -6596 -269 0
-9170 7974 0
-9170 7978 0
-9170 6597 0
-9170 270 0
9170 -7974 -7978 -6597 -270 0
-9171 7975 0
-9171 7976 0
-9171 6540 0
-9171 246 0
9171 -7975 -7976 -6540 -246 0
-9172 7975 0
-9172 7976 0
-9172 6561 0
-9172 253 0
9172 -7975 -7976 -6561 -253 0
-9173 7975 0
-9173 7976 0
-9173 6576 0
-9173 259 0
9173 -7975 -7976 -6576 -259 0
-9174 7975 0
-9174 7976 0
-9174 6586 0
-9174 264 0
9174 -7975 -7976 -6586 -264 0
-9175 7975 0
-9175 7976 0
-9175 6592 0
-9175 268 0
9175 -7975 -7976 -6592 -268 0
-9176 7975 0
-9176 7976 0
-9176 6598 0
-9176 273 0
9176 -7975 -7976 -6598 -273 0
-9177 7975 0
-9177 7976 0
-9177 6599 0
-9177 274 0
9177 -7975 -7976 -6599 -274 0
-9178 7975 0
-9178 7977 0
-9178 6541 0
-9178 246 0
9178 -7975 -7977 -6541 -246 0
-9179 7975 0
-9179 7977 0
-9179 6562 0
-9179 253 0
9179 -7975 -7977 -6562 -253 0
-9180 7975 0
-9180 7977 0
-9180 6577 0
-9180 259 0
9180 -7975 -7977 -6577 -259 0
-9181 7975 0
-9181 7977 0
-9181 6587 0
-9181 264 0
9181 -7975 -7977 -6587 -264 0
-9182 7975 0
-9182 7977 0
-9182 6593 0
-9182 268 0
9182 -7975 -7977 -6593 -268 0
-9183 7975 0
-9183 7977 0
-9183 6598 0
-9183 272 0
9183 -7975 -7977 -6598 -272 0
-9184 7975 0
-9184 7977 0
-9184 6600 0
-9184 274 0
9184 -7975 -7977 -6600 -274 0
-9185 7975 0
-9185 7978 0
-9185 6542 0
-9185 246 0
9185 -7975 -7978 -6542 -246 0
-9186 7975 0
-9186 7978 0
-9186 6563 0
-9186 253 0
9186 -7975 -7978 -6563 -253 0
-9187 7975 0
-9187 7978 0
-9187 6578 0
-9187 259 0
9187 -7975 -7978 -6578 -259 0
-9188 7975 0
-9188 7978 0
-9188 6588 0
-9188 264 0
9188 -7975 -7978 -6588 -264 0
-9189 7975 0
-9189 7978 0
-9189 6594 0
-9189 268 0
9189 -7975 -7978 -6594 -268 0
-9190 7975 0
-9190 7978 0
-9190 6599 0
-9190 272 0
9190 -7975 -7978 -6599 -272 0
-9191 7975 0
-9191 7978 0
-9191 6600 0
-9191 273 0
9191 -7975 -7978 -6600 -273 0
-9192 7976 0
-9192 7977 0
-9192 6543 0
-9192 247 0
9192 -7976 -7977 -6543 -247 0
-9193 7976 0
-9193 7977 0
-9193 6564 0
-9193 254 0
9193 -7976 -7977 -6564 -254 0
-9194 7976 0
-9194 7977 0
-9194 6579 0
-9194 260 0
9194 -7976 -7977 -6579 -260 0
-9195 7976 0
-9195 7977 0
-9195 6589 0
-9195 265 0
9195 -7976 -7977 -6589 -265 0
-9196 7976 0
-9196 7977 0
-9196 6595 0
-9196 269 0
9196 -7976 -7977 -6595 -269 0
-9197 7976 0
-9197 7977 0
-9197 6598 0
-9197 272 0
9197 -7976 -7977 -6598 -272 0
-9198 7976 0
-9198 7977 0
-9198 6601 0
-9198 276 0
9198 -7976 -7977 -6601 -276 0
-9199 7976 0
-9199 7978 0
-9199 6544 0
-9199 247 0
9199 -7976 -7978 -6544 -247 0
-9200 7976 0
-9200 7978 0
-9200 6565 0
-9200 254 0
9200 -7976 -7978 -6565 -254 0
-9201 7976 0
-9201 7978 0
-9201 6580 0
-9201 260 0
9201 -7976 -7978 -6580 -260 0
-9202 7976 0
-9202 7978 0
-9202 6590 0
-9202 265 0
9202 -7976 -7978 -6590 -265 0
-9203 7976 0
-9203 7978 0
-9203 6596 0
-9203 269 0
9203 -7976 -7978 -6596 -269 0
-9204 7976 0
-9204 7978 0
-9204 6599 0
-9204 272 0
9204 -7976 -7978 -6599 -272 0
-9205 7976 0
-9205 7978 0
-9205 6601 0
-9205 275 0
9205 -7976 -7978 -6601 -275 0
-9206 7977 0
-9206 7978 0
-9206 6545 0
-9206 248 0
9206 -7977 -7978 -6545 -248 0
-9207 7977 0
-9207 7978 0
-9207 6566 0
-9207 255 0
9207 -7977 -7978 -6566 -255 0
-9208 7977 0
-9208 7978 0
-9208 6581 0
-9208 261 0
9208 -7977 -7978 -6581 -261 0
-9209 7977 0
-9209 7978 0
-9209 6591 0
-9209 266 0
9209 -7977 -7978 -6591 -266 0
-9210 7977 0
-9210 7978 0
-9210 6597 0
-9210 270 0
9210 -7977 -7978 -6597 -270 0
-9211 7977 0
-9211 7978 0
-9211 6600 0
-9211 273 0
9211 -7977 -7978 -6600 -273 0
-9212 7977 0
-9212 7978 0
-9212 6601 0
-9212 275 0
9212 -7977 -7978 -6601 -275 0
-8708 8961 8962 8963 8964 8965 8966 8967 8968 8969 8970 8971 8972 8973 8974 8975 8976 8977 8978 8979 8980 8981 8982 8983 8984 8985 8986 8987 8988 8989 8990 8991 8992 8993 8994 8995 8996 8997 8998 8999 9000 9001 9002 9003 9004 9005 9006 9007 9008 9009 9010 9011 9012 9013 9014 9015 9016 9017 9018 9019 9020 9021 9022 9023 9024 9025 9026 9027 9028 9029 9030 9031 9032 9033 9034 9035 9036 9037 9038 9039 9040 9041 9042 9043 9044 9045 9046 9047 9048 9049 9050 9051 9052 9053 9054 9055 9056 9057 9058 9059 9060 9061 9062 9063 9064 9065 9066 9067 9068 9069 9070 9071 9072 9073 9074 9075 9076 9077 9078 9079 9080 9081 9082 9083 9084 9085 9086 9087 9088 9089 9090 9091 9092 9093 9094 9095 9096 9097 9098 9099 9100 9101 9102 9103 9104 9105 9106 9107 9108 9109 9110 9111 9112 9113 9114 9115 9116 9117 9118 9119 9120 9121 9122 9123 9124 9125 9126 9127 9128 9129 9130 9131 9132 9133 9134 9135 9136 9137 9138 9139 9140 9141 9142 9143 9144 9145 9146 9147 9148 9149 9150 9151 9152 9153 9154 9155 9156 9157 9158 9159 9160 9161 9162 9163 9164 9165 9166 9167 9168 9169 9170 9171 9172 9173 9174 9175 9176 9177 9178 9179 9180 9181 9182 9183 9184 9185 9186 9187 9188 9189 9190 9191 9192 9193 9194 9195 9196 9197 9198 9199 9200 9201 9202 9203 9204 9205 9206 9207 9208 9209 9210 9211 9212 0
8411 0
8412 0
8485 0
8486 0
8559 0
8560 0
8633 0
8634 0
8707 0
8708 0
